
     Program PWSCF v.7.3.1 starts on  1Sep2026 at  2:11:41 

     This program is part of the open-source Quantum ESPRESSO suite
     for quantum simulation of materials; please cite
         "P. Giannozzi et al., J. Phys.:Condens. Matter 21 395502 (2009);
         "P. Giannozzi et al., J. Phys.:Condens. Matter 29 465901 (2017);
         "P. Giannozzi et al., J. Chem. Phys. 152 154105 (2020);
          URL http://www.quantum-espresso.org", 
     in publications or presentations arising from this work. More details at
     http://www.quantum-espresso.org/quote

     Parallel version (MPI & OpenMP), running on      16 processor cores
     Number of MPI processes:                16
     Threads/MPI process:                     1

     MPI processes distributed on     1 nodes
     77288 MiB available memory on the printing compute node when the environment starts
 
     Waiting for input...
     Reading input from standard input

     Current dimensions of program PWSCF are:
     Max number of different atomic species (ntypx) = 10
     Max number of k-points (npk) =  40000
     Max angular momentum in pseudopotentials (lmaxx) =  4
     file Ga.pbe-dn-kjpaw_psl.1.0.0.UPF: wavefunction(s)  4S renormalized
     file N.pbe-n-kjpaw_psl.1.0.0.UPF: wavefunction(s)  2S renormalized
 
     R & G space division:  proc/nbgrp/npool/nimage =      16
     Subspace diagonalization in iterative solution of the eigenvalue problem:
     a serial algorithm will be used

 
     Parallelization info
     --------------------
     sticks:   dense  smooth     PW     G-vecs:    dense   smooth      PW
     Min          80      31      9                 3760      951     158
     Max          81      32     11                 3762      960     164
     Sum        1285     511    163                60167    15303    2575
 
     Using Slab Decomposition
 


     bravais-lattice index     =            4
     lattice parameter (alat)  =       6.0849  a.u.
     unit-cell volume          =     318.1254 (a.u.)^3
     number of atoms/cell      =            4
     number of atomic types    =            2
     number of electrons       =        36.00
     number of Kohn-Sham states=           22
     kinetic-energy cutoff     =      50.0000  Ry
     charge density cutoff     =     500.0000  Ry
     scf convergence threshold =      1.0E-08
     mixing beta               =       0.7000
     number of iterations used =            8  plain     mixing
     Exchange-correlation= SLA  PW   PBX  PBC
                           (   1   4   3   4   0   0   0)

     celldm(1)=   6.084918  celldm(2)=   0.000000  celldm(3)=   1.630435
     celldm(4)=   0.000000  celldm(5)=   0.000000  celldm(6)=   0.000000

     crystal axes: (cart. coord. in units of alat)
               a(1) = (   1.000000   0.000000   0.000000 )  
               a(2) = (  -0.500000   0.866025   0.000000 )  
               a(3) = (   0.000000   0.000000   1.630435 )  

     reciprocal axes: (cart. coord. in units 2 pi/alat)
               b(1) = (  1.000000  0.577350  0.000000 )  
               b(2) = (  0.000000  1.154701  0.000000 )  
               b(3) = (  0.000000  0.000000  0.613333 )  


     PseudoPot. # 1 for Ga read from file:
     /data-fast/greenano/Students/cohort2/rojassan/Project_GaN/PSEUDO/Ga.pbe-dn-kjpaw_psl.1.0.0.UPF
     MD5 check sum: 93aceff68ec27daa0acc11ebb2e245f0
     Pseudo is Projector augmented-wave + core cor, Zval = 13.0
     Generated using 'atomic' code by A. Dal Corso  v.7.3.1
     Shape of augmentation charge: PSQ
     Using radial grid of 1205 points,  6 beta functions with: 
                l(1) =   0
                l(2) =   0
                l(3) =   1
                l(4) =   1
                l(5) =   2
                l(6) =   2
     Q(r) pseudized with 0 coefficients 


     PseudoPot. # 2 for N  read from file:
     /data-fast/greenano/Students/cohort2/rojassan/Project_GaN/PSEUDO/N.pbe-n-kjpaw_psl.1.0.0.UPF
     MD5 check sum: 86f48117b7e7b472c01f85d0863ba463
     Pseudo is Projector augmented-wave + core cor, Zval =  5.0
     Generated using 'atomic' code by A. Dal Corso  v.7.3.1
     Shape of augmentation charge: PSQ
     Using radial grid of 1085 points,  4 beta functions with: 
                l(1) =   0
                l(2) =   0
                l(3) =   1
                l(4) =   1
     Q(r) pseudized with 0 coefficients 


     atomic species   valence    mass     pseudopotential
     Ga               13.00    69.72300     Ga( 1.00)
     N                 5.00    14.00700     N ( 1.00)

     12 Sym. Ops. (no inversion) found ( 6 have fractional translation)


                                    s                        frac. trans.

      isym =  1     identity                                     

 cryst.   s( 1) = (     1          0          0      )
                  (     0          1          0      )
                  (     0          0          1      )

 cart.    s( 1) = (  1.0000000  0.0000000  0.0000000 )
                  (  0.0000000  1.0000000  0.0000000 )
                  (  0.0000000  0.0000000  1.0000000 )


      isym =  2     180 deg rotation - cart. axis [0,0,1]        

 cryst.   s( 2) = (    -1          0          0      )    f =(  0.0000000 )
                  (     0         -1          0      )       (  0.0000000 )
                  (     0          0          1      )       ( -0.5000000 )

 cart.    s( 2) = ( -1.0000000  0.0000000  0.0000000 )    f =(  0.0000000 )
                  (  0.0000000 -1.0000000  0.0000000 )       (  0.0000000 )
                  (  0.0000000  0.0000000  1.0000000 )       ( -0.8152174 )


      isym =  3      60 deg rotation - cryst. axis [0,0,1]       

 cryst.   s( 3) = (     1          1          0      )    f =(  0.0000000 )
                  (    -1          0          0      )       (  0.0000000 )
                  (     0          0          1      )       ( -0.5000000 )

 cart.    s( 3) = (  0.5000000 -0.8660254  0.0000000 )    f =(  0.0000000 )
                  (  0.8660254  0.5000000  0.0000000 )       (  0.0000000 )
                  (  0.0000000  0.0000000  1.0000000 )       ( -0.8152174 )


      isym =  4      60 deg rotation - cryst. axis [0,0,-1]      

 cryst.   s( 4) = (     0         -1          0      )    f =(  0.0000000 )
                  (     1          1          0      )       (  0.0000000 )
                  (     0          0          1      )       ( -0.5000000 )

 cart.    s( 4) = (  0.5000000  0.8660254  0.0000000 )    f =( -0.0000000 )
                  ( -0.8660254  0.5000000  0.0000000 )       (  0.0000000 )
                  (  0.0000000  0.0000000  1.0000000 )       ( -0.8152174 )


      isym =  5     120 deg rotation - cryst. axis [0,0,1]       

 cryst.   s( 5) = (     0          1          0      )
                  (    -1         -1          0      )
                  (     0          0          1      )

 cart.    s( 5) = ( -0.5000000 -0.8660254  0.0000000 )
                  (  0.8660254 -0.5000000  0.0000000 )
                  (  0.0000000  0.0000000  1.0000000 )


      isym =  6     120 deg rotation - cryst. axis [0,0,-1]      

 cryst.   s( 6) = (    -1         -1          0      )
                  (     1          0          0      )
                  (     0          0          1      )

 cart.    s( 6) = ( -0.5000000  0.8660254  0.0000000 )
                  ( -0.8660254 -0.5000000  0.0000000 )
                  (  0.0000000  0.0000000  1.0000000 )


      isym =  7     inv. 180 deg rotation - cart. axis [0,1,0]   

 cryst.   s( 7) = (     1          0          0      )    f =(  0.0000000 )
                  (    -1         -1          0      )       (  0.0000000 )
                  (     0          0          1      )       ( -0.5000000 )

 cart.    s( 7) = (  1.0000000  0.0000000  0.0000000 )    f =( -0.0000000 )
                  (  0.0000000 -1.0000000  0.0000000 )       (  0.0000000 )
                  (  0.0000000  0.0000000  1.0000000 )       ( -0.8152174 )


      isym =  8     inv. 180 deg rotation - cart. axis [1,0,0]   

 cryst.   s( 8) = (    -1          0          0      )
                  (     1          1          0      )
                  (     0          0          1      )

 cart.    s( 8) = ( -1.0000000  0.0000000  0.0000000 )
                  (  0.0000000  1.0000000  0.0000000 )
                  (  0.0000000  0.0000000  1.0000000 )


      isym =  9     inv. 180 deg rotation - cryst. axis [1,-1,0] 

 cryst.   s( 9) = (     0          1          0      )    f =(  0.0000000 )
                  (     1          0          0      )       (  0.0000000 )
                  (     0          0          1      )       ( -0.5000000 )

 cart.    s( 9) = ( -0.5000000  0.8660254  0.0000000 )    f =(  0.0000000 )
                  (  0.8660254  0.5000000  0.0000000 )       (  0.0000000 )
                  (  0.0000000  0.0000000  1.0000000 )       ( -0.8152174 )


      isym = 10     inv. 180 deg rotation - cryst. axis [2,1,0]  

 cryst.   s(10) = (    -1         -1          0      )    f =(  0.0000000 )
                  (     0          1          0      )       (  0.0000000 )
                  (     0          0          1      )       ( -0.5000000 )

 cart.    s(10) = ( -0.5000000 -0.8660254  0.0000000 )    f =(  0.0000000 )
                  ( -0.8660254  0.5000000  0.0000000 )       (  0.0000000 )
                  (  0.0000000  0.0000000  1.0000000 )       ( -0.8152174 )


      isym = 11     inv. 180 deg rotation - cryst. axis [0,1,0]  

 cryst.   s(11) = (     1          1          0      )
                  (     0         -1          0      )
                  (     0          0          1      )

 cart.    s(11) = (  0.5000000  0.8660254  0.0000000 )
                  (  0.8660254 -0.5000000  0.0000000 )
                  (  0.0000000  0.0000000  1.0000000 )


      isym = 12     inv. 180 deg rotation - cryst. axis [1,1,0]  

 cryst.   s(12) = (     0         -1          0      )
                  (    -1          0          0      )
                  (     0          0          1      )

 cart.    s(12) = (  0.5000000 -0.8660254  0.0000000 )
                  ( -0.8660254 -0.5000000  0.0000000 )
                  (  0.0000000  0.0000000  1.0000000 )


     point group C_6v (6mm) 
     there are  6 classes
     the character table:

       E     2C6   2C3   C2    3s_v  3s_d 
A_1    1.00  1.00  1.00  1.00  1.00  1.00
A_2    1.00  1.00  1.00  1.00 -1.00 -1.00
B_1    1.00 -1.00  1.00 -1.00  1.00 -1.00
B_2    1.00 -1.00  1.00 -1.00 -1.00  1.00
E_1    2.00  1.00 -1.00 -2.00  0.00  0.00
E_2    2.00 -1.00 -1.00  2.00  0.00  0.00

     the symmetry operations in each class and the name of the first element:

     E        1
          identity                                               
     2C6      3    4
           60 deg rotation - cryst. axis [0,0,1]                 
     2C3      5    6
          120 deg rotation - cryst. axis [0,0,1]                 
     C2       2
          180 deg rotation - cart. axis [0,0,1]                  
     3s_v     8   12   11
          inv. 180 deg rotation - cart. axis [1,0,0]             
     3s_d     7    9   10
          inv. 180 deg rotation - cart. axis [0,1,0]             

   Cartesian axes

     site n.     atom                  positions (alat units)
         1        Ga     tau(   1) = (   0.0000000   0.5773503   0.0000000  )
         2        Ga     tau(   2) = (   0.5000000   0.2886751   0.8152174  )
         3        N      tau(   3) = (   0.0000000   0.5773503   0.6136663  )
         4        N      tau(   4) = (   0.5000000   0.2886751   1.4288837  )

   Crystallographic axes

     site n.     atom                  positions (cryst. coord.)
         1        Ga     tau(   1) = (  0.3333333  0.6666667  0.0000000  )
         2        Ga     tau(   2) = (  0.6666667  0.3333333  0.5000000  )
         3        N      tau(   3) = (  0.3333333  0.6666667  0.3763820  )
         4        N      tau(   4) = (  0.6666667  0.3333333  0.8763820  )

     number of k points=    76
                       cart. coord. in units 2pi/alat
        k(    1) = (   0.0000000   0.0000000   0.0000000), wk =   0.0023148
        k(    2) = (   0.0000000   0.0000000   0.1022222), wk =   0.0046296
        k(    3) = (   0.0000000   0.0000000   0.2044444), wk =   0.0046296
        k(    4) = (   0.0000000   0.0000000  -0.3066667), wk =   0.0023148
        k(    5) = (   0.0000000   0.0962250   0.0000000), wk =   0.0138889
        k(    6) = (   0.0000000   0.0962250   0.1022222), wk =   0.0277778
        k(    7) = (   0.0000000   0.0962250   0.2044444), wk =   0.0277778
        k(    8) = (   0.0000000   0.0962250  -0.3066667), wk =   0.0138889
        k(    9) = (   0.0000000   0.1924501   0.0000000), wk =   0.0138889
        k(   10) = (   0.0000000   0.1924501   0.1022222), wk =   0.0277778
        k(   11) = (   0.0000000   0.1924501   0.2044444), wk =   0.0277778
        k(   12) = (   0.0000000   0.1924501  -0.3066667), wk =   0.0138889
        k(   13) = (   0.0000000   0.2886751   0.0000000), wk =   0.0138889
        k(   14) = (   0.0000000   0.2886751   0.1022222), wk =   0.0277778
        k(   15) = (   0.0000000   0.2886751   0.2044444), wk =   0.0277778
        k(   16) = (   0.0000000   0.2886751  -0.3066667), wk =   0.0138889
        k(   17) = (   0.0000000   0.3849002   0.0000000), wk =   0.0138889
        k(   18) = (   0.0000000   0.3849002   0.1022222), wk =   0.0277778
        k(   19) = (   0.0000000   0.3849002   0.2044444), wk =   0.0277778
        k(   20) = (   0.0000000   0.3849002  -0.3066667), wk =   0.0138889
        k(   21) = (   0.0000000   0.4811252   0.0000000), wk =   0.0138889
        k(   22) = (   0.0000000   0.4811252   0.1022222), wk =   0.0277778
        k(   23) = (   0.0000000   0.4811252   0.2044444), wk =   0.0277778
        k(   24) = (   0.0000000   0.4811252  -0.3066667), wk =   0.0138889
        k(   25) = (   0.0000000  -0.5773503   0.0000000), wk =   0.0069444
        k(   26) = (   0.0000000  -0.5773503   0.1022222), wk =   0.0138889
        k(   27) = (   0.0000000  -0.5773503   0.2044444), wk =   0.0138889
        k(   28) = (   0.0000000  -0.5773503  -0.3066667), wk =   0.0069444
        k(   29) = (   0.0833333   0.1443376   0.0000000), wk =   0.0138889
        k(   30) = (   0.0833333   0.1443376   0.1022222), wk =   0.0277778
        k(   31) = (   0.0833333   0.1443376   0.2044444), wk =   0.0277778
        k(   32) = (   0.0833333   0.1443376  -0.3066667), wk =   0.0138889
        k(   33) = (   0.0833333   0.2405626   0.0000000), wk =   0.0277778
        k(   34) = (   0.0833333   0.2405626   0.1022222), wk =   0.0555556
        k(   35) = (   0.0833333   0.2405626   0.2044444), wk =   0.0555556
        k(   36) = (   0.0833333   0.2405626  -0.3066667), wk =   0.0277778
        k(   37) = (   0.0833333   0.3367877   0.0000000), wk =   0.0277778
        k(   38) = (   0.0833333   0.3367877   0.1022222), wk =   0.0555556
        k(   39) = (   0.0833333   0.3367877   0.2044444), wk =   0.0555556
        k(   40) = (   0.0833333   0.3367877  -0.3066667), wk =   0.0277778
        k(   41) = (   0.0833333   0.4330127   0.0000000), wk =   0.0277778
        k(   42) = (   0.0833333   0.4330127   0.1022222), wk =   0.0555556
        k(   43) = (   0.0833333   0.4330127   0.2044444), wk =   0.0555556
        k(   44) = (   0.0833333   0.4330127  -0.3066667), wk =   0.0277778
        k(   45) = (   0.0833333   0.5292377   0.0000000), wk =   0.0277778
        k(   46) = (   0.0833333   0.5292377   0.1022222), wk =   0.0555556
        k(   47) = (   0.0833333   0.5292377   0.2044444), wk =   0.0555556
        k(   48) = (   0.0833333   0.5292377  -0.3066667), wk =   0.0277778
        k(   49) = (   0.1666667   0.2886751   0.0000000), wk =   0.0138889
        k(   50) = (   0.1666667   0.2886751   0.1022222), wk =   0.0277778
        k(   51) = (   0.1666667   0.2886751   0.2044444), wk =   0.0277778
        k(   52) = (   0.1666667   0.2886751  -0.3066667), wk =   0.0138889
        k(   53) = (   0.1666667   0.3849002   0.0000000), wk =   0.0277778
        k(   54) = (   0.1666667   0.3849002   0.1022222), wk =   0.0555556
        k(   55) = (   0.1666667   0.3849002   0.2044444), wk =   0.0555556
        k(   56) = (   0.1666667   0.3849002  -0.3066667), wk =   0.0277778
        k(   57) = (   0.1666667   0.4811252   0.0000000), wk =   0.0277778
        k(   58) = (   0.1666667   0.4811252   0.1022222), wk =   0.0555556
        k(   59) = (   0.1666667   0.4811252   0.2044444), wk =   0.0555556
        k(   60) = (   0.1666667   0.4811252  -0.3066667), wk =   0.0277778
        k(   61) = (   0.1666667   0.5773503   0.0000000), wk =   0.0138889
        k(   62) = (   0.1666667   0.5773503   0.1022222), wk =   0.0277778
        k(   63) = (   0.1666667   0.5773503   0.2044444), wk =   0.0277778
        k(   64) = (   0.1666667   0.5773503  -0.3066667), wk =   0.0138889
        k(   65) = (   0.2500000   0.4330127   0.0000000), wk =   0.0138889
        k(   66) = (   0.2500000   0.4330127   0.1022222), wk =   0.0277778
        k(   67) = (   0.2500000   0.4330127   0.2044444), wk =   0.0277778
        k(   68) = (   0.2500000   0.4330127  -0.3066667), wk =   0.0138889
        k(   69) = (   0.2500000   0.5292377   0.0000000), wk =   0.0277778
        k(   70) = (   0.2500000   0.5292377   0.1022222), wk =   0.0555556
        k(   71) = (   0.2500000   0.5292377   0.2044444), wk =   0.0555556
        k(   72) = (   0.2500000   0.5292377  -0.3066667), wk =   0.0277778
        k(   73) = (   0.3333333   0.5773503   0.0000000), wk =   0.0046296
        k(   74) = (   0.3333333   0.5773503   0.1022222), wk =   0.0092593
        k(   75) = (   0.3333333   0.5773503   0.2044444), wk =   0.0092593
        k(   76) = (   0.3333333   0.5773503  -0.3066667), wk =   0.0046296

                       cryst. coord.
        k(    1) = (   0.0000000   0.0000000   0.0000000), wk =   0.0023148
        k(    2) = (   0.0000000   0.0000000   0.1666667), wk =   0.0046296
        k(    3) = (   0.0000000   0.0000000   0.3333333), wk =   0.0046296
        k(    4) = (   0.0000000   0.0000000  -0.5000000), wk =   0.0023148
        k(    5) = (   0.0000000   0.0833333   0.0000000), wk =   0.0138889
        k(    6) = (   0.0000000   0.0833333   0.1666667), wk =   0.0277778
        k(    7) = (   0.0000000   0.0833333   0.3333333), wk =   0.0277778
        k(    8) = (   0.0000000   0.0833333  -0.5000000), wk =   0.0138889
        k(    9) = (   0.0000000   0.1666667   0.0000000), wk =   0.0138889
        k(   10) = (   0.0000000   0.1666667   0.1666667), wk =   0.0277778
        k(   11) = (   0.0000000   0.1666667   0.3333333), wk =   0.0277778
        k(   12) = (   0.0000000   0.1666667  -0.5000000), wk =   0.0138889
        k(   13) = (   0.0000000   0.2500000   0.0000000), wk =   0.0138889
        k(   14) = (   0.0000000   0.2500000   0.1666667), wk =   0.0277778
        k(   15) = (   0.0000000   0.2500000   0.3333333), wk =   0.0277778
        k(   16) = (   0.0000000   0.2500000  -0.5000000), wk =   0.0138889
        k(   17) = (   0.0000000   0.3333333   0.0000000), wk =   0.0138889
        k(   18) = (   0.0000000   0.3333333   0.1666667), wk =   0.0277778
        k(   19) = (   0.0000000   0.3333333   0.3333333), wk =   0.0277778
        k(   20) = (   0.0000000   0.3333333  -0.5000000), wk =   0.0138889
        k(   21) = (   0.0000000   0.4166667   0.0000000), wk =   0.0138889
        k(   22) = (   0.0000000   0.4166667   0.1666667), wk =   0.0277778
        k(   23) = (   0.0000000   0.4166667   0.3333333), wk =   0.0277778
        k(   24) = (   0.0000000   0.4166667  -0.5000000), wk =   0.0138889
        k(   25) = (   0.0000000  -0.5000000   0.0000000), wk =   0.0069444
        k(   26) = (   0.0000000  -0.5000000   0.1666667), wk =   0.0138889
        k(   27) = (   0.0000000  -0.5000000   0.3333333), wk =   0.0138889
        k(   28) = (   0.0000000  -0.5000000  -0.5000000), wk =   0.0069444
        k(   29) = (   0.0833333   0.0833333   0.0000000), wk =   0.0138889
        k(   30) = (   0.0833333   0.0833333   0.1666667), wk =   0.0277778
        k(   31) = (   0.0833333   0.0833333   0.3333333), wk =   0.0277778
        k(   32) = (   0.0833333   0.0833333  -0.5000000), wk =   0.0138889
        k(   33) = (   0.0833333   0.1666667   0.0000000), wk =   0.0277778
        k(   34) = (   0.0833333   0.1666667   0.1666667), wk =   0.0555556
        k(   35) = (   0.0833333   0.1666667   0.3333333), wk =   0.0555556
        k(   36) = (   0.0833333   0.1666667  -0.5000000), wk =   0.0277778
        k(   37) = (   0.0833333   0.2500000   0.0000000), wk =   0.0277778
        k(   38) = (   0.0833333   0.2500000   0.1666667), wk =   0.0555556
        k(   39) = (   0.0833333   0.2500000   0.3333333), wk =   0.0555556
        k(   40) = (   0.0833333   0.2500000  -0.5000000), wk =   0.0277778
        k(   41) = (   0.0833333   0.3333333   0.0000000), wk =   0.0277778
        k(   42) = (   0.0833333   0.3333333   0.1666667), wk =   0.0555556
        k(   43) = (   0.0833333   0.3333333   0.3333333), wk =   0.0555556
        k(   44) = (   0.0833333   0.3333333  -0.5000000), wk =   0.0277778
        k(   45) = (   0.0833333   0.4166667   0.0000000), wk =   0.0277778
        k(   46) = (   0.0833333   0.4166667   0.1666667), wk =   0.0555556
        k(   47) = (   0.0833333   0.4166667   0.3333333), wk =   0.0555556
        k(   48) = (   0.0833333   0.4166667  -0.5000000), wk =   0.0277778
        k(   49) = (   0.1666667   0.1666667   0.0000000), wk =   0.0138889
        k(   50) = (   0.1666667   0.1666667   0.1666667), wk =   0.0277778
        k(   51) = (   0.1666667   0.1666667   0.3333333), wk =   0.0277778
        k(   52) = (   0.1666667   0.1666667  -0.5000000), wk =   0.0138889
        k(   53) = (   0.1666667   0.2500000   0.0000000), wk =   0.0277778
        k(   54) = (   0.1666667   0.2500000   0.1666667), wk =   0.0555556
        k(   55) = (   0.1666667   0.2500000   0.3333333), wk =   0.0555556
        k(   56) = (   0.1666667   0.2500000  -0.5000000), wk =   0.0277778
        k(   57) = (   0.1666667   0.3333333   0.0000000), wk =   0.0277778
        k(   58) = (   0.1666667   0.3333333   0.1666667), wk =   0.0555556
        k(   59) = (   0.1666667   0.3333333   0.3333333), wk =   0.0555556
        k(   60) = (   0.1666667   0.3333333  -0.5000000), wk =   0.0277778
        k(   61) = (   0.1666667   0.4166667   0.0000000), wk =   0.0138889
        k(   62) = (   0.1666667   0.4166667   0.1666667), wk =   0.0277778
        k(   63) = (   0.1666667   0.4166667   0.3333333), wk =   0.0277778
        k(   64) = (   0.1666667   0.4166667  -0.5000000), wk =   0.0138889
        k(   65) = (   0.2500000   0.2500000   0.0000000), wk =   0.0138889
        k(   66) = (   0.2500000   0.2500000   0.1666667), wk =   0.0277778
        k(   67) = (   0.2500000   0.2500000   0.3333333), wk =   0.0277778
        k(   68) = (   0.2500000   0.2500000  -0.5000000), wk =   0.0138889
        k(   69) = (   0.2500000   0.3333333   0.0000000), wk =   0.0277778
        k(   70) = (   0.2500000   0.3333333   0.1666667), wk =   0.0555556
        k(   71) = (   0.2500000   0.3333333   0.3333333), wk =   0.0555556
        k(   72) = (   0.2500000   0.3333333  -0.5000000), wk =   0.0277778
        k(   73) = (   0.3333333   0.3333333   0.0000000), wk =   0.0046296
        k(   74) = (   0.3333333   0.3333333   0.1666667), wk =   0.0092593
        k(   75) = (   0.3333333   0.3333333   0.3333333), wk =   0.0092593
        k(   76) = (   0.3333333   0.3333333  -0.5000000), wk =   0.0046296

     Dense  grid:    60167 G-vectors     FFT dimensions: (  45,  45,  72)

     Smooth grid:    15303 G-vectors     FFT dimensions: (  27,  27,  48)

     Dynamical RAM for                 wfc:       0.04 MB

     Dynamical RAM for     wfc (w. buffer):       3.05 MB

     Dynamical RAM for           str. fact:       0.11 MB

     Dynamical RAM for           local pot:       0.00 MB

     Dynamical RAM for          nlocal pot:       0.09 MB

     Dynamical RAM for                qrad:       3.59 MB

     Dynamical RAM for          rho,v,vnew:       0.40 MB

     Dynamical RAM for               rhoin:       0.13 MB

     Dynamical RAM for            rho*nmix:       0.92 MB

     Dynamical RAM for           G-vectors:       0.22 MB

     Dynamical RAM for          h,s,v(r/c):       0.09 MB

     Dynamical RAM for          <psi|beta>:       0.02 MB

     Dynamical RAM for                 psi:       0.08 MB

     Dynamical RAM for                hpsi:       0.08 MB

     Dynamical RAM for                spsi:       0.08 MB

     Dynamical RAM for      wfcinit/wfcrot:       0.11 MB

     Dynamical RAM for           addusdens:      10.79 MB

     Dynamical RAM for          addusforce:      10.94 MB

     Dynamical RAM for         addusstress:      11.54 MB

     Estimated static dynamical RAM per process >       8.17 MB

     Estimated max dynamical RAM per process >      20.62 MB

     Estimated total dynamical RAM >     329.98 MB

     Initial potential from superposition of free atoms

     starting charge      35.9941, renormalised to      36.0000
     Starting wfcs are   26 randomized atomic wfcs
     Checking if some PAW data can be deallocated... 
       PAW data deallocated on    8 nodes for type:  1
       PAW data deallocated on    8 nodes for type:  2

     total cpu time spent up to now is      542.2 secs

     Self-consistent Calculation

     iteration #  1     ecut=    50.00 Ry     beta= 0.70
     Davidson diagonalization with overlap

---- Real-time Memory Report at c_bands before calling an iterative solver
           141 MiB given to the printing process from OS
             0 MiB allocation reported by mallinfo(arena+hblkhd)
         76711 MiB available memory on the node where the printing process lives
------------------
     ethr =  1.00E-02,  avg # of iterations =  2.6

     total cpu time spent up to now is      828.0 secs

     total energy              =    -611.67013495 Ry
     estimated scf accuracy    <       1.11827814 Ry

     iteration #  2     ecut=    50.00 Ry     beta= 0.70
     Davidson diagonalization with overlap

---- Real-time Memory Report at c_bands before calling an iterative solver
           164 MiB given to the printing process from OS
             0 MiB allocation reported by mallinfo(arena+hblkhd)
         83117 MiB available memory on the node where the printing process lives
------------------
     ethr =  3.11E-03,  avg # of iterations =  5.5

     total cpu time spent up to now is      828.7 secs

     total energy              =    -612.12699628 Ry
     estimated scf accuracy    <       1.39856866 Ry

     iteration #  3     ecut=    50.00 Ry     beta= 0.70
     Davidson diagonalization with overlap

---- Real-time Memory Report at c_bands before calling an iterative solver
           167 MiB given to the printing process from OS
             0 MiB allocation reported by mallinfo(arena+hblkhd)
         83109 MiB available memory on the node where the printing process lives
------------------
     ethr =  3.11E-03,  avg # of iterations =  2.0

     total cpu time spent up to now is      829.2 secs

     total energy              =    -612.38494706 Ry
     estimated scf accuracy    <       0.02658182 Ry

     iteration #  4     ecut=    50.00 Ry     beta= 0.70
     Davidson diagonalization with overlap

---- Real-time Memory Report at c_bands before calling an iterative solver
           169 MiB given to the printing process from OS
             0 MiB allocation reported by mallinfo(arena+hblkhd)
         83109 MiB available memory on the node where the printing process lives
------------------
     ethr =  7.38E-05,  avg # of iterations =  8.9

     total cpu time spent up to now is      830.3 secs

     total energy              =    -612.42278683 Ry
     estimated scf accuracy    <       0.01217501 Ry

     iteration #  5     ecut=    50.00 Ry     beta= 0.70
     Davidson diagonalization with overlap

---- Real-time Memory Report at c_bands before calling an iterative solver
           170 MiB given to the printing process from OS
             0 MiB allocation reported by mallinfo(arena+hblkhd)
         83108 MiB available memory on the node where the printing process lives
------------------
     ethr =  3.38E-05,  avg # of iterations =  2.4

     total cpu time spent up to now is      830.9 secs

     total energy              =    -612.42204927 Ry
     estimated scf accuracy    <       0.00566929 Ry

     iteration #  6     ecut=    50.00 Ry     beta= 0.70
     Davidson diagonalization with overlap

---- Real-time Memory Report at c_bands before calling an iterative solver
           172 MiB given to the printing process from OS
             0 MiB allocation reported by mallinfo(arena+hblkhd)
         83108 MiB available memory on the node where the printing process lives
------------------
     ethr =  1.57E-05,  avg # of iterations =  3.5

     total cpu time spent up to now is      831.4 secs

     total energy              =    -612.42236131 Ry
     estimated scf accuracy    <       0.00103453 Ry

     iteration #  7     ecut=    50.00 Ry     beta= 0.70
     Davidson diagonalization with overlap

---- Real-time Memory Report at c_bands before calling an iterative solver
           173 MiB given to the printing process from OS
             0 MiB allocation reported by mallinfo(arena+hblkhd)
         83108 MiB available memory on the node where the printing process lives
------------------
     ethr =  2.87E-06,  avg # of iterations =  6.2

     total cpu time spent up to now is      832.2 secs

     total energy              =    -612.42278779 Ry
     estimated scf accuracy    <       0.00012493 Ry

     iteration #  8     ecut=    50.00 Ry     beta= 0.70
     Davidson diagonalization with overlap

---- Real-time Memory Report at c_bands before calling an iterative solver
           175 MiB given to the printing process from OS
             0 MiB allocation reported by mallinfo(arena+hblkhd)
         83108 MiB available memory on the node where the printing process lives
------------------
     ethr =  3.47E-07,  avg # of iterations =  5.9

     total cpu time spent up to now is      833.0 secs

     total energy              =    -612.42286776 Ry
     estimated scf accuracy    <       0.00002753 Ry

     iteration #  9     ecut=    50.00 Ry     beta= 0.70
     Davidson diagonalization with overlap

---- Real-time Memory Report at c_bands before calling an iterative solver
           177 MiB given to the printing process from OS
             0 MiB allocation reported by mallinfo(arena+hblkhd)
         83107 MiB available memory on the node where the printing process lives
------------------
     ethr =  7.65E-08,  avg # of iterations =  4.8

     total cpu time spent up to now is      833.7 secs

     total energy              =    -612.42287545 Ry
     estimated scf accuracy    <       0.00001723 Ry

     iteration # 10     ecut=    50.00 Ry     beta= 0.70
     Davidson diagonalization with overlap

---- Real-time Memory Report at c_bands before calling an iterative solver
           178 MiB given to the printing process from OS
             0 MiB allocation reported by mallinfo(arena+hblkhd)
         83106 MiB available memory on the node where the printing process lives
------------------
     ethr =  4.79E-08,  avg # of iterations =  2.4

     total cpu time spent up to now is      834.2 secs

     total energy              =    -612.42287700 Ry
     estimated scf accuracy    <       0.00000208 Ry

     iteration # 11     ecut=    50.00 Ry     beta= 0.70
     Davidson diagonalization with overlap

---- Real-time Memory Report at c_bands before calling an iterative solver
           181 MiB given to the printing process from OS
             0 MiB allocation reported by mallinfo(arena+hblkhd)
         83107 MiB available memory on the node where the printing process lives
------------------
     ethr =  5.77E-09,  avg # of iterations =  6.1

     total cpu time spent up to now is      835.1 secs

     total energy              =    -612.42287805 Ry
     estimated scf accuracy    <       0.00000782 Ry

     iteration # 12     ecut=    50.00 Ry     beta= 0.70
     Davidson diagonalization with overlap

---- Real-time Memory Report at c_bands before calling an iterative solver
           183 MiB given to the printing process from OS
             0 MiB allocation reported by mallinfo(arena+hblkhd)
         83108 MiB available memory on the node where the printing process lives
------------------
     ethr =  5.77E-09,  avg # of iterations =  3.2

     total cpu time spent up to now is      835.7 secs

     total energy              =    -612.42287834 Ry
     estimated scf accuracy    <       0.00000040 Ry

     iteration # 13     ecut=    50.00 Ry     beta= 0.70
     Davidson diagonalization with overlap

---- Real-time Memory Report at c_bands before calling an iterative solver
           184 MiB given to the printing process from OS
             0 MiB allocation reported by mallinfo(arena+hblkhd)
         83107 MiB available memory on the node where the printing process lives
------------------
     ethr =  1.12E-09,  avg # of iterations =  4.2

     total cpu time spent up to now is      836.3 secs

     total energy              =    -612.42287841 Ry
     estimated scf accuracy    <       0.00000011 Ry

     iteration # 14     ecut=    50.00 Ry     beta= 0.70
     Davidson diagonalization with overlap

---- Real-time Memory Report at c_bands before calling an iterative solver
           186 MiB given to the printing process from OS
             0 MiB allocation reported by mallinfo(arena+hblkhd)
         83106 MiB available memory on the node where the printing process lives
------------------
     ethr =  3.16E-10,  avg # of iterations =  4.7

     total cpu time spent up to now is      837.0 secs

     End of self-consistent calculation

          k = 0.0000 0.0000 0.0000 (  1895 PWs)   bands (ev):

    -6.4674  -5.6620  -4.1940  -4.1792  -4.1792  -4.1244  -4.1244  -3.9534
    -3.9534  -3.8643  -3.8643  -2.6184   2.3934   8.2742   8.2742   9.2297
     9.2750   9.2750  10.9682  13.3326  18.2797  18.9973

     occupation numbers 
     1.0000   1.0000   1.0000   1.0000   1.0000   1.0000   1.0000   1.0000
     1.0000   1.0000   1.0000   1.0000   1.0000   1.0000   1.0000   1.0000
     1.0000   1.0000   0.0000   0.0000   0.0000   0.0000

          k = 0.0000 0.0000 0.1022 (  1888 PWs)   bands (ev):

    -6.3923  -5.6868  -4.1779  -4.1779  -4.1694  -4.1302  -4.1302  -3.9452
    -3.9452  -3.8682  -3.8682  -2.8769   2.8647   8.3379   8.3379   8.3984
     9.2046   9.2046  11.6763  13.3856  18.0906  19.1486

     occupation numbers 
     1.0000   1.0000   1.0000   1.0000   1.0000   1.0000   1.0000   1.0000
     1.0000   1.0000   1.0000   1.0000   1.0000   1.0000   1.0000   1.0000
     1.0000   1.0000   0.0000   0.0000   0.0000   0.0000

          k = 0.0000 0.0000 0.2044 (  1888 PWs)   bands (ev):

    -6.1947  -5.7770  -4.1724  -4.1724  -4.1446  -4.1446  -4.0700  -3.9248
    -3.9248  -3.8806  -3.8806  -3.3933   4.0132   6.9802   8.5144   8.5144
     9.0147   9.0147  12.6706  13.4695  17.7006  18.1269

     occupation numbers 
     1.0000   1.0000   1.0000   1.0000   1.0000   1.0000   1.0000   1.0000
     1.0000   1.0000   1.0000   1.0000   1.0000   1.0000   1.0000   1.0000
     1.0000   1.0000   0.0000   0.0000   0.0000   0.0000

          k = 0.0000 0.0000-0.3067 (  1906 PWs)   bands (ev):

    -5.9571  -5.9571  -4.1607  -4.1607  -4.1607  -4.1607  -3.9008  -3.9008
    -3.9008  -3.9008  -3.8277  -3.8277   5.4622   5.4622   8.7612   8.7612
     8.7612   8.7612  13.3183  13.3183  17.5774  17.5774

     occupation numbers 
     1.0000   1.0000   1.0000   1.0000   1.0000   1.0000   1.0000   1.0000
     1.0000   1.0000   1.0000   1.0000   1.0000   1.0000   1.0000   1.0000
     1.0000   1.0000   0.0000   0.0000   0.0000   0.0000

          k = 0.0000 0.0962 0.0000 (  1880 PWs)   bands (ev):

    -6.4038  -5.6468  -4.1878  -4.1700  -4.1555  -4.1172  -4.1120  -3.9585
    -3.9540  -3.8745  -3.8628  -2.5713   2.4891   7.7652   8.1338   8.6240
     9.1651   9.2145  11.5695  13.7680  18.1117  18.5128

     occupation numbers 
     1.0000   1.0000   1.0000   1.0000   1.0000   1.0000   1.0000   1.0000
     1.0000   1.0000   1.0000   1.0000   1.0000   1.0000   1.0000   1.0000
     1.0000   1.0000   0.0000   0.0000   0.0000   0.0000

          k = 0.0000 0.0962 0.1022 (  1880 PWs)   bands (ev):

    -6.3313  -5.6690  -4.1788  -4.1684  -4.1401  -4.1222  -4.1179  -3.9477
    -3.9459  -3.8798  -3.8671  -2.8246   2.9463   7.8308   8.0870   8.2016
     9.0185   9.1371  12.0706  13.8141  17.8866  18.4821

     occupation numbers 
     1.0000   1.0000   1.0000   1.0000   1.0000   1.0000   1.0000   1.0000
     1.0000   1.0000   1.0000   1.0000   1.0000   1.0000   1.0000   1.0000
     1.0000   1.0000   0.0000   0.0000   0.0000   0.0000

          k = 0.0000 0.0962 0.2044 (  1890 PWs)   bands (ev):

    -6.1422  -5.7511  -4.1671  -4.1620  -4.1380  -4.1326  -4.0534  -3.9255
    -3.9146  -3.8955  -3.8802  -3.3342   4.0585   6.8542   8.0731   8.3900
     8.7352   8.9296  12.9642  13.8692  17.4383  17.8914

     occupation numbers 
     1.0000   1.0000   1.0000   1.0000   1.0000   1.0000   1.0000   1.0000
     1.0000   1.0000   1.0000   1.0000   1.0000   1.0000   1.0000   1.0000
     1.0000   1.0000   0.0000   0.0000   0.0000   0.0000

          k = 0.0000 0.0962-0.3067 (  1894 PWs)   bands (ev):

    -5.9179  -5.9179  -4.1541  -4.1541  -4.1493  -4.1493  -3.9357  -3.9357
    -3.9010  -3.9010  -3.7564  -3.7564   5.4455   5.4455   8.3909   8.3909
     8.6550   8.6550  13.6514  13.6514  17.3288  17.3288

     occupation numbers 
     1.0000   1.0000   1.0000   1.0000   1.0000   1.0000   1.0000   1.0000
     1.0000   1.0000   1.0000   1.0000   1.0000   1.0000   1.0000   1.0000
     1.0000   1.0000   0.0000   0.0000   0.0000   0.0000

          k = 0.0000 0.1925 0.0000 (  1884 PWs)   bands (ev):

    -6.2322  -5.6096  -4.1658  -4.1477  -4.1028  -4.0779  -4.0685  -3.9723
    -3.9521  -3.8959  -3.8593  -2.4389   2.7643   6.6223   7.5328   7.7837
     8.9556   9.0392  12.5148  14.6045  17.2944  18.0561

     occupation numbers 
     1.0000   1.0000   1.0000   1.0000   1.0000   1.0000   1.0000   1.0000
     1.0000   1.0000   1.0000   1.0000   1.0000   1.0000   1.0000   1.0000
     1.0000   1.0000   0.0000   0.0000   0.0000   0.0000

          k = 0.0000 0.1925 0.1022 (  1887 PWs)   bands (ev):

    -6.1682  -5.6256  -4.1622  -4.1447  -4.1073  -4.0841  -4.0560  -3.9522
    -3.9446  -3.8987  -3.8644  -2.6767   3.1712   6.7126   7.2304   7.8602
     8.7942   8.9461  12.7919  14.6449  17.1844  17.8248

     occupation numbers 
     1.0000   1.0000   1.0000   1.0000   1.0000   1.0000   1.0000   1.0000
     1.0000   1.0000   1.0000   1.0000   1.0000   1.0000   1.0000   1.0000
     1.0000   1.0000   0.0000   0.0000   0.0000   0.0000

          k = 0.0000 0.1925 0.2044 (  1894 PWs)   bands (ev):

    -6.0045  -5.6872  -4.1512  -4.1351  -4.1197  -4.0999  -4.0162  -3.9366
    -3.9251  -3.8789  -3.8407  -3.1687   4.1461   6.3341   7.1530   8.0741
     8.3085   8.6993  13.4749  14.6385  16.8297  17.3841

     occupation numbers 
     1.0000   1.0000   1.0000   1.0000   1.0000   1.0000   1.0000   1.0000
     1.0000   1.0000   1.0000   1.0000   1.0000   1.0000   1.0000   1.0000
     1.0000   1.0000   0.0000   0.0000   0.0000   0.0000

          k = 0.0000 0.1925-0.3067 (  1898 PWs)   bands (ev):

    -5.8185  -5.8185  -4.1358  -4.1358  -4.1190  -4.1190  -3.9686  -3.9686
    -3.9008  -3.9008  -3.6008  -3.6008   5.2949   5.2949   7.6787   7.6787
     8.3786   8.3786  14.2286  14.2286  16.8585  16.8585

     occupation numbers 
     1.0000   1.0000   1.0000   1.0000   1.0000   1.0000   1.0000   1.0000
     1.0000   1.0000   1.0000   1.0000   1.0000   1.0000   1.0000   1.0000
     1.0000   1.0000   0.0000   0.0000   0.0000   0.0000

          k = 0.0000 0.2887 0.0000 (  1904 PWs)   bands (ev):

    -6.0112  -5.5695  -4.1431  -4.1258  -4.0653  -4.0318  -3.9872  -3.9565
    -3.9386  -3.8548  -3.8422  -2.2518   3.1649   5.3845   6.4115   7.3599
     8.5833   8.7922  13.3637  15.0288  16.5270  17.6559

     occupation numbers 
     1.0000   1.0000   1.0000   1.0000   1.0000   1.0000   1.0000   1.0000
     1.0000   1.0000   1.0000   1.0000   1.0000   1.0000   1.0000   1.0000
     1.0000   1.0000   0.0000   0.0000   0.0000   0.0000

          k = 0.0000 0.2887 0.1022 (  1900 PWs)   bands (ev):

    -5.9609  -5.5783  -4.1433  -4.1200  -4.0772  -4.0385  -3.9843  -3.9559
    -3.9331  -3.8604  -3.7970  -2.4602   3.4411   5.5459   6.1930   7.4451
     8.5281   8.6826  13.3940  15.0964  16.4777  17.4698

     occupation numbers 
     1.0000   1.0000   1.0000   1.0000   1.0000   1.0000   1.0000   1.0000
     1.0000   1.0000   1.0000   1.0000   1.0000   1.0000   1.0000   1.0000
     1.0000   1.0000   0.0000   0.0000   0.0000   0.0000

          k = 0.0000 0.2887 0.2044 (  1906 PWs)   bands (ev):

    -5.8365  -5.6157  -4.1373  -4.1037  -4.0980  -4.0565  -3.9817  -3.9629
    -3.9178  -3.8758  -3.6436  -2.9138   4.0628   5.4022   6.3719   7.6844
     8.1060   8.3956  13.6964  14.9970  16.3950  17.1643

     occupation numbers 
     1.0000   1.0000   1.0000   1.0000   1.0000   1.0000   1.0000   1.0000
     1.0000   1.0000   1.0000   1.0000   1.0000   1.0000   1.0000   1.0000
     1.0000   1.0000   0.0000   0.0000   0.0000   0.0000

          k = 0.0000 0.2887-0.3067 (  1898 PWs)   bands (ev):

    -5.7032  -5.7032  -4.1199  -4.1199  -4.0806  -4.0806  -3.9745  -3.9745
    -3.8968  -3.8968  -3.3496  -3.3496   4.7538   4.7538   7.2560   7.2560
     8.0282   8.0282  14.3565  14.3565  16.7278  16.7278

     occupation numbers 
     1.0000   1.0000   1.0000   1.0000   1.0000   1.0000   1.0000   1.0000
     1.0000   1.0000   1.0000   1.0000   1.0000   1.0000   1.0000   1.0000
     1.0000   1.0000   0.0000   0.0000   0.0000   0.0000

          k = 0.0000 0.3849 0.0000 (  1902 PWs)   bands (ev):

    -5.8194  -5.5407  -4.1314  -4.1148  -4.0390  -3.9874  -3.9861  -3.9567
    -3.9112  -3.8492  -3.5041  -2.0835   3.4328   4.5344   5.4158   6.9788
     8.0523   8.5471  13.9706  14.8482  15.9080  17.5010

     occupation numbers 
     1.0000   1.0000   1.0000   1.0000   1.0000   1.0000   1.0000   1.0000
     1.0000   1.0000   1.0000   1.0000   1.0000   1.0000   1.0000   1.0000
     1.0000   1.0000   0.0000   0.0000   0.0000   0.0000

          k = 0.0000 0.3849 0.1022 (  1908 PWs)   bands (ev):

    -5.7842  -5.5438  -4.1351  -4.1058  -4.0528  -3.9947  -3.9902  -3.9441
    -3.9084  -3.8550  -3.4535  -2.2417   3.4064   4.7446   5.3923   7.0707
     8.1404   8.4246  13.6966  14.8896  16.1537  17.3335

     occupation numbers 
     1.0000   1.0000   1.0000   1.0000   1.0000   1.0000   1.0000   1.0000
     1.0000   1.0000   1.0000   1.0000   1.0000   1.0000   1.0000   1.0000
     1.0000   1.0000   0.0000   0.0000   0.0000   0.0000

          k = 0.0000 0.3849 0.2044 (  1901 PWs)   bands (ev):

    -5.6996  -5.5621  -4.1368  -4.0884  -4.0812  -4.0162  -3.9760  -3.9404
    -3.8997  -3.8693  -3.2904  -2.6108   3.5344   4.3993   6.1828   7.3293
     7.9932   8.1063  13.5596  14.6930  16.4096  17.1755

     occupation numbers 
     1.0000   1.0000   1.0000   1.0000   1.0000   1.0000   1.0000   1.0000
     1.0000   1.0000   1.0000   1.0000   1.0000   1.0000   1.0000   1.0000
     1.0000   1.0000   0.0000   0.0000   0.0000   0.0000

          k = 0.0000 0.3849-0.3067 (  1894 PWs)   bands (ev):

    -5.6137  -5.6137  -4.1214  -4.1214  -4.0480  -4.0480  -3.9544  -3.9544
    -3.8858  -3.8858  -3.0002  -3.0002   3.8935   3.8935   7.2448   7.2448
     7.7032   7.7032  14.0290  14.0290  16.8531  16.8531

     occupation numbers 
     1.0000   1.0000   1.0000   1.0000   1.0000   1.0000   1.0000   1.0000
     1.0000   1.0000   1.0000   1.0000   1.0000   1.0000   1.0000   1.0000
     1.0000   1.0000   0.0000   0.0000   0.0000   0.0000

          k = 0.0000 0.4811 0.0000 (  1904 PWs)   bands (ev):

    -5.7050  -5.5261  -4.1316  -4.1127  -4.0285  -3.9849  -3.9573  -3.9474
    -3.8830  -3.8434  -3.0308  -2.0640   3.1309   4.3065   5.0185   6.7197
     7.4621   8.3710  14.2288  14.6695  15.4220  17.5458

     occupation numbers 
     1.0000   1.0000   1.0000   1.0000   1.0000   1.0000   1.0000   1.0000
     1.0000   1.0000   1.0000   1.0000   1.0000   1.0000   1.0000   1.0000
     1.0000   1.0000   0.0000   0.0000   0.0000   0.0000

          k = 0.0000 0.4811 0.1022 (  1911 PWs)   bands (ev):

    -5.6802  -5.5258  -4.1375  -4.1016  -4.0381  -4.0024  -3.9655  -3.9222
    -3.8820  -3.8489  -2.9897  -2.1531   2.9885   4.0956   5.4342   6.8157
     7.6817   8.2406  13.7875  14.4936  16.1339  17.2311

     occupation numbers 
     1.0000   1.0000   1.0000   1.0000   1.0000   1.0000   1.0000   1.0000
     1.0000   1.0000   1.0000   1.0000   1.0000   1.0000   1.0000   1.0000
     1.0000   1.0000   0.0000   0.0000   0.0000   0.0000

          k = 0.0000 0.4811 0.2044 (  1900 PWs)   bands (ev):

    -5.6216  -5.5330  -4.1431  -4.0907  -4.0711  -3.9908  -3.9697  -3.9122
    -3.8784  -3.8607  -2.8617  -2.3800   2.9165   3.5833   6.3994   7.0862
     7.8482   7.9032  13.3660  14.3113  16.5700  17.0553

     occupation numbers 
     1.0000   1.0000   1.0000   1.0000   1.0000   1.0000   1.0000   1.0000
     1.0000   1.0000   1.0000   1.0000   1.0000   1.0000   1.0000   1.0000
     1.0000   1.0000   0.0000   0.0000   0.0000   0.0000

          k = 0.0000 0.4811-0.3067 (  1906 PWs)   bands (ev):

    -5.5642  -5.5642  -4.1299  -4.1299  -4.0299  -4.0299  -3.9320  -3.9320
    -3.8714  -3.8714  -2.6461  -2.6461   3.1309   3.1309   7.3660   7.3660
     7.4783   7.4783  13.6991  13.6991  16.8696  16.8696

     occupation numbers 
     1.0000   1.0000   1.0000   1.0000   1.0000   1.0000   1.0000   1.0000
     1.0000   1.0000   1.0000   1.0000   1.0000   1.0000   1.0000   1.0000
     1.0000   1.0000   0.0000   0.0000   0.0000   0.0000

          k = 0.0000-0.5774 0.0000 (  1926 PWs)   bands (ev):

    -5.6693  -5.5221  -4.1337  -4.1130  -4.0246  -3.9876  -3.9473  -3.9391
    -3.8712  -3.8407  -2.7132  -2.1766   2.9510   4.0720   5.1912   6.6283
     7.1465   8.3073  14.2583  14.6332  15.2502  17.5994

     occupation numbers 
     1.0000   1.0000   1.0000   1.0000   1.0000   1.0000   1.0000   1.0000
     1.0000   1.0000   1.0000   1.0000   1.0000   1.0000   1.0000   1.0000
     1.0000   1.0000   0.0000   0.0000   0.0000   0.0000

          k = 0.0000-0.5774 0.1022 (  1912 PWs)   bands (ev):

    -5.6480  -5.5206  -4.1399  -4.1011  -4.0325  -4.0070  -3.9558  -3.9127
    -3.8707  -3.8461  -2.6884  -2.2200   2.8017   3.7837   5.6308   6.7257
     7.4296   8.1743  13.8299  14.2936  16.1529  17.2104

     occupation numbers 
     1.0000   1.0000   1.0000   1.0000   1.0000   1.0000   1.0000   1.0000
     1.0000   1.0000   1.0000   1.0000   1.0000   1.0000   1.0000   1.0000
     1.0000   1.0000   0.0000   0.0000   0.0000   0.0000

          k = 0.0000-0.5774 0.2044 (  1890 PWs)   bands (ev):

    -5.5976  -5.5243  -4.1464  -4.0929  -4.0686  -3.9827  -3.9658  -3.9015
    -3.8688  -3.8566  -2.6119  -2.3375   2.6721   3.2449   6.5553   7.0002
     7.7517   7.8306  13.2930  14.1575  16.6746  16.9513

     occupation numbers 
     1.0000   1.0000   1.0000   1.0000   1.0000   1.0000   1.0000   1.0000
     1.0000   1.0000   1.0000   1.0000   1.0000   1.0000   1.0000   1.0000
     1.0000   1.0000   0.0000   0.0000   0.0000   0.0000

          k = 0.0000-0.5774-0.3067 (  1908 PWs)   bands (ev):

    -5.5492  -5.5492  -4.1339  -4.1339  -4.0246  -4.0246  -3.9232  -3.9232
    -3.8646  -3.8646  -2.4858  -2.4858   2.8221   2.8221   7.3984   7.3984
     7.4274   7.4274  13.5724  13.5724  16.8455  16.8455

     occupation numbers 
     1.0000   1.0000   1.0000   1.0000   1.0000   1.0000   1.0000   1.0000
     1.0000   1.0000   1.0000   1.0000   1.0000   1.0000   1.0000   1.0000
     1.0000   1.0000   0.0000   0.0000   0.0000   0.0000

          k = 0.0833 0.1443 0.0000 (  1889 PWs)   bands (ev):

    -6.2860  -5.6207  -4.1718  -4.1550  -4.1134  -4.1046  -4.0782  -3.9670
    -3.9544  -3.8912  -3.8599  -2.4813   2.6748   7.0408   7.5651   8.1021
     9.0295   9.0425  12.2775  14.4223  17.8015  17.8026

     occupation numbers 
     1.0000   1.0000   1.0000   1.0000   1.0000   1.0000   1.0000   1.0000
     1.0000   1.0000   1.0000   1.0000   1.0000   1.0000   1.0000   1.0000
     1.0000   1.0000   0.0000   0.0000   0.0000   0.0000

          k = 0.0833 0.1443 0.1022 (  1885 PWs)   bands (ev):

    -6.2192  -5.6386  -4.1670  -4.1524  -4.1102  -4.1069  -4.0744  -3.9486
    -3.9472  -3.8977  -3.8640  -2.7244   3.1003   7.1437   7.3612   7.9972
     8.8752   8.9533  12.6142  14.4602  17.5065  17.8193

     occupation numbers 
     1.0000   1.0000   1.0000   1.0000   1.0000   1.0000   1.0000   1.0000
     1.0000   1.0000   1.0000   1.0000   1.0000   1.0000   1.0000   1.0000
     1.0000   1.0000   0.0000   0.0000   0.0000   0.0000

          k = 0.0833 0.1443 0.2044 (  1895 PWs)   bands (ev):

    -6.0470  -5.7064  -4.1557  -4.1439  -4.1241  -4.1123  -4.0263  -3.9334
    -3.9137  -3.8910  -3.8620  -3.2223   4.1271   6.5320   7.4420   8.0969
     8.4672   8.7178  13.3721  14.4684  17.0101  17.5027

     occupation numbers 
     1.0000   1.0000   1.0000   1.0000   1.0000   1.0000   1.0000   1.0000
     1.0000   1.0000   1.0000   1.0000   1.0000   1.0000   1.0000   1.0000
     1.0000   1.0000   0.0000   0.0000   0.0000   0.0000

          k = 0.0833 0.1443-0.3067 (  1892 PWs)   bands (ev):

    -5.8487  -5.8487  -4.1413  -4.1413  -4.1286  -4.1286  -3.9623  -3.9623
    -3.9010  -3.9010  -3.6502  -3.6502   5.3655   5.3655   7.8916   7.8916
     8.4223   8.4223  14.1200  14.1200  16.9695  16.9696

     occupation numbers 
     1.0000   1.0000   1.0000   1.0000   1.0000   1.0000   1.0000   1.0000
     1.0000   1.0000   1.0000   1.0000   1.0000   1.0000   1.0000   1.0000
     1.0000   1.0000   0.0000   0.0000   0.0000   0.0000

          k = 0.0833 0.2406 0.0000 (  1886 PWs)   bands (ev):

    -6.0894  -5.5827  -4.1458  -4.1366  -4.0790  -4.0612  -3.9806  -3.9658
    -3.9466  -3.9062  -3.8488  -2.3193   3.0174   5.9594   6.6444   7.5277
     8.7461   8.7588  13.1514  15.1885  16.8974  17.4662

     occupation numbers 
     1.0000   1.0000   1.0000   1.0000   1.0000   1.0000   1.0000   1.0000
     1.0000   1.0000   1.0000   1.0000   1.0000   1.0000   1.0000   1.0000
     1.0000   1.0000   0.0000   0.0000   0.0000   0.0000

          k = 0.0833 0.2406 0.1022 (  1888 PWs)   bands (ev):

    -6.0338  -5.5940  -4.1450  -4.1316  -4.0866  -4.0668  -3.9922  -3.9490
    -3.9299  -3.8959  -3.8411  -2.5402   3.3580   6.0898   6.4701   7.5207
     8.6212   8.6928  13.2979  15.2264  16.7766  17.3410

     occupation numbers 
     1.0000   1.0000   1.0000   1.0000   1.0000   1.0000   1.0000   1.0000
     1.0000   1.0000   1.0000   1.0000   1.0000   1.0000   1.0000   1.0000
     1.0000   1.0000   0.0000   0.0000   0.0000   0.0000

          k = 0.0833 0.2406 0.2044 (  1900 PWs)   bands (ev):

    -5.8946  -5.6396  -4.1370  -4.1178  -4.1014  -4.0795  -3.9934  -3.9578
    -3.9149  -3.8842  -3.7278  -3.0112   4.1483   5.7990   6.6639   7.6633
     8.2118   8.3843  13.7921  15.1371  16.4858  17.1339

     occupation numbers 
     1.0000   1.0000   1.0000   1.0000   1.0000   1.0000   1.0000   1.0000
     1.0000   1.0000   1.0000   1.0000   1.0000   1.0000   1.0000   1.0000
     1.0000   1.0000   0.0000   0.0000   0.0000   0.0000

          k = 0.0833 0.2406-0.3067 (  1908 PWs)   bands (ev):

    -5.7423  -5.7423  -4.1206  -4.1206  -4.0975  -4.0975  -3.9788  -3.9788
    -3.8984  -3.8984  -3.4488  -3.4488   5.0251   5.0251   7.3974   7.3974
     8.0267   8.0267  14.5355  14.5355  16.6882  16.6882

     occupation numbers 
     1.0000   1.0000   1.0000   1.0000   1.0000   1.0000   1.0000   1.0000
     1.0000   1.0000   1.0000   1.0000   1.0000   1.0000   1.0000   1.0000
     1.0000   1.0000   0.0000   0.0000   0.0000   0.0000

          k = 0.0833 0.3368 0.0000 (  1900 PWs)   bands (ev):

    -5.8844  -5.5500  -4.1289  -4.1235  -4.0442  -4.0145  -3.9900  -3.9456
    -3.9236  -3.8619  -3.6527  -2.1327   3.4000   4.9154   5.7481   6.9488
     8.3063   8.4508  13.9337  15.3459  16.1664  17.3793

     occupation numbers 
     1.0000   1.0000   1.0000   1.0000   1.0000   1.0000   1.0000   1.0000
     1.0000   1.0000   1.0000   1.0000   1.0000   1.0000   1.0000   1.0000
     1.0000   1.0000   0.0000   0.0000   0.0000   0.0000

          k = 0.0833 0.3368 0.1022 (  1896 PWs)   bands (ev):

    -5.8437  -5.5549  -4.1287  -4.1179  -4.0593  -4.0213  -3.9787  -3.9538
    -3.9153  -3.8676  -3.6028  -2.3141   3.5230   5.1131   5.6496   7.0007
     8.2731   8.3954  13.8225  15.4107  16.1814  17.3077

     occupation numbers 
     1.0000   1.0000   1.0000   1.0000   1.0000   1.0000   1.0000   1.0000
     1.0000   1.0000   1.0000   1.0000   1.0000   1.0000   1.0000   1.0000
     1.0000   1.0000   0.0000   0.0000   0.0000   0.0000

          k = 0.0833 0.3368 0.2044 (  1901 PWs)   bands (ev):

    -5.7449  -5.5794  -4.1276  -4.0972  -4.0828  -4.0389  -3.9754  -3.9615
    -3.9031  -3.8784  -3.4396  -2.7244   3.8452   4.8464   6.2388   7.2244
     7.9209   8.1718  13.8887  15.1564  16.3333  17.1761

     occupation numbers 
     1.0000   1.0000   1.0000   1.0000   1.0000   1.0000   1.0000   1.0000
     1.0000   1.0000   1.0000   1.0000   1.0000   1.0000   1.0000   1.0000
     1.0000   1.0000   0.0000   0.0000   0.0000   0.0000

          k = 0.0833 0.3368-0.3067 (  1902 PWs)   bands (ev):

    -5.6428  -5.6428  -4.1120  -4.1120  -4.0646  -4.0646  -3.9714  -3.9714
    -3.8901  -3.8901  -3.1407  -3.1407   4.3098   4.3098   7.2042   7.2042
     7.6614   7.6614  14.4376  14.4376  16.8069  16.8069

     occupation numbers 
     1.0000   1.0000   1.0000   1.0000   1.0000   1.0000   1.0000   1.0000
     1.0000   1.0000   1.0000   1.0000   1.0000   1.0000   1.0000   1.0000
     1.0000   1.0000   0.0000   0.0000   0.0000   0.0000

          k = 0.0833 0.4330 0.0000 (  1900 PWs)   bands (ev):

    -5.7364  -5.5307  -4.1320  -4.1123  -4.0225  -3.9877  -3.9727  -3.9529
    -3.8967  -3.8532  -3.2272  -2.0247   3.3699   4.4586   5.0933   6.5286
     7.7350   8.1986  14.4657  15.0963  15.5599  17.4629

     occupation numbers 
     1.0000   1.0000   1.0000   1.0000   1.0000   1.0000   1.0000   1.0000
     1.0000   1.0000   1.0000   1.0000   1.0000   1.0000   1.0000   1.0000
     1.0000   1.0000   0.0000   0.0000   0.0000   0.0000

          k = 0.0833 0.4330 0.1022 (  1902 PWs)   bands (ev):

    -5.7085  -5.5311  -4.1290  -4.1099  -4.0395  -3.9908  -3.9812  -3.9374
    -3.8926  -3.8598  -3.1794  -2.1454   3.2474   4.4079   5.3754   6.6213
     7.8781   8.0845  14.0379  15.0708  16.0472  17.2770

     occupation numbers 
     1.0000   1.0000   1.0000   1.0000   1.0000   1.0000   1.0000   1.0000
     1.0000   1.0000   1.0000   1.0000   1.0000   1.0000   1.0000   1.0000
     1.0000   1.0000   0.0000   0.0000   0.0000   0.0000

          k = 0.0833 0.4330 0.2044 (  1894 PWs)   bands (ev):

    -5.6423  -5.5409  -4.1310  -4.0900  -4.0742  -4.0052  -3.9711  -3.9325
    -3.8863  -3.8706  -3.0287  -2.4402   3.2342   3.9546   6.2692   6.9343
     7.6268   8.0305  13.7335  14.8014  16.4653  17.2144

     occupation numbers 
     1.0000   1.0000   1.0000   1.0000   1.0000   1.0000   1.0000   1.0000
     1.0000   1.0000   1.0000   1.0000   1.0000   1.0000   1.0000   1.0000
     1.0000   1.0000   0.0000   0.0000   0.0000   0.0000

          k = 0.0833 0.4330-0.3067 (  1904 PWs)   bands (ev):

    -5.5772  -5.5772  -4.1183  -4.1183  -4.0405  -4.0405  -3.9484  -3.9484
    -3.8787  -3.8787  -2.7702  -2.7702   3.4944   3.4944   7.0728   7.0728
     7.5523   7.5523  14.1123  14.1123  16.9505  16.9505

     occupation numbers 
     1.0000   1.0000   1.0000   1.0000   1.0000   1.0000   1.0000   1.0000
     1.0000   1.0000   1.0000   1.0000   1.0000   1.0000   1.0000   1.0000
     1.0000   1.0000   0.0000   0.0000   0.0000   0.0000

          k = 0.0833 0.5292 0.0000 (  1905 PWs)   bands (ev):

    -5.6656  -5.5232  -4.1374  -4.1090  -4.0148  -3.9866  -3.9519  -3.9439
    -3.8797  -3.8480  -2.7730  -2.1046   3.0650   4.1633   5.1747   6.3485
     7.2097   8.0580  14.6829  14.9465  15.2059  17.5479

     occupation numbers 
     1.0000   1.0000   1.0000   1.0000   1.0000   1.0000   1.0000   1.0000
     1.0000   1.0000   1.0000   1.0000   1.0000   1.0000   1.0000   1.0000
     1.0000   1.0000   0.0000   0.0000   0.0000   0.0000

          k = 0.0833 0.5292 0.1022 (  1907 PWs)   bands (ev):

    -5.6444  -5.5214  -4.1343  -4.1064  -4.0303  -3.9972  -3.9619  -3.9179
    -3.8786  -3.8546  -2.7417  -2.1598   2.9166   3.8920   5.5780   6.4809
     7.4692   7.9210  14.0709  14.7745  16.1269  17.1972

     occupation numbers 
     1.0000   1.0000   1.0000   1.0000   1.0000   1.0000   1.0000   1.0000
     1.0000   1.0000   1.0000   1.0000   1.0000   1.0000   1.0000   1.0000
     1.0000   1.0000   0.0000   0.0000   0.0000   0.0000

          k = 0.0833 0.5292 0.2044 (  1904 PWs)   bands (ev):

    -5.5947  -5.5241  -4.1366  -4.0873  -4.0756  -3.9883  -3.9633  -3.9086
    -3.8760  -3.8654  -2.6459  -2.3068   2.7948   3.3686   6.3342   6.9318
     7.4446   7.8802  13.5955  14.5561  16.6637  17.0632

     occupation numbers 
     1.0000   1.0000   1.0000   1.0000   1.0000   1.0000   1.0000   1.0000
     1.0000   1.0000   1.0000   1.0000   1.0000   1.0000   1.0000   1.0000
     1.0000   1.0000   0.0000   0.0000   0.0000   0.0000

          k = 0.0833 0.5292-0.3067 (  1902 PWs)   bands (ev):

    -5.5474  -5.5474  -4.1248  -4.1248  -4.0307  -4.0307  -3.9283  -3.9283
    -3.8717  -3.8717  -2.4900  -2.4900   2.9502   2.9502   6.9386   6.9386
     7.6108   7.6108  13.8910  13.8910  16.9632  16.9632

     occupation numbers 
     1.0000   1.0000   1.0000   1.0000   1.0000   1.0000   1.0000   1.0000
     1.0000   1.0000   1.0000   1.0000   1.0000   1.0000   1.0000   1.0000
     1.0000   1.0000   0.0000   0.0000   0.0000   0.0000

          k = 0.1667 0.2887 0.0000 (  1883 PWs)   bands (ev):

    -5.9093  -5.5538  -4.1361  -4.1154  -4.0543  -4.0295  -3.9892  -3.9344
    -3.9242  -3.8789  -3.6921  -2.1512   3.3656   5.3442   5.6489   6.9258
     8.2820   8.4055  13.9879  15.9358  16.4762  16.8015

     occupation numbers 
     1.0000   1.0000   1.0000   1.0000   1.0000   1.0000   1.0000   1.0000
     1.0000   1.0000   1.0000   1.0000   1.0000   1.0000   1.0000   1.0000
     1.0000   1.0000   0.0000   0.0000   0.0000   0.0000

          k = 0.1667 0.2887 0.1022 (  1892 PWs)   bands (ev):

    -5.8664  -5.5593  -4.1276  -4.1186  -4.0600  -4.0442  -3.9738  -3.9522
    -3.9109  -3.8844  -3.6441  -2.3403   3.5492   5.4981   5.6201   6.8877
     8.1446   8.4408  13.9807  15.8942  16.3995  16.8779

     occupation numbers 
     1.0000   1.0000   1.0000   1.0000   1.0000   1.0000   1.0000   1.0000
     1.0000   1.0000   1.0000   1.0000   1.0000   1.0000   1.0000   1.0000
     1.0000   1.0000   0.0000   0.0000   0.0000   0.0000

          k = 0.1667 0.2887 0.2044 (  1899 PWs)   bands (ev):

    -5.7622  -5.5860  -4.1174  -4.1058  -4.0761  -4.0604  -3.9734  -3.9725
    -3.8982  -3.8884  -3.4844  -2.7632   3.9756   5.0580   6.3780   7.0052
     7.8000   8.1846  14.1848  15.4917  16.4555  16.9462

     occupation numbers 
     1.0000   1.0000   1.0000   1.0000   1.0000   1.0000   1.0000   1.0000
     1.0000   1.0000   1.0000   1.0000   1.0000   1.0000   1.0000   1.0000
     1.0000   1.0000   0.0000   0.0000   0.0000   0.0000

          k = 0.1667 0.2887-0.3067 (  1904 PWs)   bands (ev):

    -5.6540  -5.6540  -4.1017  -4.1017  -4.0776  -4.0776  -3.9816  -3.9816
    -3.8907  -3.8907  -3.1859  -3.1859   4.5024   4.5024   7.2245   7.2245
     7.5192   7.5192  14.7767  14.7767  16.7391  16.7391

     occupation numbers 
     1.0000   1.0000   1.0000   1.0000   1.0000   1.0000   1.0000   1.0000
     1.0000   1.0000   1.0000   1.0000   1.0000   1.0000   1.0000   1.0000
     1.0000   1.0000   0.0000   0.0000   0.0000   0.0000

          k = 0.1667 0.3849 0.0000 (  1898 PWs)   bands (ev):

    -5.7538  -5.5339  -4.1449  -4.0903  -4.0228  -3.9986  -3.9912  -3.9451
    -3.9055  -3.8700  -3.3228  -2.0045   3.5732   4.7133   5.1414   6.2081
     7.8348   7.9220  14.7963  15.6297  16.1244  17.0961

     occupation numbers 
     1.0000   1.0000   1.0000   1.0000   1.0000   1.0000   1.0000   1.0000
     1.0000   1.0000   1.0000   1.0000   1.0000   1.0000   1.0000   1.0000
     1.0000   1.0000   0.0000   0.0000   0.0000   0.0000

          k = 0.1667 0.3849 0.1022 (  1900 PWs)   bands (ev):

    -5.7240  -5.5346  -4.1333  -4.0979  -4.0376  -4.0122  -3.9700  -3.9543
    -3.8954  -3.8787  -3.2721  -2.1431   3.5047   4.6599   5.4785   6.2131
     7.6660   8.0801  14.5576  15.6705  16.2449  17.1371

     occupation numbers 
     1.0000   1.0000   1.0000   1.0000   1.0000   1.0000   1.0000   1.0000
     1.0000   1.0000   1.0000   1.0000   1.0000   1.0000   1.0000   1.0000
     1.0000   1.0000   0.0000   0.0000   0.0000   0.0000

          k = 0.1667 0.3849 0.2044 (  1897 PWs)   bands (ev):

    -5.6534  -5.5454  -4.1096  -4.1001  -4.0624  -4.0286  -3.9750  -3.9558
    -3.8893  -3.8812  -3.1122  -2.4742   3.5538   4.2725   6.2518   6.5563
     7.2634   8.0978  14.3811  15.3429  16.5761  17.2140

     occupation numbers 
     1.0000   1.0000   1.0000   1.0000   1.0000   1.0000   1.0000   1.0000
     1.0000   1.0000   1.0000   1.0000   1.0000   1.0000   1.0000   1.0000
     1.0000   1.0000   0.0000   0.0000   0.0000   0.0000

          k = 0.1667 0.3849-0.3067 (  1900 PWs)   bands (ev):

    -5.5840  -5.5840  -4.0984  -4.0984  -4.0545  -4.0545  -3.9723  -3.9723
    -3.8817  -3.8817  -2.8349  -2.8349   3.8366   3.8366   6.7212   6.7212
     7.5266   7.5266  14.7260  14.7260  16.9915  16.9916

     occupation numbers 
     1.0000   1.0000   1.0000   1.0000   1.0000   1.0000   1.0000   1.0000
     1.0000   1.0000   1.0000   1.0000   1.0000   1.0000   1.0000   1.0000
     1.0000   1.0000   0.0000   0.0000   0.0000   0.0000

          k = 0.1667 0.4811 0.0000 (  1906 PWs)   bands (ev):

    -5.6577  -5.5260  -4.1543  -4.0802  -3.9998  -3.9869  -3.9687  -3.9520
    -3.8940  -3.8649  -2.8602  -1.9931   3.3784   4.2945   5.2046   5.7700
     7.3420   7.5464  15.0738  15.3859  15.9078  17.3865

     occupation numbers 
     1.0000   1.0000   1.0000   1.0000   1.0000   1.0000   1.0000   1.0000
     1.0000   1.0000   1.0000   1.0000   1.0000   1.0000   1.0000   1.0000
     1.0000   1.0000   0.0000   0.0000   0.0000   0.0000

          k = 0.1667 0.4811 0.1022 (  1899 PWs)   bands (ev):

    -5.6368  -5.5234  -4.1410  -4.0895  -4.0244  -3.9843  -3.9736  -3.9367
    -3.8887  -3.8741  -2.8198  -2.0680   3.2235   4.0918   5.4517   6.0226
     7.3248   7.6417  14.6320  15.6988  16.0704  17.2129

     occupation numbers 
     1.0000   1.0000   1.0000   1.0000   1.0000   1.0000   1.0000   1.0000
     1.0000   1.0000   1.0000   1.0000   1.0000   1.0000   1.0000   1.0000
     1.0000   1.0000   0.0000   0.0000   0.0000   0.0000

          k = 0.1667 0.4811 0.2044 (  1905 PWs)   bands (ev):

    -5.5885  -5.5237  -4.1149  -4.0927  -4.0648  -4.0023  -3.9623  -3.9334
    -3.8882  -3.8777  -2.6969  -2.2623   3.1032   3.6386   5.8342   6.7666
     6.9484   7.9374  14.2999  15.3092  16.5979  17.2606

     occupation numbers 
     1.0000   1.0000   1.0000   1.0000   1.0000   1.0000   1.0000   1.0000
     1.0000   1.0000   1.0000   1.0000   1.0000   1.0000   1.0000   1.0000
     1.0000   1.0000   0.0000   0.0000   0.0000   0.0000

          k = 0.1667 0.4811-0.3067 (  1900 PWs)   bands (ev):

    -5.5439  -5.5439  -4.1025  -4.1025  -4.0426  -4.0426  -3.9484  -3.9484
    -3.8807  -3.8807  -2.4980  -2.4980   3.2522   3.2522   6.3186   6.3186
     7.6659   7.6659  14.5717  14.5717  17.1342  17.1342

     occupation numbers 
     1.0000   1.0000   1.0000   1.0000   1.0000   1.0000   1.0000   1.0000
     1.0000   1.0000   1.0000   1.0000   1.0000   1.0000   1.0000   1.0000
     1.0000   1.0000   0.0000   0.0000   0.0000   0.0000

          k = 0.1667 0.5774 0.0000 (  1903 PWs)   bands (ev):

    -5.6255  -5.5253  -4.1581  -4.0784  -3.9938  -3.9852  -3.9553  -3.9491
    -3.8934  -3.8626  -2.5616  -2.0971   3.2294   4.1604   5.1647   5.8695
     6.9925   7.4419  14.8778  15.6264  15.7808  17.4575

     occupation numbers 
     1.0000   1.0000   1.0000   1.0000   1.0000   1.0000   1.0000   1.0000
     1.0000   1.0000   1.0000   1.0000   1.0000   1.0000   1.0000   1.0000
     1.0000   1.0000   0.0000   0.0000   0.0000   0.0000

          k = 0.1667 0.5774 0.1022 (  1902 PWs)   bands (ev):

    -5.6078  -5.5214  -4.1443  -4.0876  -4.0211  -3.9805  -3.9688  -3.9205
    -3.8924  -3.8724  -2.5372  -2.1313   3.0795   3.8810   5.3184   6.2364
     7.1544   7.4069  14.5455  15.7734  16.1004  17.1109

     occupation numbers 
     1.0000   1.0000   1.0000   1.0000   1.0000   1.0000   1.0000   1.0000
     1.0000   1.0000   1.0000   1.0000   1.0000   1.0000   1.0000   1.0000
     1.0000   1.0000   0.0000   0.0000   0.0000   0.0000

          k = 0.1667 0.5774 0.2044 (  1912 PWs)   bands (ev):

    -5.5674  -5.5178  -4.1179  -4.0870  -4.0713  -3.9939  -3.9552  -3.9145
    -3.8893  -3.8832  -2.4642  -2.2258   2.9187   3.3785   5.6774   6.7365
     7.0441   7.8129  14.2250  15.3207  16.8297  16.9217

     occupation numbers 
     1.0000   1.0000   1.0000   1.0000   1.0000   1.0000   1.0000   1.0000
     1.0000   1.0000   1.0000   1.0000   1.0000   1.0000   1.0000   1.0000
     1.0000   1.0000   0.0000   0.0000   0.0000   0.0000

          k = 0.1667 0.5774-0.3067 (  1900 PWs)   bands (ev):

    -5.5313  -5.5313  -4.1045  -4.1045  -4.0407  -4.0407  -3.9320  -3.9320
    -3.8850  -3.8850  -2.3509  -2.3509   3.0121   3.0121   6.1783   6.1783
     7.7293   7.7293  14.5007  14.5007  17.1602  17.1602

     occupation numbers 
     1.0000   1.0000   1.0000   1.0000   1.0000   1.0000   1.0000   1.0000
     1.0000   1.0000   1.0000   1.0000   1.0000   1.0000   1.0000   1.0000
     1.0000   1.0000   0.0000   0.0000   0.0000   0.0000

          k = 0.2500 0.4330 0.0000 (  1895 PWs)   bands (ev):

    -5.6534  -5.5276  -4.1627  -4.0522  -4.0036  -3.9927  -3.9789  -3.9514
    -3.8991  -3.8752  -2.8945  -1.9467   3.6397   4.2566   5.3454   5.4079
     7.2490   7.4243  15.0244  15.6679  16.8969  16.9418

     occupation numbers 
     1.0000   1.0000   1.0000   1.0000   1.0000   1.0000   1.0000   1.0000
     1.0000   1.0000   1.0000   1.0000   1.0000   1.0000   1.0000   1.0000
     1.0000   1.0000   0.0000   0.0000   0.0000   0.0000

          k = 0.2500 0.4330 0.1022 (  1905 PWs)   bands (ev):

    -5.6327  -5.5246  -4.1484  -4.0682  -4.0188  -4.0014  -3.9577  -3.9571
    -3.8898  -3.8871  -2.8506  -2.0304   3.4615   4.1296   5.3773   5.8318
     7.0556   7.6787  15.1625  15.3804  16.9671  16.9785

     occupation numbers 
     1.0000   1.0000   1.0000   1.0000   1.0000   1.0000   1.0000   1.0000
     1.0000   1.0000   1.0000   1.0000   1.0000   1.0000   1.0000   1.0000
     1.0000   1.0000   0.0000   0.0000   0.0000   0.0000

          k = 0.2500 0.4330 0.2044 (  1905 PWs)   bands (ev):

    -5.5852  -5.5237  -4.1107  -4.0873  -4.0504  -4.0148  -3.9646  -3.9509
    -3.8953  -3.8800  -2.7174  -2.2449   3.3176   3.7771   5.5604   6.5181
     6.8556   7.9654  14.9460  15.2521  17.0154  17.1383

     occupation numbers 
     1.0000   1.0000   1.0000   1.0000   1.0000   1.0000   1.0000   1.0000
     1.0000   1.0000   1.0000   1.0000   1.0000   1.0000   1.0000   1.0000
     1.0000   1.0000   0.0000   0.0000   0.0000   0.0000

          k = 0.2500 0.4330-0.3067 (  1898 PWs)   bands (ev):

    -5.5421  -5.5421  -4.0876  -4.0876  -4.0485  -4.0485  -3.9645  -3.9645
    -3.8828  -3.8828  -2.5019  -2.5019   3.4403   3.4403   6.0020   6.0020
     7.6764   7.6764  14.9762  14.9762  17.0719  17.0720

     occupation numbers 
     1.0000   1.0000   1.0000   1.0000   1.0000   1.0000   1.0000   1.0000
     1.0000   1.0000   1.0000   1.0000   1.0000   1.0000   1.0000   1.0000
     1.0000   1.0000   0.0000   0.0000   0.0000   0.0000

          k = 0.2500 0.5292 0.0000 (  1908 PWs)   bands (ev):

    -5.5958  -5.5324  -4.1732  -4.0344  -3.9846  -3.9795  -3.9716  -3.9569
    -3.9089  -3.8770  -2.4836  -2.0341   3.6043   4.1093   4.7499   5.8624
     6.8606   6.9469  14.6376  16.2359  16.8199  17.3249

     occupation numbers 
     1.0000   1.0000   1.0000   1.0000   1.0000   1.0000   1.0000   1.0000
     1.0000   1.0000   1.0000   1.0000   1.0000   1.0000   1.0000   1.0000
     1.0000   1.0000   0.0000   0.0000   0.0000   0.0000

          k = 0.2500 0.5292 0.1022 (  1898 PWs)   bands (ev):

    -5.5809  -5.5263  -4.1575  -4.0524  -4.0141  -3.9826  -3.9610  -3.9374
    -3.9042  -3.8903  -2.4579  -2.0658   3.4273   3.8981   4.7763   6.3042
     6.6909   7.2419  14.8409  16.0407  16.7847  17.1289

     occupation numbers 
     1.0000   1.0000   1.0000   1.0000   1.0000   1.0000   1.0000   1.0000
     1.0000   1.0000   1.0000   1.0000   1.0000   1.0000   1.0000   1.0000
     1.0000   1.0000   0.0000   0.0000   0.0000   0.0000

          k = 0.2500 0.5292 0.2044 (  1902 PWs)   bands (ev):

    -5.5478  -5.5166  -4.1152  -4.0748  -4.0541  -4.0020  -3.9483  -3.9330
    -3.9052  -3.8948  -2.3833  -2.1535   3.1951   3.4858   5.0547   6.1590
     7.1687   7.7596  14.9956  15.6950  16.5389  17.0552

     occupation numbers 
     1.0000   1.0000   1.0000   1.0000   1.0000   1.0000   1.0000   1.0000
     1.0000   1.0000   1.0000   1.0000   1.0000   1.0000   1.0000   1.0000
     1.0000   1.0000   0.0000   0.0000   0.0000   0.0000

          k = 0.2500 0.5292-0.3067 (  1898 PWs)   bands (ev):

    -5.5213  -5.5213  -4.0818  -4.0818  -4.0500  -4.0500  -3.9430  -3.9430
    -3.8959  -3.8959  -2.2720  -2.2720   3.2041   3.2041   5.5597   5.5597
     7.7894   7.7894  15.1261  15.1261  16.9019  16.9019

     occupation numbers 
     1.0000   1.0000   1.0000   1.0000   1.0000   1.0000   1.0000   1.0000
     1.0000   1.0000   1.0000   1.0000   1.0000   1.0000   1.0000   1.0000
     1.0000   1.0000   0.0000   0.0000   0.0000   0.0000

          k = 0.3333 0.5774 0.0000 (  1911 PWs)   bands (ev):

    -5.5545  -5.5545  -4.1802  -3.9927  -3.9927  -3.9792  -3.9658  -3.9658
    -3.9232  -3.8822  -2.1919  -2.1919   4.0074   4.0074   4.1805   6.3907
     6.3907   6.6425  14.4544  16.7883  16.7883  17.5731

     occupation numbers 
     1.0000   1.0000   1.0000   1.0000   1.0000   1.0000   1.0000   1.0000
     1.0000   1.0000   1.0000   1.0000   1.0000   1.0000   1.0000   1.0000
     1.0000   1.0000   0.0000   0.0000   0.0000   0.0000

          k = 0.3333 0.5774 0.1022 (  1908 PWs)   bands (ev):

    -5.5444  -5.5444  -4.1639  -4.0226  -4.0226  -3.9818  -3.9412  -3.9412
    -3.9250  -3.8978  -2.1898  -2.1898   3.7585   3.7585   4.3087   6.4145
     6.7889   6.7889  14.7933  16.5256  16.5256  17.4854

     occupation numbers 
     1.0000   1.0000   1.0000   1.0000   1.0000   1.0000   1.0000   1.0000
     1.0000   1.0000   1.0000   1.0000   1.0000   1.0000   1.0000   1.0000
     1.0000   1.0000   0.0000   0.0000   0.0000   0.0000

          k = 0.3333 0.5774 0.2044 (  1899 PWs)   bands (ev):

    -5.5239  -5.5239  -4.1186  -4.0561  -4.0561  -4.0019  -3.9295  -3.9256
    -3.9188  -3.9188  -2.1856  -2.1856   3.3865   3.3865   4.6757   5.8643
     7.4956   7.4956  15.6182  15.8584  15.8584  17.1681

     occupation numbers 
     1.0000   1.0000   1.0000   1.0000   1.0000   1.0000   1.0000   1.0000
     1.0000   1.0000   1.0000   1.0000   1.0000   1.0000   1.0000   1.0000
     1.0000   1.0000   0.0000   0.0000   0.0000   0.0000

          k = 0.3333 0.5774-0.3067 (  1908 PWs)   bands (ev):

    -5.5135  -5.5135  -4.0697  -4.0697  -4.0565  -4.0565  -3.9332  -3.9332
    -3.9109  -3.9109  -2.1834  -2.1834   3.2351   3.2351   5.2275   5.2275
     7.8377   7.8377  15.4816  15.4816  16.5224  16.5224

     occupation numbers 
     1.0000   1.0000   1.0000   1.0000   1.0000   1.0000   1.0000   1.0000
     1.0000   1.0000   1.0000   1.0000   1.0000   1.0000   1.0000   1.0000
     1.0000   1.0000   0.0000   0.0000   0.0000   0.0000

     highest occupied, lowest unoccupied level (ev):     9.2750   10.9682

!    total energy              =    -612.42287844 Ry
     total all-electron energy =     -7995.349797 Ry
     estimated scf accuracy    <          8.4E-10 Ry

     The total energy is the sum of the following terms:
     one-electron contribution =    -184.75160637 Ry
     hartree contribution      =     131.18471091 Ry
     xc contribution           =     -88.35217430 Ry
     ewald contribution        =    -230.82466193 Ry
     one-center paw contrib.   =    -239.67914675 Ry
      -> PAW hartree energy AE =     145.48890239 Ry
      -> PAW hartree energy PS =    -144.39314249 Ry
      -> PAW xc energy AE      =    -151.15564875 Ry
      -> PAW xc energy PS      =      38.19683044 Ry
      -> total E_H with PAW    =     132.28047081 Ry
      -> total E_XC with PAW   =    -201.31099261 Ry

     convergence has been achieved in  14 iterations

     Forces acting on atoms (cartesian axes, Ry/au):

     atom    1 type  1   force =    -0.00000000   -0.00000000   -0.00038288
     atom    2 type  1   force =     0.00000000    0.00000000   -0.00038288
     atom    3 type  2   force =     0.00000000    0.00000000    0.00038288
     atom    4 type  2   force =     0.00000000    0.00000000    0.00038288
     The non-local contrib.  to forces
     atom    1 type  1   force =     0.00000000   -0.00000000    0.00390458
     atom    2 type  1   force =     0.00000000    0.00000000    0.00390458
     atom    3 type  2   force =    -0.00000000   -0.00000000    0.01422100
     atom    4 type  2   force =     0.00000000    0.00000000    0.01422100
     The ionic contribution  to forces
     atom    1 type  1   force =    -0.00000002    0.00000001    0.15748047
     atom    2 type  1   force =     0.00000002   -0.00000001    0.15748047
     atom    3 type  2   force =    -0.00000001    0.00000001   -0.15748047
     atom    4 type  2   force =     0.00000001   -0.00000001   -0.15748047
     The local contribution  to forces
     atom    1 type  1   force =     0.00000000    0.00000032   -0.16198442
     atom    2 type  1   force =     0.00000056    0.00000000   -0.16198437
     atom    3 type  2   force =    -0.00000000    0.00000003    0.14386519
     atom    4 type  2   force =     0.00000004    0.00000000    0.14386511
     The core correction contribution to forces
     atom    1 type  1   force =     0.00000000    0.00000002    0.00021568
     atom    2 type  1   force =     0.00000004    0.00000000    0.00021568
     atom    3 type  2   force =    -0.00000000   -0.00000000   -0.00022194
     atom    4 type  2   force =    -0.00000000   -0.00000000   -0.00022194
     The Hubbard contrib.    to forces
     atom    1 type  1   force =     0.00000000    0.00000000    0.00000000
     atom    2 type  1   force =     0.00000000    0.00000000    0.00000000
     atom    3 type  2   force =     0.00000000    0.00000000    0.00000000
     atom    4 type  2   force =     0.00000000    0.00000000    0.00000000
     The SCF correction term to forces
     atom    1 type  1   force =     0.00000000    0.00000000    0.00000000
     atom    2 type  1   force =     0.00000000    0.00000000    0.00000000
     atom    3 type  2   force =     0.00000000    0.00000000   -0.00000049
     atom    4 type  2   force =     0.00000000    0.00000000   -0.00000049

     Total force =     0.000541     Total SCF correction =     0.000001


     Computing stress (Cartesian axis) and pressure

          total   stress  (Ry/bohr**3)                   (kbar)     P=        3.30
   0.00002467   0.00000000   0.00000000            3.63        0.00        0.00
   0.00000000   0.00002467   0.00000000            0.00        3.63        0.00
   0.00000000   0.00000000   0.00001798            0.00        0.00        2.65

     kinetic stress (kbar)  19683.66      0.00      0.00
                                0.00  19683.66     -0.00
                                0.00     -0.00  19672.02

     local   stress (kbar)   6177.06      0.00     -0.00
                                0.00   6177.06     -0.00
                               -0.00     -0.00   4418.41

     nonloc. stress (kbar)  -1046.91      0.00      0.00
                                0.00  -1046.91      0.00
                                0.00      0.00  -1033.23

     hartree stress (kbar)  19955.23     -0.00     -0.00
                               -0.00  19955.23      0.00
                               -0.00      0.00  20750.97

     exc-cor stress (kbar)   5146.89     -0.00      0.00
                               -0.00   5146.89      0.00
                                0.00      0.00   5147.33

     corecor stress (kbar) -14013.94      0.00     -0.00
                                0.00 -14013.94     -0.00
                               -0.00     -0.00 -14013.40

     ewald   stress (kbar) -35898.35     -0.00     -0.00
                               -0.00 -35898.35     -0.00
                               -0.00     -0.00 -34939.46

     hubbard stress (kbar)      0.00      0.00      0.00
                                0.00      0.00      0.00
                                0.00      0.00      0.00

     DFT-D   stress (kbar)      0.00      0.00      0.00
                                0.00      0.00      0.00
                                0.00      0.00      0.00

     XDM     stress (kbar)      0.00      0.00      0.00
                                0.00      0.00      0.00
                                0.00      0.00      0.00

     dft-nl  stress (kbar)      0.00      0.00      0.00
                                0.00      0.00      0.00
                                0.00      0.00      0.00

     TS-vdW  stress (kbar)      0.00      0.00      0.00
                                0.00      0.00      0.00
                                0.00      0.00      0.00

     MDB     stress (kbar)      0.00      0.00      0.00
                                0.00      0.00      0.00
                                0.00      0.00      0.00

     3D-RISM stress (kbar)      0.00      0.00      0.00
                                0.00      0.00      0.00
                                0.00      0.00      0.00


     Writing all to output data dir ./tmp/GaN.save/ :
     XML data file, charge density, pseudopotentials, collected wavefunctions
 
     init_run     :    170.84s CPU    522.19s WALL (       1 calls)
     electrons    :    103.12s CPU    294.83s WALL (       1 calls)
     forces       :      0.04s CPU      0.05s WALL (       1 calls)
     stress       :      0.30s CPU      0.31s WALL (       1 calls)

     Called by init_run:
     wfcinit      :    167.85s CPU    514.98s WALL (       1 calls)
     wfcinit:atom :      0.00s CPU      0.00s WALL (      76 calls)
     wfcinit:wfcr :    167.84s CPU    514.96s WALL (      76 calls)
     potinit      :      0.99s CPU      2.70s WALL (       1 calls)
     hinit0       :      0.55s CPU      1.29s WALL (       1 calls)

     Called by electrons:
     c_bands      :    101.41s CPU    292.71s WALL (      14 calls)
     sum_band     :      0.98s CPU      1.17s WALL (      14 calls)
     v_of_rho     :      0.47s CPU      1.33s WALL (      15 calls)
     v_h          :      0.09s CPU      0.24s WALL (      15 calls)
     v_xc         :      0.39s CPU      1.10s WALL (      17 calls)
     newd         :      0.24s CPU      0.47s WALL (      15 calls)
     PAW_pot      :      0.75s CPU      1.17s WALL (      15 calls)
     mix_rho      :      0.01s CPU      0.01s WALL (      14 calls)

     Called by c_bands:
     init_us_2    :      0.06s CPU      0.06s WALL (    2356 calls)
     cegterg      :    100.11s CPU    290.16s WALL (    1064 calls)

     Called by sum_band:
     sum_band:wei :      0.00s CPU      0.00s WALL (      14 calls)
     sum_band:loo :      0.85s CPU      0.93s WALL (      14 calls)
     sum_band:buf :      0.01s CPU      0.01s WALL (    1064 calls)
     sum_band:ini :      0.02s CPU      0.03s WALL (    1064 calls)
     sum_band:cal :      0.05s CPU      0.05s WALL (    1064 calls)
     sum_band:bec :      0.01s CPU      0.01s WALL (    1064 calls)
     addusdens    :      0.12s CPU      0.22s WALL (      14 calls)
                                        0.00s GPU  (      14 calls)
     addusd:skk   :      0.00s CPU      0.00s WALL (      28 calls)
                                        0.00s GPU  (      28 calls)

     Called by *egterg:
     cdiaghg      :      1.64s CPU      1.80s WALL (    5808 calls)
     cegterg:over :      2.37s CPU      5.35s WALL (    4744 calls)
     cegterg:upda :      0.06s CPU      0.07s WALL (    4744 calls)
     cegterg:last :      0.12s CPU      0.13s WALL (    2888 calls)
     h_psi        :    258.16s CPU    785.73s WALL (    5884 calls)
     s_psi        :      0.09s CPU      0.10s WALL (    5884 calls)
     g_psi        :      0.01s CPU      0.01s WALL (    4744 calls)

     Called by h_psi:
     h_psi:calbec :      9.01s CPU     18.64s WALL (    5884 calls)
     vloc_psi     :    249.02s CPU    766.94s WALL (    5884 calls)
     add_vuspsi   :      0.10s CPU      0.11s WALL (    5884 calls)

     General routines
     calbec       :      9.10s CPU     18.73s WALL (    7328 calls)
     fft          :      0.55s CPU      1.80s WALL (     218 calls)
     ffts         :      0.02s CPU      0.09s WALL (      29 calls)
     fftw         :    249.07s CPU    766.97s WALL (  168632 calls)
     interpolate  :      0.07s CPU      0.26s WALL (      15 calls)
 
     Parallel routines

     PAW routines
     PAW_pot      :      0.75s CPU      1.17s WALL (      15 calls)
     PAW_symme    :      0.01s CPU      0.01s WALL (      29 calls)
 
     PWSCF        :   4m44.15s CPU  13m58.32s WALL

 
   This run was terminated on:   2:25:39   1Sep2026            

=------------------------------------------------------------------------------=
   JOB DONE.
=------------------------------------------------------------------------------=
