
     Program PWSCF v.7.3.1 starts on 29Aug2026 at  9:47:50 

     This program is part of the open-source Quantum ESPRESSO suite
     for quantum simulation of materials; please cite
         "P. Giannozzi et al., J. Phys.:Condens. Matter 21 395502 (2009);
         "P. Giannozzi et al., J. Phys.:Condens. Matter 29 465901 (2017);
         "P. Giannozzi et al., J. Chem. Phys. 152 154105 (2020);
          URL http://www.quantum-espresso.org", 
     in publications or presentations arising from this work. More details at
     http://www.quantum-espresso.org/quote

     Parallel version (MPI & OpenMP), running on      12 processor cores
     Number of MPI processes:                12
     Threads/MPI process:                     1

     MPI processes distributed on     1 nodes
     118682 MiB available memory on the printing compute node when the environment starts
 
     Waiting for input...
     Reading input from standard input

     Current dimensions of program PWSCF are:
     Max number of different atomic species (ntypx) = 10
     Max number of k-points (npk) =  40000
     Max angular momentum in pseudopotentials (lmaxx) =  4
     file C.pbe-n-kjpaw_psl.1.0.0.UPF: wavefunction(s)  2S 2P renormalized
 
     R & G space division:  proc/nbgrp/npool/nimage =      12
     Subspace diagonalization in iterative solution of the eigenvalue problem:
     a serial algorithm will be used

 
     Parallelization info
     --------------------
     sticks:   dense  smooth     PW     G-vecs:    dense   smooth      PW
     Min        3729    1492    373               593621   150182   18766
     Max        3730    1493    375               593626   150185   18768
     Sum       44749   17905   4485              7123475  1802199  225199
 
     Using Slab Decomposition
 


     bravais-lattice index     =            1
     lattice parameter (alat)  =      28.3459  a.u.
     unit-cell volume          =   22775.6289 (a.u.)^3
     number of atoms/cell      =            1
     number of atomic types    =            1
     number of electrons       =         4.00 (up:   3.00, down:   1.00)
     number of Kohn-Sham states=            3
     kinetic-energy cutoff     =      70.0000  Ry
     charge density cutoff     =     700.0000  Ry
     scf convergence threshold =      1.0E-08
     mixing beta               =       0.7000
     number of iterations used =            8  plain     mixing
     Exchange-correlation= SLA  PW   PBX  PBC
                           (   1   4   3   4   0   0   0)

     celldm(1)=  28.345892  celldm(2)=   0.000000  celldm(3)=   0.000000
     celldm(4)=   0.000000  celldm(5)=   0.000000  celldm(6)=   0.000000

     crystal axes: (cart. coord. in units of alat)
               a(1) = (   1.000000   0.000000   0.000000 )  
               a(2) = (   0.000000   1.000000   0.000000 )  
               a(3) = (   0.000000   0.000000   1.000000 )  

     reciprocal axes: (cart. coord. in units 2 pi/alat)
               b(1) = (  1.000000  0.000000  0.000000 )  
               b(2) = (  0.000000  1.000000  0.000000 )  
               b(3) = (  0.000000  0.000000  1.000000 )  


     PseudoPot. # 1 for C  read from file:
     /data-fast/greenano/Students/cohort2/rojassan/Project_GaN/PSEUDO/C.pbe-n-kjpaw_psl.1.0.0.UPF
     MD5 check sum: 6e4988b7a1fe6f06f65aa0569fb69d66
     Pseudo is Projector augmented-wave + core cor, Zval =  4.0
     Generated using 'atomic' code by A. Dal Corso  v.7.3.1
     Shape of augmentation charge: PSQ
     Using radial grid of 1073 points,  4 beta functions with: 
                l(1) =   0
                l(2) =   0
                l(3) =   1
                l(4) =   1
     Q(r) pseudized with 0 coefficients 


     atomic species   valence    mass     pseudopotential
     C                 4.00    12.01100     C ( 1.00)

     Starting magnetic structure 
     atomic species   magnetization
     C               0.000

     48 Sym. Ops., with inversion, found



   Cartesian axes

     site n.     atom                  positions (alat units)
         1        C      tau(   1) = (   0.0000000   0.0000000   0.0000000  )

     number of k points=     1
                       cart. coord. in units 2pi/alat
        k(    1) = (   0.0000000   0.0000000   0.0000000), wk =   1.0000000

     Dense  grid:  7123475 G-vectors     FFT dimensions: ( 240, 240, 240)

     Smooth grid:  1802199 G-vectors     FFT dimensions: ( 160, 160, 160)

     Estimated max dynamical RAM per process >     960.74 MB

     Estimated total dynamical RAM >      11.26 GB
     Generating pointlists ...
     new r_m :   0.4125 (alat units) 11.6927 (a.u.) for type    1

     Initial potential from superposition of free atoms

     starting charge       4.0000, renormalised to       4.0000

     negative rho (up, down):  1.442E-04 1.442E-04
     Starting wfcs are    4 randomized atomic wfcs
     Checking if some PAW data can be deallocated... 

     total cpu time spent up to now is        8.4 secs

     Self-consistent Calculation

     iteration #  1     ecut=    70.00 Ry     beta= 0.70
     Davidson diagonalization with overlap
     ethr =  1.00E-02,  avg # of iterations =  1.0

     Threshold (ethr) on eigenvalues was too large:
     Diagonalizing with lowered threshold

     Davidson diagonalization with overlap
     ethr =  6.59E-04,  avg # of iterations =  1.0

     negative rho (up, down):  1.680E-04 1.007E-04

     total cpu time spent up to now is       14.9 secs

     total energy              =     -17.84570775 Ry
     estimated scf accuracy    <       0.02636056 Ry

     total magnetization       =     2.00 Bohr mag/cell
     absolute magnetization    =     2.00 Bohr mag/cell

     iteration #  2     ecut=    70.00 Ry     beta= 0.70
     Davidson diagonalization with overlap
     ethr =  6.59E-04,  avg # of iterations =  1.0

     negative rho (up, down):  1.794E-04 1.036E-04

     total cpu time spent up to now is       19.5 secs

     total energy              =     -17.85608628 Ry
     estimated scf accuracy    <       0.00360953 Ry

     total magnetization       =     2.00 Bohr mag/cell
     absolute magnetization    =     2.00 Bohr mag/cell

     iteration #  3     ecut=    70.00 Ry     beta= 0.70
     Davidson diagonalization with overlap
     ethr =  9.02E-05,  avg # of iterations =  1.5

     negative rho (up, down):  1.842E-04 9.267E-05

     total cpu time spent up to now is       24.2 secs

     total energy              =     -17.85638575 Ry
     estimated scf accuracy    <       0.00004341 Ry

     total magnetization       =     2.00 Bohr mag/cell
     absolute magnetization    =     2.00 Bohr mag/cell

     iteration #  4     ecut=    70.00 Ry     beta= 0.70
     Davidson diagonalization with overlap
     ethr =  1.09E-06,  avg # of iterations =  2.5

     negative rho (up, down):  1.909E-04 8.896E-05

     total cpu time spent up to now is       28.9 secs

     total energy              =     -17.85642314 Ry
     estimated scf accuracy    <       0.00000396 Ry

     total magnetization       =     2.00 Bohr mag/cell
     absolute magnetization    =     2.00 Bohr mag/cell

     iteration #  5     ecut=    70.00 Ry     beta= 0.70
     Davidson diagonalization with overlap
     ethr =  9.90E-08,  avg # of iterations =  2.0

     negative rho (up, down):  1.934E-04 8.782E-05

     total cpu time spent up to now is       34.1 secs

     total energy              =     -17.85642492 Ry
     estimated scf accuracy    <       0.00000004 Ry

     total magnetization       =     2.00 Bohr mag/cell
     absolute magnetization    =     2.00 Bohr mag/cell

     iteration #  6     ecut=    70.00 Ry     beta= 0.70
     Davidson diagonalization with overlap
     ethr =  1.03E-09,  avg # of iterations =  3.5

     negative rho (up, down):  1.937E-04 8.758E-05

     total cpu time spent up to now is       39.3 secs

     total energy              =     -17.85642498 Ry
     estimated scf accuracy    <       0.00000002 Ry

     total magnetization       =     2.00 Bohr mag/cell
     absolute magnetization    =     2.00 Bohr mag/cell

     iteration #  7     ecut=    70.00 Ry     beta= 0.70
     Davidson diagonalization with overlap
     ethr =  4.93E-10,  avg # of iterations =  2.0

     negative rho (up, down):  1.938E-04 8.749E-05
 
     Magnetic moment per site  (integrated on atomic sphere of radius R)
     atom   1 (R=0.413)  charge=  4.0000  magn=  2.0000

     total cpu time spent up to now is       43.6 secs

     End of self-consistent calculation

 ------ SPIN UP ------------


          k = 0.0000 0.0000 0.0000 (225199 PWs)   bands (ev):

   -14.6064  -6.0599  -6.0599

 ------ SPIN DOWN ----------


          k = 0.0000 0.0000 0.0000 (225199 PWs)   bands (ev):

   -11.8490  -3.5750  -3.5750

     highest occupied, lowest unoccupied level (ev):    -6.0599   -3.5750

!    total energy              =     -17.85642499 Ry
     total all-electron energy =       -75.620522 Ry
     estimated scf accuracy    <          1.5E-09 Ry

     The total energy is the sum of the following terms:
     one-electron contribution =     -13.24326650 Ry
     hartree contribution      =       7.25587605 Ry
     xc contribution           =      -4.06981605 Ry
     ewald contribution        =      -1.60152871 Ry
     one-center paw contrib.   =      -6.19768979 Ry

     total magnetization       =     2.00 Bohr mag/cell
     absolute magnetization    =     2.00 Bohr mag/cell

     convergence has been achieved in   7 iterations

     Writing all to output data dir ./tmp/Ga_atom.save/ :
     XML data file, charge density, pseudopotentials, collected wavefunctions
 
     init_run     :      6.70s CPU      8.17s WALL (       1 calls)
     electrons    :     29.93s CPU     36.31s WALL (       1 calls)

     Called by init_run:
     wfcinit      :      0.12s CPU      0.17s WALL (       1 calls)
     potinit      :      1.64s CPU      2.17s WALL (       1 calls)
     hinit0       :      0.50s CPU      0.65s WALL (       1 calls)

     Called by electrons:
     c_bands      :      1.92s CPU      2.02s WALL (       8 calls)
     sum_band     :     10.68s CPU     12.96s WALL (       8 calls)
     v_of_rho     :     11.42s CPU     13.02s WALL (       8 calls)
     newd         :      3.75s CPU      5.99s WALL (       8 calls)
     PAW_pot      :      0.13s CPU      0.17s WALL (       8 calls)
     mix_rho      :      2.21s CPU      2.36s WALL (       8 calls)

     Called by c_bands:
     init_us_2    :      0.08s CPU      0.09s WALL (      34 calls)
     cegterg      :      1.83s CPU      1.93s WALL (      16 calls)

     Called by *egterg:
     cdiaghg      :      0.00s CPU      0.04s WALL (      43 calls)
     h_psi        :      1.84s CPU      1.93s WALL (      47 calls)
     s_psi        :      0.01s CPU      0.01s WALL (      47 calls)
     g_psi        :      0.00s CPU      0.00s WALL (      29 calls)

     Called by h_psi:
     h_psi:calbec :      0.03s CPU      0.04s WALL (      47 calls)
     vloc_psi     :      1.77s CPU      1.85s WALL (      47 calls)
     add_vuspsi   :      0.02s CPU      0.02s WALL (      47 calls)

     General routines
     calbec       :      0.05s CPU      0.06s WALL (      63 calls)
     fft          :      9.72s CPU     10.33s WALL (     196 calls)
     ffts         :      0.26s CPU      0.29s WALL (      32 calls)
     fftw         :      1.18s CPU      1.25s WALL (     306 calls)
     interpolate  :      0.97s CPU      1.04s WALL (      16 calls)
 
     Parallel routines
 
     PWSCF        :     37.08s CPU     46.26s WALL

 
   This run was terminated on:   9:48:36  29Aug2026            

=------------------------------------------------------------------------------=
   JOB DONE.
=------------------------------------------------------------------------------=
