
     Program PWSCF v.7.3.1 starts on  6Aug2026 at 19:50:11 

     This program is part of the open-source Quantum ESPRESSO suite
     for quantum simulation of materials; please cite
         "P. Giannozzi et al., J. Phys.:Condens. Matter 21 395502 (2009);
         "P. Giannozzi et al., J. Phys.:Condens. Matter 29 465901 (2017);
         "P. Giannozzi et al., J. Chem. Phys. 152 154105 (2020);
          URL http://www.quantum-espresso.org", 
     in publications or presentations arising from this work. More details at
     http://www.quantum-espresso.org/quote

     Parallel version (MPI & OpenMP), running on       8 processor cores
     Number of MPI processes:                 8
     Threads/MPI process:                     1

     MPI processes distributed on     1 nodes
     25598 MiB available memory on the printing compute node when the environment starts
 
     Waiting for input...
     Reading input from standard input

     Current dimensions of program PWSCF are:
     Max number of different atomic species (ntypx) = 10
     Max number of k-points (npk) =  40000
     Max angular momentum in pseudopotentials (lmaxx) =  4
     file Ga.pbe-dn-kjpaw_psl.1.0.0.UPF: wavefunction(s)  4S renormalized
     Message from routine setup:
     the system is metallic, specify occupations
 
     R & G space division:  proc/nbgrp/npool/nimage =       8
     Subspace diagonalization in iterative solution of the eigenvalue problem:
     a serial algorithm will be used

 
     Parallelization info
     --------------------
     sticks:   dense  smooth     PW     G-vecs:    dense   smooth      PW
     Min        5593    2238    560               890433   225274   28149
     Max        5594    2239    562               890438   225277   28150
     Sum       44749   17905   4485              7123475  1802199  225199
 
     Using Slab Decomposition
 


     bravais-lattice index     =            1
     lattice parameter (alat)  =      28.3459  a.u.
     unit-cell volume          =   22775.6289 (a.u.)^3
     number of atoms/cell      =            1
     number of atomic types    =            1
     number of electrons       =        13.00 (up:   7.00, down:   6.00)
     number of Kohn-Sham states=            7
     kinetic-energy cutoff     =      70.0000  Ry
     charge density cutoff     =     700.0000  Ry
     scf convergence threshold =      1.0E-08
     mixing beta               =       0.7000
     number of iterations used =            8  plain     mixing
     Exchange-correlation= SLA  PW   PBX  PBC
                           (   1   4   3   4   0   0   0)

     celldm(1)=  28.345892  celldm(2)=   0.000000  celldm(3)=   0.000000
     celldm(4)=   0.000000  celldm(5)=   0.000000  celldm(6)=   0.000000

     crystal axes: (cart. coord. in units of alat)
               a(1) = (   1.000000   0.000000   0.000000 )  
               a(2) = (   0.000000   1.000000   0.000000 )  
               a(3) = (   0.000000   0.000000   1.000000 )  

     reciprocal axes: (cart. coord. in units 2 pi/alat)
               b(1) = (  1.000000  0.000000  0.000000 )  
               b(2) = (  0.000000  1.000000  0.000000 )  
               b(3) = (  0.000000  0.000000  1.000000 )  


     PseudoPot. # 1 for Ga read from file:
     /data-fast/greenano/Students/cohort2/rojassan/Project_GaN/PSEUDO/Ga.pbe-dn-kjpaw_psl.1.0.0.UPF
     MD5 check sum: 93aceff68ec27daa0acc11ebb2e245f0
     Pseudo is Projector augmented-wave + core cor, Zval = 13.0
     Generated using 'atomic' code by A. Dal Corso  v.7.3.1
     Shape of augmentation charge: PSQ
     Using radial grid of 1205 points,  6 beta functions with: 
                l(1) =   0
                l(2) =   0
                l(3) =   1
                l(4) =   1
                l(5) =   2
                l(6) =   2
     Q(r) pseudized with 0 coefficients 


     atomic species   valence    mass     pseudopotential
     Ga               13.00    69.72300     Ga( 1.00)

     Starting magnetic structure 
     atomic species   magnetization
     Ga              0.000

     48 Sym. Ops., with inversion, found



   Cartesian axes

     site n.     atom                  positions (alat units)
         1        Ga     tau(   1) = (   0.0000000   0.0000000   0.0000000  )

     number of k points=     1
                       cart. coord. in units 2pi/alat
        k(    1) = (   0.0000000   0.0000000   0.0000000), wk =   1.0000000

     Dense  grid:  7123475 G-vectors     FFT dimensions: ( 240, 240, 240)

     Smooth grid:  1802199 G-vectors     FFT dimensions: ( 160, 160, 160)

     Estimated max dynamical RAM per process >       3.32 GB

     Estimated total dynamical RAM >      26.52 GB
     Generating pointlists ...
     new r_m :   0.4125 (alat units) 11.6927 (a.u.) for type    1

     Initial potential from superposition of free atoms

     starting charge      12.9970, renormalised to      13.0000

     negative rho (up, down):  3.112E-04 3.112E-04
     Starting wfcs are    9 randomized atomic wfcs
     Checking if some PAW data can be deallocated... 

     total cpu time spent up to now is       16.2 secs

     Self-consistent Calculation

     iteration #  1     ecut=    70.00 Ry     beta= 0.70
     Davidson diagonalization with overlap
     ethr =  1.00E-02,  avg # of iterations =  1.0

     Threshold (ethr) on eigenvalues was too large:
     Diagonalizing with lowered threshold

     Davidson diagonalization with overlap
     ethr =  6.45E-06,  avg # of iterations =  3.5

     negative rho (up, down):  2.117E-05 8.855E-05

     total cpu time spent up to now is       54.2 secs

     total energy              =    -277.72524495 Ry
     estimated scf accuracy    <       0.00084768 Ry

     total magnetization       =     1.00 Bohr mag/cell
     absolute magnetization    =     1.00 Bohr mag/cell

     iteration #  2     ecut=    70.00 Ry     beta= 0.70
     Davidson diagonalization with overlap
     ethr =  6.52E-06,  avg # of iterations =  3.0

     negative rho (up, down):  4.136E-06 2.805E-05

     total cpu time spent up to now is       79.9 secs

     total energy              =    -277.72683061 Ry
     estimated scf accuracy    <       0.00009652 Ry

     total magnetization       =     1.00 Bohr mag/cell
     absolute magnetization    =     1.00 Bohr mag/cell

     iteration #  3     ecut=    70.00 Ry     beta= 0.70
     Davidson diagonalization with overlap
     ethr =  7.42E-07,  avg # of iterations =  4.0

     negative rho (up, down):  2.381E-06 1.655E-05

     total cpu time spent up to now is      102.9 secs

     total energy              =    -277.72692050 Ry
     estimated scf accuracy    <       0.00000934 Ry

     total magnetization       =     1.00 Bohr mag/cell
     absolute magnetization    =     1.00 Bohr mag/cell

     iteration #  4     ecut=    70.00 Ry     beta= 0.70
     Davidson diagonalization with overlap
     ethr =  7.18E-08,  avg # of iterations = 10.5

     negative rho (up, down):  2.300E-06 1.696E-05

     total cpu time spent up to now is      127.1 secs

     total energy              =    -277.72694593 Ry
     estimated scf accuracy    <       0.00001619 Ry

     total magnetization       =     1.00 Bohr mag/cell
     absolute magnetization    =     1.01 Bohr mag/cell

     iteration #  5     ecut=    70.00 Ry     beta= 0.70
     Davidson diagonalization with overlap
     ethr =  7.18E-08,  avg # of iterations =  3.0

     negative rho (up, down):  2.572E-06 1.658E-05

     total cpu time spent up to now is      147.8 secs

     total energy              =    -277.72694632 Ry
     estimated scf accuracy    <       0.00004790 Ry

     total magnetization       =     1.00 Bohr mag/cell
     absolute magnetization    =     1.01 Bohr mag/cell

     iteration #  6     ecut=    70.00 Ry     beta= 0.70
     Davidson diagonalization with overlap
     ethr =  7.18E-08,  avg # of iterations =  4.0

     negative rho (up, down):  2.633E-06 1.670E-05

     total cpu time spent up to now is      168.9 secs

     total energy              =    -277.72695112 Ry
     estimated scf accuracy    <       0.00000078 Ry

     total magnetization       =     1.00 Bohr mag/cell
     absolute magnetization    =     1.01 Bohr mag/cell

     iteration #  7     ecut=    70.00 Ry     beta= 0.70
     Davidson diagonalization with overlap
     ethr =  5.98E-09,  avg # of iterations = 10.0

     negative rho (up, down):  2.705E-06 1.652E-05

     total cpu time spent up to now is      191.9 secs

     total energy              =    -277.72695301 Ry
     estimated scf accuracy    <       0.00000476 Ry

     total magnetization       =     1.00 Bohr mag/cell
     absolute magnetization    =     1.01 Bohr mag/cell

     iteration #  8     ecut=    70.00 Ry     beta= 0.70
     Davidson diagonalization with overlap
     ethr =  5.98E-09,  avg # of iterations =  1.0

     negative rho (up, down):  2.840E-06 1.649E-05

     total cpu time spent up to now is      212.7 secs

     total energy              =    -277.72695340 Ry
     estimated scf accuracy    <       0.00000441 Ry

     total magnetization       =     1.00 Bohr mag/cell
     absolute magnetization    =     1.01 Bohr mag/cell

     iteration #  9     ecut=    70.00 Ry     beta= 0.70
     Davidson diagonalization with overlap
     ethr =  5.98E-09,  avg # of iterations =  1.0

     negative rho (up, down):  2.809E-06 1.650E-05

     total cpu time spent up to now is      236.3 secs

     total energy              =    -277.72695319 Ry
     estimated scf accuracy    <       0.00000427 Ry

     total magnetization       =     1.00 Bohr mag/cell
     absolute magnetization    =     1.01 Bohr mag/cell

     iteration # 10     ecut=    70.00 Ry     beta= 0.70
     Davidson diagonalization with overlap
     ethr =  5.98E-09,  avg # of iterations =  1.0

     negative rho (up, down):  2.804E-06 1.650E-05

     total cpu time spent up to now is      259.6 secs

     total energy              =    -277.72695314 Ry
     estimated scf accuracy    <       0.00000367 Ry

     total magnetization       =     1.00 Bohr mag/cell
     absolute magnetization    =     1.01 Bohr mag/cell

     iteration # 11     ecut=    70.00 Ry     beta= 0.70
     Davidson diagonalization with overlap
     ethr =  5.98E-09,  avg # of iterations =  1.0

     negative rho (up, down):  2.834E-06 1.651E-05

     total cpu time spent up to now is      283.7 secs

     total energy              =    -277.72695326 Ry
     estimated scf accuracy    <       0.00000349 Ry

     total magnetization       =     1.00 Bohr mag/cell
     absolute magnetization    =     1.01 Bohr mag/cell

     iteration # 12     ecut=    70.00 Ry     beta= 0.70
     Davidson diagonalization with overlap
     ethr =  5.98E-09,  avg # of iterations =  1.0

     negative rho (up, down):  2.850E-06 1.651E-05

     total cpu time spent up to now is      304.9 secs

     total energy              =    -277.72695332 Ry
     estimated scf accuracy    <       0.00000387 Ry

     total magnetization       =     1.00 Bohr mag/cell
     absolute magnetization    =     1.01 Bohr mag/cell

     iteration # 13     ecut=    70.00 Ry     beta= 0.70
     Davidson diagonalization with overlap
     ethr =  5.98E-09,  avg # of iterations =  1.0

     negative rho (up, down):  2.791E-06 1.652E-05

     total cpu time spent up to now is      326.2 secs

     total energy              =    -277.72695317 Ry
     estimated scf accuracy    <       0.00000415 Ry

     total magnetization       =     1.00 Bohr mag/cell
     absolute magnetization    =     1.01 Bohr mag/cell

     iteration # 14     ecut=    70.00 Ry     beta= 0.70
     Davidson diagonalization with overlap
     ethr =  5.98E-09,  avg # of iterations =  1.0

     negative rho (up, down):  2.778E-06 1.655E-05

     total cpu time spent up to now is      347.3 secs

     total energy              =    -277.72695350 Ry
     estimated scf accuracy    <       0.00000369 Ry

     total magnetization       =     1.00 Bohr mag/cell
     absolute magnetization    =     1.01 Bohr mag/cell

     iteration # 15     ecut=    70.00 Ry     beta= 0.70
     Davidson diagonalization with overlap
     ethr =  5.98E-09,  avg # of iterations =  1.0

     negative rho (up, down):  2.773E-06 1.650E-05

     total cpu time spent up to now is      368.5 secs

     total energy              =    -277.72695156 Ry
     estimated scf accuracy    <       0.00000469 Ry

     total magnetization       =     1.00 Bohr mag/cell
     absolute magnetization    =     1.01 Bohr mag/cell

     iteration # 16     ecut=    70.00 Ry     beta= 0.70
     Davidson diagonalization with overlap
     ethr =  5.98E-09,  avg # of iterations =  8.0

     negative rho (up, down):  2.724E-06 1.647E-05

     total cpu time spent up to now is      391.1 secs

     total energy              =    -277.72695254 Ry
     estimated scf accuracy    <       0.00000130 Ry

     total magnetization       =     1.00 Bohr mag/cell
     absolute magnetization    =     1.01 Bohr mag/cell

     iteration # 17     ecut=    70.00 Ry     beta= 0.70
     Davidson diagonalization with overlap
     ethr =  5.98E-09,  avg # of iterations =  1.0

     negative rho (up, down):  2.759E-06 1.646E-05

     total cpu time spent up to now is      412.2 secs

     total energy              =    -277.72695271 Ry
     estimated scf accuracy    <       0.00000031 Ry

     total magnetization       =     1.00 Bohr mag/cell
     absolute magnetization    =     1.01 Bohr mag/cell

     iteration # 18     ecut=    70.00 Ry     beta= 0.70
     Davidson diagonalization with overlap
     ethr =  2.42E-09,  avg # of iterations =  1.5

     negative rho (up, down):  2.703E-06 1.646E-05

     total cpu time spent up to now is      433.5 secs

     total energy              =    -277.72695249 Ry
     estimated scf accuracy    <       0.00000095 Ry

     total magnetization       =     1.00 Bohr mag/cell
     absolute magnetization    =     1.01 Bohr mag/cell

     iteration # 19     ecut=    70.00 Ry     beta= 0.70
     Davidson diagonalization with overlap
     ethr =  2.42E-09,  avg # of iterations =  3.0

     negative rho (up, down):  2.712E-06 1.646E-05

     total cpu time spent up to now is      455.1 secs

     total energy              =    -277.72695258 Ry
     estimated scf accuracy    <       0.00000011 Ry

     total magnetization       =     1.00 Bohr mag/cell
     absolute magnetization    =     1.01 Bohr mag/cell

     iteration # 20     ecut=    70.00 Ry     beta= 0.70
     Davidson diagonalization with overlap
     ethr =  8.71E-10,  avg # of iterations =  1.0

     negative rho (up, down):  2.706E-06 1.646E-05

     total cpu time spent up to now is      476.1 secs

     total energy              =    -277.72695252 Ry
     estimated scf accuracy    <       0.00000027 Ry

     total magnetization       =     1.00 Bohr mag/cell
     absolute magnetization    =     1.01 Bohr mag/cell

     iteration # 21     ecut=    70.00 Ry     beta= 0.70
     Davidson diagonalization with overlap
     ethr =  8.71E-10,  avg # of iterations =  3.0

     negative rho (up, down):  2.703E-06 1.645E-05

     total cpu time spent up to now is      497.4 secs

     total energy              =    -277.72695253 Ry
     estimated scf accuracy    <       0.00000004 Ry

     total magnetization       =     1.00 Bohr mag/cell
     absolute magnetization    =     1.01 Bohr mag/cell

     iteration # 22     ecut=    70.00 Ry     beta= 0.70
     Davidson diagonalization with overlap
     ethr =  3.43E-10,  avg # of iterations =  1.0

     negative rho (up, down):  2.700E-06 1.645E-05

     total cpu time spent up to now is      518.6 secs

     total energy              =    -277.72695254 Ry
     estimated scf accuracy    <       0.00000001 Ry

     total magnetization       =     1.00 Bohr mag/cell
     absolute magnetization    =     1.01 Bohr mag/cell

     iteration # 23     ecut=    70.00 Ry     beta= 0.70
     Davidson diagonalization with overlap
     ethr =  8.22E-11,  avg # of iterations =  7.5

     negative rho (up, down):  2.704E-06 1.646E-05

     total cpu time spent up to now is      541.2 secs

     total energy              =    -277.72695255 Ry
     estimated scf accuracy    <       0.00000003 Ry

     total magnetization       =     1.00 Bohr mag/cell
     absolute magnetization    =     1.01 Bohr mag/cell

     iteration # 24     ecut=    70.00 Ry     beta= 0.70
     Davidson diagonalization with overlap
     ethr =  8.22E-11,  avg # of iterations =  1.5

     negative rho (up, down):  2.704E-06 1.646E-05

     total cpu time spent up to now is      562.3 secs

     total energy              =    -277.72695255 Ry
     estimated scf accuracy    <       0.00000001 Ry

     total magnetization       =     1.00 Bohr mag/cell
     absolute magnetization    =     1.01 Bohr mag/cell

     iteration # 25     ecut=    70.00 Ry     beta= 0.70
     Davidson diagonalization with overlap
     ethr =  7.95E-11,  avg # of iterations =  2.0

     negative rho (up, down):  2.704E-06 1.646E-05
 
     Magnetic moment per site  (integrated on atomic sphere of radius R)
     atom   1 (R=0.413)  charge= 12.9998  magn=  0.9998

     total cpu time spent up to now is      583.1 secs

     End of self-consistent calculation

 ------ SPIN UP ------------


          k = 0.0000 0.0000 0.0000 (225199 PWs)   bands (ev):

   -19.0151 -19.0151 -19.0151 -19.0151 -19.0151  -9.1299  -2.7820

 ------ SPIN DOWN ----------


          k = 0.0000 0.0000 0.0000 (225199 PWs)   bands (ev):

   -18.9530 -18.9530 -18.9530 -18.9530 -18.9530  -8.4356  -2.0218

     highest occupied, lowest unoccupied level (ev):    -2.7820   -2.0218

!    total energy              =    -277.72695255 Ry
     total all-electron energy =     -3887.891614 Ry
     estimated scf accuracy    <          3.4E-09 Ry

     The total energy is the sum of the following terms:
     one-electron contribution =    -238.60464262 Ry
     hartree contribution      =     126.50647164 Ry
     xc contribution           =     -37.80597834 Ry
     ewald contribution        =     -16.91614701 Ry
     one-center paw contrib.   =    -110.90665623 Ry

     total magnetization       =     1.00 Bohr mag/cell
     absolute magnetization    =     1.01 Bohr mag/cell

     convergence has been achieved in  25 iterations

     Writing all to output data dir ./tmp/Ga_atom.save/ :
     XML data file, charge density, pseudopotentials, collected wavefunctions
 
     init_run     :     13.74s CPU     16.00s WALL (       1 calls)
     electrons    :    488.87s CPU    568.37s WALL (       1 calls)

     Called by init_run:
     wfcinit      :      0.47s CPU      0.53s WALL (       1 calls)
     potinit      :      2.92s CPU      3.28s WALL (       1 calls)
     hinit0       :      0.83s CPU      0.97s WALL (       1 calls)

     Called by electrons:
     c_bands      :     31.47s CPU     31.72s WALL (      26 calls)
     sum_band     :    260.29s CPU    297.98s WALL (      26 calls)
     v_of_rho     :     66.17s CPU     69.82s WALL (      26 calls)
     newd         :    109.67s CPU    147.34s WALL (      26 calls)
     PAW_pot      :      2.28s CPU      2.48s WALL (      26 calls)
     mix_rho      :     17.65s CPU     18.38s WALL (      26 calls)

     Called by c_bands:
     init_us_2    :      1.02s CPU      1.04s WALL (     106 calls)
     cegterg      :     30.07s CPU     30.30s WALL (      52 calls)

     Called by *egterg:
     cdiaghg      :      0.03s CPU      0.03s WALL (     203 calls)
     h_psi        :     27.60s CPU     27.84s WALL (     207 calls)
     s_psi        :      0.48s CPU      0.48s WALL (     207 calls)
     g_psi        :      0.07s CPU      0.07s WALL (     153 calls)

     Called by h_psi:
     h_psi:calbec :      0.54s CPU      0.54s WALL (     207 calls)
     vloc_psi     :     26.38s CPU     26.61s WALL (     207 calls)
     add_vuspsi   :      0.51s CPU      0.51s WALL (     207 calls)

     General routines
     calbec       :      0.68s CPU      0.69s WALL (     259 calls)
     fft          :     54.41s CPU     54.90s WALL (     646 calls)
     ffts         :      1.88s CPU      1.90s WALL (     104 calls)
     fftw         :     18.32s CPU     18.50s WALL (    2600 calls)
     interpolate  :      5.87s CPU      5.92s WALL (      52 calls)
 
     Parallel routines
 
     PWSCF        :   8m23.21s CPU   9m46.31s WALL

 
   This run was terminated on:  19:59:57   6Aug2026            

=------------------------------------------------------------------------------=
   JOB DONE.
=------------------------------------------------------------------------------=
