
     Program PWSCF v.7.3.1 starts on  6Aug2026 at 20: 0:54 

     This program is part of the open-source Quantum ESPRESSO suite
     for quantum simulation of materials; please cite
         "P. Giannozzi et al., J. Phys.:Condens. Matter 21 395502 (2009);
         "P. Giannozzi et al., J. Phys.:Condens. Matter 29 465901 (2017);
         "P. Giannozzi et al., J. Chem. Phys. 152 154105 (2020);
          URL http://www.quantum-espresso.org", 
     in publications or presentations arising from this work. More details at
     http://www.quantum-espresso.org/quote

     Parallel version (MPI & OpenMP), running on      12 processor cores
     Number of MPI processes:                12
     Threads/MPI process:                     1

     MPI processes distributed on     1 nodes
     29033 MiB available memory on the printing compute node when the environment starts
 
     Waiting for input...
     Reading input from standard input

     Current dimensions of program PWSCF are:
     Max number of different atomic species (ntypx) = 10
     Max number of k-points (npk) =  40000
     Max angular momentum in pseudopotentials (lmaxx) =  4
     file N.pbe-n-kjpaw_psl.1.0.0.UPF: wavefunction(s)  2S renormalized
     Message from routine setup:
     the system is metallic, specify occupations
 
     R & G space division:  proc/nbgrp/npool/nimage =      12
     Subspace diagonalization in iterative solution of the eigenvalue problem:
     a serial algorithm will be used

 
     Parallelization info
     --------------------
     sticks:   dense  smooth     PW     G-vecs:    dense   smooth      PW
     Min        3729    1492    373               593621   150182   18766
     Max        3730    1493    375               593626   150185   18768
     Sum       44749   17905   4485              7123475  1802199  225199
 
     Using Slab Decomposition
 


     bravais-lattice index     =            1
     lattice parameter (alat)  =      28.3459  a.u.
     unit-cell volume          =   22775.6289 (a.u.)^3
     number of atoms/cell      =            1
     number of atomic types    =            1
     number of electrons       =         5.00 (up:   4.00, down:   1.00)
     number of Kohn-Sham states=            4
     kinetic-energy cutoff     =      70.0000  Ry
     charge density cutoff     =     700.0000  Ry
     scf convergence threshold =      1.0E-08
     mixing beta               =       0.7000
     number of iterations used =            8  plain     mixing
     Exchange-correlation= SLA  PW   PBX  PBC
                           (   1   4   3   4   0   0   0)

     celldm(1)=  28.345892  celldm(2)=   0.000000  celldm(3)=   0.000000
     celldm(4)=   0.000000  celldm(5)=   0.000000  celldm(6)=   0.000000

     crystal axes: (cart. coord. in units of alat)
               a(1) = (   1.000000   0.000000   0.000000 )  
               a(2) = (   0.000000   1.000000   0.000000 )  
               a(3) = (   0.000000   0.000000   1.000000 )  

     reciprocal axes: (cart. coord. in units 2 pi/alat)
               b(1) = (  1.000000  0.000000  0.000000 )  
               b(2) = (  0.000000  1.000000  0.000000 )  
               b(3) = (  0.000000  0.000000  1.000000 )  


     PseudoPot. # 1 for N  read from file:
     /data-fast/greenano/Students/cohort2/rojassan/Project_GaN/PSEUDO/N.pbe-n-kjpaw_psl.1.0.0.UPF
     MD5 check sum: 86f48117b7e7b472c01f85d0863ba463
     Pseudo is Projector augmented-wave + core cor, Zval =  5.0
     Generated using 'atomic' code by A. Dal Corso  v.7.3.1
     Shape of augmentation charge: PSQ
     Using radial grid of 1085 points,  4 beta functions with: 
                l(1) =   0
                l(2) =   0
                l(3) =   1
                l(4) =   1
     Q(r) pseudized with 0 coefficients 


     atomic species   valence    mass     pseudopotential
     N                 5.00    14.00700     N ( 1.00)

     Starting magnetic structure 
     atomic species   magnetization
     N               0.000

     48 Sym. Ops., with inversion, found



   Cartesian axes

     site n.     atom                  positions (alat units)
         1        N      tau(   1) = (   0.0000000   0.0000000   0.0000000  )

     number of k points=     1
                       cart. coord. in units 2pi/alat
        k(    1) = (   0.0000000   0.0000000   0.0000000), wk =   1.0000000

     Dense  grid:  7123475 G-vectors     FFT dimensions: ( 240, 240, 240)

     Smooth grid:  1802199 G-vectors     FFT dimensions: ( 160, 160, 160)

     Estimated max dynamical RAM per process >     961.60 MB

     Estimated total dynamical RAM >      11.27 GB
     Generating pointlists ...
     new r_m :   0.4125 (alat units) 11.6927 (a.u.) for type    1

     Initial potential from superposition of free atoms

     starting charge       5.0000, renormalised to       5.0000

     negative rho (up, down):  2.063E-04 2.063E-04
     Starting wfcs are    4 randomized atomic wfcs
     Checking if some PAW data can be deallocated... 

     total cpu time spent up to now is        8.9 secs

     Self-consistent Calculation

     iteration #  1     ecut=    70.00 Ry     beta= 0.70
     Davidson diagonalization with overlap
     ethr =  1.00E-02,  avg # of iterations =  1.0

     negative rho (up, down):  2.555E-04 1.205E-04

     total cpu time spent up to now is       14.9 secs

     total energy              =     -27.80870885 Ry
     estimated scf accuracy    <       0.10771451 Ry

     total magnetization       =     3.00 Bohr mag/cell
     absolute magnetization    =     3.00 Bohr mag/cell

     iteration #  2     ecut=    70.00 Ry     beta= 0.70
     Davidson diagonalization with overlap
     ethr =  2.15E-03,  avg # of iterations =  1.0

     negative rho (up, down):  2.995E-04 1.101E-04

     total cpu time spent up to now is       20.7 secs

     total energy              =     -27.83557549 Ry
     estimated scf accuracy    <       0.01581490 Ry

     total magnetization       =     3.00 Bohr mag/cell
     absolute magnetization    =     3.00 Bohr mag/cell

     iteration #  3     ecut=    70.00 Ry     beta= 0.70
     Davidson diagonalization with overlap
     ethr =  3.16E-04,  avg # of iterations =  1.5

     negative rho (up, down):  3.108E-04 9.541E-05

     total cpu time spent up to now is       26.5 secs

     total energy              =     -27.83651666 Ry
     estimated scf accuracy    <       0.00054329 Ry

     total magnetization       =     3.00 Bohr mag/cell
     absolute magnetization    =     3.00 Bohr mag/cell

     iteration #  4     ecut=    70.00 Ry     beta= 0.70
     Davidson diagonalization with overlap
     ethr =  1.09E-05,  avg # of iterations =  1.5

     negative rho (up, down):  3.228E-04 9.021E-05

     total cpu time spent up to now is       32.3 secs

     total energy              =     -27.83660508 Ry
     estimated scf accuracy    <       0.00000767 Ry

     total magnetization       =     3.00 Bohr mag/cell
     absolute magnetization    =     3.00 Bohr mag/cell

     iteration #  5     ecut=    70.00 Ry     beta= 0.70
     Davidson diagonalization with overlap
     ethr =  1.53E-07,  avg # of iterations =  2.0

     negative rho (up, down):  3.260E-04 8.905E-05

     total cpu time spent up to now is       38.2 secs

     total energy              =     -27.83661040 Ry
     estimated scf accuracy    <       0.00000414 Ry

     total magnetization       =     3.00 Bohr mag/cell
     absolute magnetization    =     3.00 Bohr mag/cell

     iteration #  6     ecut=    70.00 Ry     beta= 0.70
     Davidson diagonalization with overlap
     ethr =  8.29E-08,  avg # of iterations =  2.0

     negative rho (up, down):  3.262E-04 8.868E-05

     total cpu time spent up to now is       44.1 secs

     total energy              =     -27.83661144 Ry
     estimated scf accuracy    <       0.00000078 Ry

     total magnetization       =     3.00 Bohr mag/cell
     absolute magnetization    =     3.00 Bohr mag/cell

     iteration #  7     ecut=    70.00 Ry     beta= 0.70
     Davidson diagonalization with overlap
     ethr =  1.56E-08,  avg # of iterations =  2.0

     negative rho (up, down):  3.264E-04 8.855E-05
 
     Magnetic moment per site  (integrated on atomic sphere of radius R)
     atom   1 (R=0.413)  charge=  5.0000  magn=  3.0000

     total cpu time spent up to now is       49.8 secs

     End of self-consistent calculation

 ------ SPIN UP ------------


          k = 0.0000 0.0000 0.0000 (225199 PWs)   bands (ev):

   -19.8461  -8.2656  -8.2656  -8.2656

 ------ SPIN DOWN ----------


          k = 0.0000 0.0000 0.0000 (225199 PWs)   bands (ev):

   -15.2738  -4.0973  -4.0973  -4.0973

     highest occupied, lowest unoccupied level (ev):    -8.2656   -4.0973

!    total energy              =     -27.83661155 Ry
     total all-electron energy =      -109.135410 Ry
     estimated scf accuracy    <          6.6E-09 Ry

     The total energy is the sum of the following terms:
     one-electron contribution =     -25.97917208 Ry
     hartree contribution      =      14.05146825 Ry
     xc contribution           =      -5.41431394 Ry
     ewald contribution        =      -2.50238861 Ry
     one-center paw contrib.   =      -7.99220519 Ry

     total magnetization       =     3.00 Bohr mag/cell
     absolute magnetization    =     3.00 Bohr mag/cell

     convergence has been achieved in   7 iterations

     Writing all to output data dir ./tmp/N_atom.save/ :
     XML data file, charge density, pseudopotentials, collected wavefunctions
 
     init_run     :      7.98s CPU      8.84s WALL (       1 calls)
     electrons    :     35.77s CPU     42.22s WALL (       1 calls)

     Called by init_run:
     wfcinit      :      0.17s CPU      0.18s WALL (       1 calls)
     potinit      :      2.03s CPU      2.36s WALL (       1 calls)
     hinit0       :      0.57s CPU      0.65s WALL (       1 calls)

     Called by electrons:
     c_bands      :      2.51s CPU      2.56s WALL (       7 calls)
     sum_band     :     12.05s CPU     14.28s WALL (       7 calls)
     v_of_rho     :     13.61s CPU     15.13s WALL (       8 calls)
     newd         :      5.03s CPU      7.13s WALL (       8 calls)
     PAW_pot      :      0.16s CPU      0.21s WALL (       8 calls)
     mix_rho      :      2.61s CPU      2.76s WALL (       7 calls)

     Called by c_bands:
     init_us_2    :      0.09s CPU      0.09s WALL (      30 calls)
     cegterg      :      2.42s CPU      2.47s WALL (      14 calls)

     Called by *egterg:
     cdiaghg      :      0.00s CPU      0.00s WALL (      36 calls)
     h_psi        :      2.41s CPU      2.46s WALL (      38 calls)
     s_psi        :      0.02s CPU      0.02s WALL (      38 calls)
     g_psi        :      0.00s CPU      0.00s WALL (      22 calls)

     Called by h_psi:
     h_psi:calbec :      0.03s CPU      0.03s WALL (      38 calls)
     vloc_psi     :      2.34s CPU      2.38s WALL (      38 calls)
     add_vuspsi   :      0.02s CPU      0.02s WALL (      38 calls)

     General routines
     calbec       :      0.05s CPU      0.05s WALL (      52 calls)
     fft          :     11.62s CPU     11.87s WALL (     194 calls)
     ffts         :      0.38s CPU      0.39s WALL (      30 calls)
     fftw         :      1.76s CPU      1.79s WALL (     340 calls)
     interpolate  :      1.22s CPU      1.27s WALL (      16 calls)
 
     Parallel routines
 
     PWSCF        :     44.34s CPU     52.86s WALL

 
   This run was terminated on:  20: 1:47   6Aug2026            

=------------------------------------------------------------------------------=
   JOB DONE.
=------------------------------------------------------------------------------=
