
     Program PWSCF v.7.3.1 starts on 31Aug2026 at 18:33:17 

     This program is part of the open-source Quantum ESPRESSO suite
     for quantum simulation of materials; please cite
         "P. Giannozzi et al., J. Phys.:Condens. Matter 21 395502 (2009);
         "P. Giannozzi et al., J. Phys.:Condens. Matter 29 465901 (2017);
         "P. Giannozzi et al., J. Chem. Phys. 152 154105 (2020);
          URL http://www.quantum-espresso.org", 
     in publications or presentations arising from this work. More details at
     http://www.quantum-espresso.org/quote

     Parallel version (MPI & OpenMP), running on      16 processor cores
     Number of MPI processes:                16
     Threads/MPI process:                     1

     MPI processes distributed on     1 nodes
     94802 MiB available memory on the printing compute node when the environment starts
 
     Waiting for input...
     Reading input from standard input

     Current dimensions of program PWSCF are:
     Max number of different atomic species (ntypx) = 10
     Max number of k-points (npk) =  40000
     Max angular momentum in pseudopotentials (lmaxx) =  4
     file Ga.pbe-dn-kjpaw_psl.1.0.0.UPF: wavefunction(s)  4S renormalized
     file N.pbe-n-kjpaw_psl.1.0.0.UPF: wavefunction(s)  2S renormalized
     file C.pbe-n-kjpaw_psl.1.0.0.UPF: wavefunction(s)  2S 2P renormalized

     Atomic positions and unit cell read from directory:
     ./tmp/GaN.save/
 
     Message from routine setup:
     using ibrav=0 with symmetry is DISCOURAGED, use correct ibrav instead
 
     R & G space division:  proc/nbgrp/npool/nimage =      16
     Subspace diagonalization in iterative solution of the eigenvalue problem:
     one sub-group per band group will be used
     custom distributed-memory algorithm (size of sub-group:  4*  4 procs)

 
     Parallelization info
     --------------------
     sticks:   dense  smooth     PW     G-vecs:    dense   smooth      PW
     Min         716     286     77               101356    25638    3549
     Max         717     287     78               101361    25643    3554
     Sum       11461    4591   1237              1621723   410263   56817
 
     Using Slab Decomposition
 


     bravais-lattice index     =            0
     lattice parameter (alat)  =      18.2548  a.u.
     unit-cell volume          =    8589.3845 (a.u.)^3
     number of atoms/cell      =          108
     number of atomic types    =            3
     number of electrons       =       971.00
     number of Kohn-Sham states=          560
     kinetic-energy cutoff     =      50.0000  Ry
     charge density cutoff     =     500.0000  Ry
     Exchange-correlation= SLA  PW   PBX  PBC
                           (   1   4   3   4   0   0   0)

     celldm(1)=  18.254754  celldm(2)=   0.000000  celldm(3)=   0.000000
     celldm(4)=   0.000000  celldm(5)=   0.000000  celldm(6)=   0.000000

     crystal axes: (cart. coord. in units of alat)
               a(1) = (   1.000000   0.000000   0.000000 )  
               a(2) = (  -0.500000   0.866025   0.000000 )  
               a(3) = (   0.000000   0.000000   1.630435 )  

     reciprocal axes: (cart. coord. in units 2 pi/alat)
               b(1) = (  1.000000  0.577350  0.000000 )  
               b(2) = (  0.000000  1.154701  0.000000 )  
               b(3) = (  0.000000  0.000000  0.613333 )  


     PseudoPot. # 1 for Ga read from file:
     /data-fast/greenano/Students/cohort2/rojassan/Project_GaN/PSEUDO/Ga.pbe-dn-kjpaw_psl.1.0.0.UPF
     MD5 check sum: 93aceff68ec27daa0acc11ebb2e245f0
     Pseudo is Projector augmented-wave + core cor, Zval = 13.0
     Generated using 'atomic' code by A. Dal Corso  v.7.3.1
     Shape of augmentation charge: PSQ
     Using radial grid of 1205 points,  6 beta functions with: 
                l(1) =   0
                l(2) =   0
                l(3) =   1
                l(4) =   1
                l(5) =   2
                l(6) =   2
     Q(r) pseudized with 0 coefficients 


     PseudoPot. # 2 for N  read from file:
     /data-fast/greenano/Students/cohort2/rojassan/Project_GaN/PSEUDO/N.pbe-n-kjpaw_psl.1.0.0.UPF
     MD5 check sum: 86f48117b7e7b472c01f85d0863ba463
     Pseudo is Projector augmented-wave + core cor, Zval =  5.0
     Generated using 'atomic' code by A. Dal Corso  v.7.3.1
     Shape of augmentation charge: PSQ
     Using radial grid of 1085 points,  4 beta functions with: 
                l(1) =   0
                l(2) =   0
                l(3) =   1
                l(4) =   1
     Q(r) pseudized with 0 coefficients 


     PseudoPot. # 3 for C  read from file:
     /data-fast/greenano/Students/cohort2/rojassan/Project_GaN/PSEUDO/C.pbe-n-kjpaw_psl.1.0.0.UPF
     MD5 check sum: 6e4988b7a1fe6f06f65aa0569fb69d66
     Pseudo is Projector augmented-wave + core cor, Zval =  4.0
     Generated using 'atomic' code by A. Dal Corso  v.7.3.1
     Shape of augmentation charge: PSQ
     Using radial grid of 1073 points,  4 beta functions with: 
                l(1) =   0
                l(2) =   0
                l(3) =   1
                l(4) =   1
     Q(r) pseudized with 0 coefficients 


     atomic species   valence    mass     pseudopotential
     Ga               13.00    69.72300     Ga( 1.00)
     N                 5.00    14.00700     N ( 1.00)
     C                 4.00    12.01100     C ( 1.00)

     Starting magnetic structure 
     atomic species   magnetization
     Ga              0.000
     N               0.000
     C               0.500

      6 Sym. Ops. (no inversion) found ( 4 have fractional translation)


                                    s                        frac. trans.

      isym =  1     identity                                     

 cryst.   s( 1) = (     1          0          0      )
                  (     0          1          0      )
                  (     0          0          1      )

 cart.    s( 1) = (  1.0000000  0.0000000  0.0000000 )
                  (  0.0000000  1.0000000  0.0000000 )
                  (  0.0000000  0.0000000  1.0000000 )


      isym =  2     120 deg rotation - cryst. axis [0,0,1]       

 cryst.   s( 2) = (     0          1          0      )    f =( -0.3333333 )
                  (    -1         -1          0      )       ( -0.3333333 )
                  (     0          0          1      )       (  0.0000000 )

 cart.    s( 2) = ( -0.5000000 -0.8660254  0.0000000 )    f =( -0.1666667 )
                  (  0.8660254 -0.5000000  0.0000000 )       ( -0.2886751 )
                  (  0.0000000  0.0000000  1.0000000 )       (  0.0000000 )


      isym =  3     120 deg rotation - cryst. axis [0,0,-1]      

 cryst.   s( 3) = (    -1         -1          0      )    f =( -0.0000000 )
                  (     1          0          0      )       ( -0.3333333 )
                  (     0          0          1      )       (  0.0000000 )

 cart.    s( 3) = ( -0.5000000  0.8660254  0.0000000 )    f =(  0.1666667 )
                  ( -0.8660254 -0.5000000  0.0000000 )       ( -0.2886751 )
                  (  0.0000000  0.0000000  1.0000000 )       (  0.0000000 )


      isym =  4     inv. 180 deg rotation - cart. axis [1,0,0]   

 cryst.   s( 4) = (    -1          0          0      )
                  (     1          1          0      )
                  (     0          0          1      )

 cart.    s( 4) = ( -1.0000000 -0.0000000  0.0000000 )
                  (  0.0000000  1.0000000  0.0000000 )
                  (  0.0000000  0.0000000  1.0000000 )


      isym =  5     inv. 180 deg rotation - cryst. axis [0,1,0]  

 cryst.   s( 5) = (     1          1          0      )    f =(  0.0000000 )
                  (     0         -1          0      )       ( -0.3333333 )
                  (     0          0          1      )       (  0.0000000 )

 cart.    s( 5) = (  0.5000000  0.8660254  0.0000000 )    f =(  0.1666667 )
                  (  0.8660254 -0.5000000  0.0000000 )       ( -0.2886751 )
                  (  0.0000000  0.0000000  1.0000000 )       (  0.0000000 )


      isym =  6     inv. 180 deg rotation - cryst. axis [1,1,0]  

 cryst.   s( 6) = (     0         -1          0      )    f =( -0.3333333 )
                  (    -1          0          0      )       ( -0.3333333 )
                  (     0          0          1      )       (  0.0000000 )

 cart.    s( 6) = (  0.5000000 -0.8660254  0.0000000 )    f =( -0.1666667 )
                  ( -0.8660254 -0.5000000  0.0000000 )       ( -0.2886751 )
                  (  0.0000000  0.0000000  1.0000000 )       (  0.0000000 )


   Cartesian axes

     site n.     atom                  positions (alat units)
         1        Ga     tau(   1) = (   0.0000000   0.1924501   0.0003549  )
         2        Ga     tau(   2) = (   0.1661482   0.0965244   0.2732575  )
         3        C      tau(   3) = (   0.0000000   0.1924501   0.2031358  )
         4        N      tau(   4) = (   0.1680951   0.0954003   0.4784907  )
         5        Ga     tau(   5) = (   0.3326899   0.1920641  -0.0002994  )
         6        Ga     tau(   6) = (   0.5000000   0.0957982   0.2723776  )
         7        N      tau(   7) = (   0.3345705   0.1922062   0.2045797  )
         8        N      tau(   8) = (   0.5000000   0.0960677   0.4766541  )
         9        Ga     tau(   9) = (   0.6673101   0.1920641  -0.0002994  )
        10        Ga     tau(  10) = (   0.8338518   0.0965244   0.2732575  )
        11        N      tau(  11) = (   0.6654295   0.1922062   0.2045797  )
        12        N      tau(  12) = (   0.8319049   0.0954003   0.4784907  )
        13        Ga     tau(  13) = (  -0.1660106   0.4807610  -0.0002994  )
        14        Ga     tau(  14) = (   0.0000000   0.3843015   0.2732575  )
        15        N      tau(  15) = (  -0.1670740   0.4823186   0.2045797  )
        16        N      tau(  16) = (   0.0000000   0.3865496   0.4784907  )
        17        Ga     tau(  17) = (   0.1660106   0.4807610  -0.0002994  )
        18        Ga     tau(  18) = (   0.3330570   0.3847406   0.2715865  )
        19        N      tau(  19) = (   0.1670740   0.4823186   0.2045797  )
        20        N      tau(  20) = (   0.3333101   0.3848868   0.4763450  )
        21        Ga     tau(  21) = (   0.5000000   0.4811252  -0.0001301  )
        22        Ga     tau(  22) = (   0.6669430   0.3847406   0.2715865  )
        23        N      tau(  23) = (   0.5000000   0.4811252   0.2047050  )
        24        N      tau(  24) = (   0.6666899   0.3848868   0.4763450  )
        25        Ga     tau(  25) = (  -0.3333207   0.7705506  -0.0002994  )
        26        Ga     tau(  26) = (  -0.1662970   0.6737887   0.2723776  )
        27        N      tau(  27) = (  -0.3325035   0.7688509   0.2045797  )
        28        N      tau(  28) = (  -0.1665304   0.6736540   0.4766541  )
        29        Ga     tau(  29) = (   0.0000000   0.7698004  -0.0004604  )
        30        Ga     tau(  30) = (   0.1662970   0.6737887   0.2723776  )
        31        N      tau(  31) = (   0.0000000   0.7698004   0.2045369  )
        32        N      tau(  32) = (   0.1665304   0.6736540   0.4766541  )
        33        Ga     tau(  33) = (   0.3333207   0.7705506  -0.0002994  )
        34        Ga     tau(  34) = (   0.5000000   0.6738944   0.2715865  )
        35        N      tau(  35) = (   0.3325035   0.7688509   0.2045797  )
        36        N      tau(  36) = (   0.5000000   0.6736021   0.4763450  )
        37        Ga     tau(  37) = (   0.0000000   0.1924501   0.5425477  )
        38        Ga     tau(  38) = (   0.1665592   0.0962871   0.8150156  )
        39        N      tau(  39) = (   0.0000000   0.1924501   0.7477091  )
        40        N      tau(  40) = (   0.1667221   0.0961930   1.0195955  )
        41        Ga     tau(  41) = (   0.3336022   0.1926229   0.5443436  )
        42        Ga     tau(  42) = (   0.5000000   0.0961696   0.8155841  )
        43        N      tau(  43) = (   0.3335668   0.1926295   0.7486494  )
        44        N      tau(  44) = (   0.5000000   0.0960949   1.0198136  )
        45        Ga     tau(  45) = (   0.6663978   0.1926229   0.5443436  )
        46        Ga     tau(  46) = (   0.8334408   0.0962871   0.8150156  )
        47        N      tau(  47) = (   0.6664332   0.1926295   0.7486494  )
        48        N      tau(  48) = (   0.8332779   0.0961930   1.0195955  )
        49        Ga     tau(  49) = (  -0.1669508   0.4812716   0.5443436  )
        50        Ga     tau(  50) = (   0.0000000   0.3847761   0.8150156  )
        51        N      tau(  51) = (  -0.1669388   0.4812377   0.7486494  )
        52        N      tau(  52) = (   0.0000000   0.3849642   1.0195955  )
        53        Ga     tau(  53) = (   0.1669508   0.4812716   0.5443436  )
        54        Ga     tau(  54) = (   0.3335213   0.3850087   0.8155399  )
        55        N      tau(  55) = (   0.1669388   0.4812377   0.7486494  )
        56        N      tau(  56) = (   0.3334688   0.3849784   1.0198140  )
        57        Ga     tau(  57) = (   0.5000000   0.4811252   0.5433883  )
        58        Ga     tau(  58) = (   0.6664787   0.3850087   0.8155399  )
        59        N      tau(  59) = (   0.5000000   0.4811252   0.7479297  )
        60        N      tau(  60) = (   0.6665312   0.3849784   1.0198140  )
        61        Ga     tau(  61) = (  -0.3333486   0.7694811   0.5443436  )
        62        Ga     tau(  62) = (  -0.1666187   0.6736030   0.8155841  )
        63        N      tau(  63) = (  -0.3333720   0.7695085   0.7486494  )
        64        N      tau(  64) = (  -0.1665540   0.6736404   1.0198136  )
        65        Ga     tau(  65) = (   0.0000000   0.7698004   0.5440636  )
        66        Ga     tau(  66) = (   0.1666187   0.6736030   0.8155841  )
        67        N      tau(  67) = (   0.0000000   0.7698004   0.7482669  )
        68        N      tau(  68) = (   0.1665540   0.6736404   1.0198136  )
        69        Ga     tau(  69) = (   0.3333486   0.7694811   0.5443436  )
        70        Ga     tau(  70) = (   0.5000000   0.6733583   0.8155399  )
        71        N      tau(  71) = (   0.3333720   0.7695085   0.7486494  )
        72        N      tau(  72) = (   0.5000000   0.6734188   1.0198140  )
        73        Ga     tau(  73) = (   0.0000000   0.1924501   1.0865371  )
        74        Ga     tau(  74) = (   0.1669405   0.0960669   1.3572932  )
        75        N      tau(  75) = (   0.0000000   0.1924501   1.2906377  )
        76        N      tau(  76) = (   0.1676829   0.0956383   1.5603054  )
        77        Ga     tau(  77) = (   0.3334228   0.1925216   1.0866333  )
        78        Ga     tau(  78) = (   0.5000000   0.0962876   1.3584858  )
        79        N      tau(  79) = (   0.3336767   0.1926606   1.2909162  )
        80        N      tau(  80) = (   0.5000000   0.0962314   1.5631806  )
        81        Ga     tau(  81) = (   0.6665772   0.1925216   1.0866333  )
        82        Ga     tau(  82) = (   0.8330595   0.0960669   1.3572932  )
        83        N      tau(  83) = (   0.6663233   0.1926606   1.2909162  )
        84        N      tau(  84) = (   0.8323171   0.0956383   1.5603054  )
        85        Ga     tau(  85) = (  -0.1667733   0.4811670   1.0866333  )
        86        Ga     tau(  86) = (   0.0000000   0.3852164   1.3572932  )
        87        N      tau(  87) = (  -0.1670207   0.4813173   1.2909162  )
        88        N      tau(  88) = (   0.0000000   0.3860737   1.5603054  )
        89        Ga     tau(  89) = (   0.1667733   0.4811670   1.0866333  )
        90        Ga     tau(  90) = (   0.3332762   0.3848672   1.3585772  )
        91        N      tau(  91) = (   0.1670207   0.4813173   1.2909162  )
        92        N      tau(  92) = (   0.3332344   0.3848431   1.5633989  )
        93        Ga     tau(  93) = (   0.5000000   0.4811252   1.0871564  )
        94        Ga     tau(  94) = (   0.6667238   0.3848672   1.3585772  )
        95        N      tau(  95) = (   0.5000000   0.4811252   1.2917352  )
        96        N      tau(  96) = (   0.6667656   0.3848431   1.5633989  )
        97        Ga     tau(  97) = (  -0.3333505   0.7696871   1.0866333  )
        98        Ga     tau(  98) = (  -0.1667209   0.6735440   1.3584858  )
        99        N      tau(  99) = (  -0.3333440   0.7693977   1.2909162  )
       100        N      tau( 100) = (  -0.1666722   0.6735721   1.5631806  )
       101        Ga     tau( 101) = (   0.0000000   0.7698004   1.0870172  )
       102        Ga     tau( 102) = (   0.1667209   0.6735440   1.3584858  )
       103        N      tau( 103) = (   0.0000000   0.7698004   1.2915456  )
       104        N      tau( 104) = (   0.1666722   0.6735721   1.5631806  )
       105        Ga     tau( 105) = (   0.3333505   0.7696871   1.0866333  )
       106        Ga     tau( 106) = (   0.5000000   0.6736413   1.3585772  )
       107        N      tau( 107) = (   0.3333440   0.7693977   1.2909162  )
       108        N      tau( 108) = (   0.5000000   0.6736896   1.5633989  )

   Crystallographic axes

     site n.     atom                  positions (cryst. coord.)
         1        Ga     tau(   1) = (  0.1111111  0.2222222  0.0002177  )
         2        Ga     tau(   2) = (  0.2218766  0.1114567  0.1675980  )
         3        C      tau(   3) = (  0.1111111  0.2222222  0.1245899  )
         4        N      tau(   4) = (  0.2231745  0.1101588  0.2934743  )
         5        Ga     tau(   5) = (  0.4435781  0.2217765 -0.0001836  )
         6        Ga     tau(   6) = (  0.5553091  0.1106182  0.1670582  )
         7        N      tau(   7) = (  0.4455408  0.2219406  0.1254755  )
         8        N      tau(   8) = (  0.5554647  0.1109294  0.2923478  )
         9        Ga     tau(   9) = (  0.7781983  0.2217765 -0.0001836  )
        10        Ga     tau(  10) = (  0.8895801  0.1114567  0.1675980  )
        11        N      tau(  11) = (  0.7763998  0.2219406  0.1254755  )
        12        N      tau(  12) = (  0.8869843  0.1101588  0.2934743  )
        13        Ga     tau(  13) = (  0.1115569  0.5551350 -0.0001836  )
        14        Ga     tau(  14) = (  0.2218766  0.4437532  0.1675980  )
        15        N      tau(  15) = (  0.1113928  0.5569335  0.1254755  )
        16        N      tau(  16) = (  0.2231745  0.4463490  0.2934743  )
        17        Ga     tau(  17) = (  0.4435781  0.5551350 -0.0001836  )
        18        Ga     tau(  18) = (  0.5551871  0.4442602  0.1665730  )
        19        N      tau(  19) = (  0.4455408  0.5569335  0.1254755  )
        20        N      tau(  20) = (  0.5555246  0.4444290  0.2921583  )
        21        Ga     tau(  21) = (  0.7777778  0.5555556 -0.0000798  )
        22        Ga     tau(  22) = (  0.8890731  0.4442602  0.1665730  )
        23        N      tau(  23) = (  0.7777778  0.5555556  0.1255524  )
        24        N      tau(  24) = (  0.8889043  0.4444290  0.2921583  )
        25        Ga     tau(  25) = (  0.1115569  0.8897552 -0.0001836  )
        26        Ga     tau(  26) = (  0.2227151  0.7780242  0.1670582  )
        27        N      tau(  27) = (  0.1113928  0.8877926  0.1254755  )
        28        N      tau(  28) = (  0.2224039  0.7778686  0.2923478  )
        29        Ga     tau(  29) = (  0.4444444  0.8888889 -0.0002824  )
        30        Ga     tau(  30) = (  0.5553091  0.7780242  0.1670582  )
        31        N      tau(  31) = (  0.4444444  0.8888889  0.1254493  )
        32        N      tau(  32) = (  0.5554647  0.7778686  0.2923478  )
        33        Ga     tau(  33) = (  0.7781983  0.8897552 -0.0001836  )
        34        Ga     tau(  34) = (  0.8890731  0.7781463  0.1665730  )
        35        N      tau(  35) = (  0.7763998  0.8877926  0.1254755  )
        36        N      tau(  36) = (  0.8889043  0.7778087  0.2921583  )
        37        Ga     tau(  37) = (  0.1111111  0.2222222  0.3327626  )
        38        Ga     tau(  38) = (  0.2221506  0.1111827  0.4998763  )
        39        N      tau(  39) = (  0.1111111  0.2222222  0.4585949  )
        40        N      tau(  40) = (  0.2222592  0.1110741  0.6253519  )
        41        Ga     tau(  41) = (  0.4448131  0.2224218  0.3338641  )
        42        Ga     tau(  42) = (  0.5555236  0.1110471  0.5002249  )
        43        N      tau(  43) = (  0.4447815  0.2224294  0.4591716  )
        44        N      tau(  44) = (  0.5554804  0.1109608  0.6254857  )
        45        Ga     tau(  45) = (  0.7776087  0.2224218  0.3338641  )
        46        Ga     tau(  46) = (  0.8890322  0.1111827  0.4998763  )
        47        N      tau(  47) = (  0.7776479  0.2224294  0.4591716  )
        48        N      tau(  48) = (  0.8888149  0.1110741  0.6253519  )
        49        Ga     tau(  49) = (  0.1109115  0.5557246  0.3338641  )
        50        Ga     tau(  50) = (  0.2221506  0.4443012  0.4998763  )
        51        N      tau(  51) = (  0.1109039  0.5556854  0.4591716  )
        52        N      tau(  52) = (  0.2222592  0.4445184  0.6253519  )
        53        Ga     tau(  53) = (  0.4448131  0.5557246  0.3338641  )
        54        Ga     tau(  54) = (  0.5558062  0.4445697  0.5001978  )
        55        N      tau(  55) = (  0.4447815  0.5556854  0.4591716  )
        56        N      tau(  56) = (  0.5557362  0.4445348  0.6254859  )
        57        Ga     tau(  57) = (  0.7777778  0.5555556  0.3332782  )
        58        Ga     tau(  58) = (  0.8887636  0.4445697  0.5001978  )
        59        N      tau(  59) = (  0.7777778  0.5555556  0.4587302  )
        60        N      tau(  60) = (  0.8887986  0.4445348  0.6254859  )
        61        Ga     tau(  61) = (  0.1109115  0.8885202  0.3338641  )
        62        Ga     tau(  62) = (  0.2222862  0.7778098  0.5002249  )
        63        N      tau(  63) = (  0.1109039  0.8885519  0.4591716  )
        64        N      tau(  64) = (  0.2223725  0.7778529  0.6254857  )
        65        Ga     tau(  65) = (  0.4444444  0.8888889  0.3336924  )
        66        Ga     tau(  66) = (  0.5555236  0.7778098  0.5002249  )
        67        N      tau(  67) = (  0.4444444  0.8888889  0.4589370  )
        68        N      tau(  68) = (  0.5554804  0.7778529  0.6254857  )
        69        Ga     tau(  69) = (  0.7776087  0.8885202  0.3338641  )
        70        Ga     tau(  70) = (  0.8887636  0.7775272  0.5001978  )
        71        N      tau(  71) = (  0.7776479  0.8885519  0.4591716  )
        72        N      tau(  72) = (  0.8887986  0.7775971  0.6254859  )
        73        Ga     tau(  73) = (  0.1111111  0.2222222  0.6664094  )
        74        Ga     tau(  74) = (  0.2224048  0.1109285  0.8324732  )
        75        N      tau(  75) = (  0.1111111  0.2222222  0.7915911  )
        76        N      tau(  76) = (  0.2228997  0.1104336  0.9569873  )
        77        Ga     tau(  77) = (  0.4445752  0.2223048  0.6664684  )
        78        Ga     tau(  78) = (  0.5555917  0.1111834  0.8332046  )
        79        N      tau(  79) = (  0.4449094  0.2224653  0.7917619  )
        80        N      tau(  80) = (  0.5555592  0.1111185  0.9587508  )
        81        Ga     tau(  81) = (  0.7777296  0.2223048  0.6664684  )
        82        Ga     tau(  82) = (  0.8885237  0.1109285  0.8324732  )
        83        N      tau(  83) = (  0.7775559  0.2224653  0.7917619  )
        84        N      tau(  84) = (  0.8875339  0.1104336  0.9569873  )
        85        Ga     tau(  85) = (  0.1110286  0.5556038  0.6664684  )
        86        Ga     tau(  86) = (  0.2224048  0.4448096  0.8324732  )
        87        N      tau(  87) = (  0.1108680  0.5557774  0.7917619  )
        88        N      tau(  88) = (  0.2228997  0.4457995  0.9569873  )
        89        Ga     tau(  89) = (  0.4445752  0.5556038  0.6664684  )
        90        Ga     tau(  90) = (  0.5554794  0.4444064  0.8332607  )
        91        N      tau(  91) = (  0.4449094  0.5557774  0.7917619  )
        92        N      tau(  92) = (  0.5554236  0.4443785  0.9588846  )
        93        Ga     tau(  93) = (  0.7777778  0.5555556  0.6667893  )
        94        Ga     tau(  94) = (  0.8889270  0.4444064  0.8332607  )
        95        N      tau(  95) = (  0.7777778  0.5555556  0.7922643  )
        96        N      tau(  96) = (  0.8889549  0.4443785  0.9588846  )
        97        Ga     tau(  97) = (  0.1110286  0.8887581  0.6664684  )
        98        Ga     tau(  98) = (  0.2221500  0.7777417  0.8332046  )
        99        N      tau(  99) = (  0.1108680  0.8884239  0.7917619  )
       100        N      tau( 100) = (  0.2222149  0.7777741  0.9587508  )
       101        Ga     tau( 101) = (  0.4444444  0.8888889  0.6667039  )
       102        Ga     tau( 102) = (  0.5555917  0.7777417  0.8332046  )
       103        N      tau( 103) = (  0.4444444  0.8888889  0.7921480  )
       104        N      tau( 104) = (  0.5555592  0.7777741  0.9587508  )
       105        Ga     tau( 105) = (  0.7777296  0.8887581  0.6664684  )
       106        Ga     tau( 106) = (  0.8889270  0.7778539  0.8332607  )
       107        N      tau( 107) = (  0.7775559  0.8884239  0.7917619  )
       108        N      tau( 108) = (  0.8889549  0.7779097  0.9588846  )

     number of k points=    35 (tetrahedron method)
                       cart. coord. in units 2pi/alat
        k(    1) = (   0.0000000   0.0000000   0.0000000), wk =   0.0039062
        k(    2) = (   0.0000000   0.0000000   0.1533333), wk =   0.0078125
        k(    3) = (   0.0000000   0.0000000  -0.3066667), wk =   0.0039062
        k(    4) = (   0.0000000   0.1443376   0.0000000), wk =   0.0234375
        k(    5) = (   0.0000000   0.1443376   0.1533333), wk =   0.0234375
        k(    6) = (   0.0000000   0.1443376  -0.3066667), wk =   0.0234375
        k(    7) = (   0.0000000   0.2886751   0.0000000), wk =   0.0234375
        k(    8) = (   0.0000000   0.2886751   0.1533333), wk =   0.0234375
        k(    9) = (   0.0000000   0.2886751  -0.3066667), wk =   0.0234375
        k(   10) = (   0.0000000   0.4330127   0.0000000), wk =   0.0234375
        k(   11) = (   0.0000000   0.4330127   0.1533333), wk =   0.0234375
        k(   12) = (   0.0000000   0.4330127  -0.3066667), wk =   0.0234375
        k(   13) = (   0.0000000  -0.5773503   0.0000000), wk =   0.0117188
        k(   14) = (   0.0000000  -0.5773503   0.1533333), wk =   0.0234375
        k(   15) = (   0.0000000  -0.5773503  -0.3066667), wk =   0.0117188
        k(   16) = (   0.1250000   0.2165064   0.0000000), wk =   0.0234375
        k(   17) = (   0.1250000   0.2165064   0.1533333), wk =   0.0468750
        k(   18) = (   0.1250000   0.2165064  -0.3066667), wk =   0.0234375
        k(   19) = (   0.1250000   0.3608439   0.0000000), wk =   0.0468750
        k(   20) = (   0.1250000   0.3608439   0.1533333), wk =   0.0468750
        k(   21) = (   0.1250000   0.3608439  -0.3066667), wk =   0.0468750
        k(   22) = (   0.1250000   0.5051815   0.0000000), wk =   0.0468750
        k(   23) = (   0.1250000   0.5051815   0.1533333), wk =   0.0468750
        k(   24) = (   0.1250000   0.5051815  -0.3066667), wk =   0.0468750
        k(   25) = (   0.2500000   0.4330127   0.0000000), wk =   0.0234375
        k(   26) = (   0.2500000   0.4330127   0.1533333), wk =   0.0468750
        k(   27) = (   0.2500000   0.4330127  -0.3066667), wk =   0.0234375
        k(   28) = (   0.2500000   0.5773503   0.0000000), wk =   0.0234375
        k(   29) = (   0.2500000   0.5773503   0.1533333), wk =   0.0468750
        k(   30) = (   0.2500000   0.5773503  -0.3066667), wk =   0.0234375
        k(   31) = (   0.0000000  -0.1443376   0.1533333), wk =   0.0234375
        k(   32) = (   0.0000000  -0.2886751   0.1533333), wk =   0.0234375
        k(   33) = (   0.0000000  -0.4330127   0.1533333), wk =   0.0234375
        k(   34) = (  -0.1250000  -0.3608439   0.1533333), wk =   0.0468750
        k(   35) = (  -0.1250000  -0.5051815   0.1533333), wk =   0.0468750

                       cryst. coord.
        k(    1) = (   0.0000000   0.0000000   0.0000000), wk =   0.0039062
        k(    2) = (   0.0000000   0.0000000   0.2500000), wk =   0.0078125
        k(    3) = (   0.0000000   0.0000000  -0.5000000), wk =   0.0039062
        k(    4) = (   0.0000000   0.1250000   0.0000000), wk =   0.0234375
        k(    5) = (   0.0000000   0.1250000   0.2500000), wk =   0.0234375
        k(    6) = (   0.0000000   0.1250000  -0.5000000), wk =   0.0234375
        k(    7) = (   0.0000000   0.2500000   0.0000000), wk =   0.0234375
        k(    8) = (   0.0000000   0.2500000   0.2500000), wk =   0.0234375
        k(    9) = (   0.0000000   0.2500000  -0.5000000), wk =   0.0234375
        k(   10) = (   0.0000000   0.3750000   0.0000000), wk =   0.0234375
        k(   11) = (   0.0000000   0.3750000   0.2500000), wk =   0.0234375
        k(   12) = (   0.0000000   0.3750000  -0.5000000), wk =   0.0234375
        k(   13) = (   0.0000000  -0.5000000   0.0000000), wk =   0.0117188
        k(   14) = (   0.0000000  -0.5000000   0.2500000), wk =   0.0234375
        k(   15) = (   0.0000000  -0.5000000  -0.5000000), wk =   0.0117188
        k(   16) = (   0.1250000   0.1250000   0.0000000), wk =   0.0234375
        k(   17) = (   0.1250000   0.1250000   0.2500000), wk =   0.0468750
        k(   18) = (   0.1250000   0.1250000  -0.5000000), wk =   0.0234375
        k(   19) = (   0.1250000   0.2500000   0.0000000), wk =   0.0468750
        k(   20) = (   0.1250000   0.2500000   0.2500000), wk =   0.0468750
        k(   21) = (   0.1250000   0.2500000  -0.5000000), wk =   0.0468750
        k(   22) = (   0.1250000   0.3750000   0.0000000), wk =   0.0468750
        k(   23) = (   0.1250000   0.3750000   0.2500000), wk =   0.0468750
        k(   24) = (   0.1250000   0.3750000  -0.5000000), wk =   0.0468750
        k(   25) = (   0.2500000   0.2500000   0.0000000), wk =   0.0234375
        k(   26) = (   0.2500000   0.2500000   0.2500000), wk =   0.0468750
        k(   27) = (   0.2500000   0.2500000  -0.5000000), wk =   0.0234375
        k(   28) = (   0.2500000   0.3750000   0.0000000), wk =   0.0234375
        k(   29) = (   0.2500000   0.3750000   0.2500000), wk =   0.0468750
        k(   30) = (   0.2500000   0.3750000  -0.5000000), wk =   0.0234375
        k(   31) = (   0.0000000  -0.1250000   0.2500000), wk =   0.0234375
        k(   32) = (   0.0000000  -0.2500000   0.2500000), wk =   0.0234375
        k(   33) = (   0.0000000  -0.3750000   0.2500000), wk =   0.0234375
        k(   34) = (  -0.1250000  -0.2500000   0.2500000), wk =   0.0468750
        k(   35) = (  -0.1250000  -0.3750000   0.2500000), wk =   0.0468750

     Dense  grid:  1621723 G-vectors     FFT dimensions: ( 135, 135, 216)

     Smooth grid:   410263 G-vectors     FFT dimensions: (  90,  90, 135)

     Dynamical RAM for                 wfc:      27.39 MB

     Dynamical RAM for     wfc (w. buffer):      27.39 MB

     Dynamical RAM for           str. fact:       4.64 MB

     Dynamical RAM for           local pot:       0.00 MB

     Dynamical RAM for          nlocal pot:      68.66 MB

     Dynamical RAM for                qrad:       5.38 MB

     Dynamical RAM for          rho,v,vnew:      20.96 MB

     Dynamical RAM for           G-vectors:       6.00 MB

     Dynamical RAM for          h,s,v(r/c):      14.36 MB

     Dynamical RAM for          <psi|beta>:      12.00 MB

     Dynamical RAM for                 psi:     109.55 MB

     Dynamical RAM for                hpsi:     109.55 MB

     Dynamical RAM for                spsi:     109.55 MB

     Dynamical RAM for      wfcinit/wfcrot:      79.95 MB

     Dynamical RAM for           addusdens:     372.74 MB

     Estimated static dynamical RAM per process >     150.89 MB

     Estimated max dynamical RAM per process >     523.63 MB

     Estimated total dynamical RAM >       8.18 GB
     Generating pointlists ...
     new r_m :   0.0836 (alat units)  1.5270 (a.u.) for type    1
     new r_m :   0.0837 (alat units)  1.5281 (a.u.) for type    2
     new r_m :   0.0836 (alat units)  1.5270 (a.u.) for type    3

     The potential is recalculated from file :
     ./tmp/GaN.save/charge-density

     Starting wfcs are  702 randomized atomic wfcs
     Checking if some PAW data can be deallocated... 
       PAW data deallocated on   15 nodes for type:  3

     Band Structure Calculation
     Davidson diagonalization with overlap

     Computing kpt #:     1  of    70
     total cpu time spent up to now is      235.8 secs

     Computing kpt #:     2  of    70
     total cpu time spent up to now is      533.8 secs

     Computing kpt #:     3  of    70
     total cpu time spent up to now is      808.0 secs

     Computing kpt #:     4  of    70
     total cpu time spent up to now is     1127.9 secs

     Computing kpt #:     5  of    70
     c_bands:  1 eigenvalues not converged
     total cpu time spent up to now is     1465.0 secs

     Computing kpt #:     6  of    70
     c_bands:  2 eigenvalues not converged
     total cpu time spent up to now is     1804.2 secs

     Computing kpt #:     7  of    70
     c_bands:  2 eigenvalues not converged
     total cpu time spent up to now is     2142.4 secs

     Computing kpt #:     8  of    70
     c_bands:  2 eigenvalues not converged
     total cpu time spent up to now is     2487.2 secs

     Computing kpt #:     9  of    70
     c_bands:  4 eigenvalues not converged
     total cpu time spent up to now is     2830.4 secs

     Computing kpt #:    10  of    70
     c_bands:  2 eigenvalues not converged
     total cpu time spent up to now is     3168.7 secs

     Computing kpt #:    11  of    70
     total cpu time spent up to now is     3469.2 secs

     Computing kpt #:    12  of    70
     c_bands:  2 eigenvalues not converged
     total cpu time spent up to now is     3805.3 secs

     Computing kpt #:    13  of    70
     c_bands:  3 eigenvalues not converged
     total cpu time spent up to now is     4148.7 secs

     Computing kpt #:    14  of    70
     c_bands:  2 eigenvalues not converged
     total cpu time spent up to now is     4489.4 secs

     Computing kpt #:    15  of    70
     c_bands:  2 eigenvalues not converged
     total cpu time spent up to now is     4824.4 secs

     Computing kpt #:    16  of    70
     total cpu time spent up to now is     5136.2 secs

     Computing kpt #:    17  of    70
     c_bands:  2 eigenvalues not converged
     total cpu time spent up to now is     5474.1 secs

     Computing kpt #:    18  of    70
     c_bands:  3 eigenvalues not converged
     total cpu time spent up to now is     5815.4 secs

     Computing kpt #:    19  of    70
     c_bands:  1 eigenvalues not converged
     total cpu time spent up to now is     6157.2 secs

     Computing kpt #:    20  of    70
     total cpu time spent up to now is     6484.1 secs

     Computing kpt #:    21  of    70
     c_bands:  2 eigenvalues not converged
     total cpu time spent up to now is     6819.3 secs

     Computing kpt #:    22  of    70
     c_bands:  2 eigenvalues not converged
     total cpu time spent up to now is     7159.7 secs

     Computing kpt #:    23  of    70
     c_bands:  2 eigenvalues not converged
     total cpu time spent up to now is     7505.7 secs

     Computing kpt #:    24  of    70
     c_bands:  2 eigenvalues not converged
     total cpu time spent up to now is     7844.5 secs

     Computing kpt #:    25  of    70
     c_bands:  3 eigenvalues not converged
     total cpu time spent up to now is     8179.4 secs

     Computing kpt #:    26  of    70
     c_bands:  2 eigenvalues not converged
     total cpu time spent up to now is     8522.1 secs

     Computing kpt #:    27  of    70
     c_bands:  2 eigenvalues not converged
     total cpu time spent up to now is     8859.9 secs

     Computing kpt #:    28  of    70
     c_bands:  2 eigenvalues not converged
     total cpu time spent up to now is     9205.4 secs

     Computing kpt #:    29  of    70
     c_bands:  3 eigenvalues not converged
     total cpu time spent up to now is     9553.3 secs

     Computing kpt #:    30  of    70
     c_bands:  1 eigenvalues not converged
     total cpu time spent up to now is     9893.5 secs

     Computing kpt #:    31  of    70
     c_bands:  1 eigenvalues not converged
     total cpu time spent up to now is    10231.9 secs

     Computing kpt #:    32  of    70
     c_bands:  2 eigenvalues not converged
     total cpu time spent up to now is    10574.0 secs

     Computing kpt #:    33  of    70
     c_bands:  1 eigenvalues not converged
     total cpu time spent up to now is    10911.7 secs

     Computing kpt #:    34  of    70
     total cpu time spent up to now is    11220.8 secs

     Computing kpt #:    35  of    70
     c_bands:  2 eigenvalues not converged
     total cpu time spent up to now is    11561.0 secs

     Computing kpt #:    36  of    70
     total cpu time spent up to now is    11794.4 secs

     Computing kpt #:    37  of    70
     total cpu time spent up to now is    12097.3 secs

     Computing kpt #:    38  of    70
     total cpu time spent up to now is    12374.4 secs

     Computing kpt #:    39  of    70
     total cpu time spent up to now is    12654.7 secs

     Computing kpt #:    40  of    70
     c_bands:  1 eigenvalues not converged
     total cpu time spent up to now is    12989.4 secs

     Computing kpt #:    41  of    70
     c_bands:  2 eigenvalues not converged
     total cpu time spent up to now is    13329.4 secs

     Computing kpt #:    42  of    70
     total cpu time spent up to now is    13654.5 secs

     Computing kpt #:    43  of    70
     c_bands:  2 eigenvalues not converged
     total cpu time spent up to now is    13997.7 secs

     Computing kpt #:    44  of    70
     c_bands:  4 eigenvalues not converged
     total cpu time spent up to now is    14342.1 secs

     Computing kpt #:    45  of    70
     c_bands:  3 eigenvalues not converged
     total cpu time spent up to now is    14682.4 secs

     Computing kpt #:    46  of    70
     total cpu time spent up to now is    14984.4 secs

     Computing kpt #:    47  of    70
     c_bands:  2 eigenvalues not converged
     total cpu time spent up to now is    15319.4 secs

     Computing kpt #:    48  of    70
     c_bands:  3 eigenvalues not converged
     total cpu time spent up to now is    15658.8 secs

     Computing kpt #:    49  of    70
     c_bands:  1 eigenvalues not converged
     total cpu time spent up to now is    15995.4 secs

     Computing kpt #:    50  of    70
     c_bands:  2 eigenvalues not converged
     total cpu time spent up to now is    16331.1 secs

     Computing kpt #:    51  of    70
     total cpu time spent up to now is    16643.9 secs

     Computing kpt #:    52  of    70
     total cpu time spent up to now is    16967.5 secs

     Computing kpt #:    53  of    70
     c_bands:  3 eigenvalues not converged
     total cpu time spent up to now is    17306.5 secs

     Computing kpt #:    54  of    70
     c_bands:  1 eigenvalues not converged
     total cpu time spent up to now is    17645.5 secs

     Computing kpt #:    55  of    70
     total cpu time spent up to now is    17966.4 secs

     Computing kpt #:    56  of    70
     c_bands:  2 eigenvalues not converged
     total cpu time spent up to now is    18304.8 secs

     Computing kpt #:    57  of    70
     c_bands:  3 eigenvalues not converged
     total cpu time spent up to now is    18647.8 secs

     Computing kpt #:    58  of    70
     c_bands:  2 eigenvalues not converged
     total cpu time spent up to now is    18987.3 secs

     Computing kpt #:    59  of    70
     c_bands:  2 eigenvalues not converged
     total cpu time spent up to now is    19327.2 secs

     Computing kpt #:    60  of    70
     c_bands:  3 eigenvalues not converged
     total cpu time spent up to now is    19673.7 secs

     Computing kpt #:    61  of    70
     c_bands:  2 eigenvalues not converged
     total cpu time spent up to now is    20019.5 secs

     Computing kpt #:    62  of    70
     c_bands:  2 eigenvalues not converged
     total cpu time spent up to now is    20358.7 secs

     Computing kpt #:    63  of    70
     c_bands:  2 eigenvalues not converged
     total cpu time spent up to now is    20708.8 secs

     Computing kpt #:    64  of    70
     c_bands:  2 eigenvalues not converged
     total cpu time spent up to now is    21063.3 secs

     Computing kpt #:    65  of    70
     c_bands:  1 eigenvalues not converged
     total cpu time spent up to now is    21450.7 secs

     Computing kpt #:    66  of    70
     c_bands:  1 eigenvalues not converged
     total cpu time spent up to now is    21800.9 secs

     Computing kpt #:    67  of    70
     c_bands:  2 eigenvalues not converged
     total cpu time spent up to now is    22141.3 secs

     Computing kpt #:    68  of    70
     c_bands:  1 eigenvalues not converged
     total cpu time spent up to now is    22480.0 secs

     Computing kpt #:    69  of    70
     total cpu time spent up to now is    22790.4 secs

     Computing kpt #:    70  of    70
     c_bands:  2 eigenvalues not converged
     total cpu time spent up to now is    23132.8 secs

     ethr =  1.03E-10,  avg # of iterations =111.5

     total cpu time spent up to now is    23134.1 secs

     End of band structure calculation

 ------ SPIN UP ------------


          k = 0.0000 0.0000 0.0000 ( 51313 PWs)   bands (ev):

    -6.4737  -6.2109  -6.1909  -5.8497  -5.8417  -5.8417  -5.8302  -5.8302
    -5.8056  -5.7922  -5.7846  -5.7324  -5.7239  -5.7235  -5.7235  -5.7160
    -5.7160  -5.7125  -5.7125  -5.7035  -5.7035  -5.6976  -5.6757  -5.6514
    -5.5972  -5.5894  -5.5894  -5.5878  -5.5812  -5.5812  -5.5772  -5.5772
    -5.5765  -5.5749  -5.5749  -5.5732  -5.5696  -5.5691  -5.5691  -5.5628
    -5.5584  -5.5548  -5.5548  -5.5447  -5.5447  -5.5432  -5.5408  -5.5389
    -5.5389  -5.5289  -5.5265  -5.4962  -5.4962  -4.2549  -4.2095  -4.2017
    -4.2017  -4.1954  -4.1954  -4.1865  -4.1865  -4.1804  -4.1804  -4.1678
    -4.1678  -4.1665  -4.1631  -4.1631  -4.1628  -4.1591  -4.1591  -4.1530
    -4.1530  -4.1505  -4.1505  -4.1504  -4.1465  -4.1465  -4.1465  -4.1422
    -4.1422  -4.1413  -4.1411  -4.1411  -4.1401  -4.1371  -4.1371  -4.1329
    -4.1329  -4.1305  -4.1305  -4.1264  -4.1232  -4.1232  -4.1223  -4.1173
    -4.1173  -4.1088  -4.1088  -4.1084  -4.1066  -4.1045  -4.1045  -4.1044
    -4.1026  -4.1026  -4.1021  -4.1011  -4.1011  -4.0992  -4.0988  -4.0951
    -4.0951  -4.0925  -4.0925  -4.0902  -4.0810  -4.0810  -4.0801  -4.0799
    -4.0752  -4.0714  -4.0714  -4.0707  -4.0701  -4.0653  -4.0637  -4.0637
    -4.0582  -4.0542  -4.0542  -4.0442  -4.0442  -4.0432  -4.0417  -4.0411
    -4.0411  -4.0373  -4.0373  -4.0362  -4.0362  -4.0349  -4.0290  -4.0251
    -4.0251  -4.0213  -4.0169  -4.0169  -4.0119  -4.0119  -4.0099  -4.0092
    -4.0092  -4.0083  -4.0081  -4.0081  -4.0062  -4.0052  -4.0037  -4.0037
    -4.0018  -3.9997  -3.9997  -3.9976  -3.9976  -3.9971  -3.9971  -3.9964
    -3.9956  -3.9915  -3.9915  -3.9901  -3.9891  -3.9891  -3.9867  -3.9861
    -3.9850  -3.9850  -3.9800  -3.9800  -3.9782  -3.9724  -3.9724  -3.9673
    -3.9673  -3.9641  -3.9623  -3.9612  -3.9612  -3.9600  -3.9600  -3.9596
    -3.9572  -3.9572  -3.9569  -3.9559  -3.9559  -3.9547  -3.9545  -3.9545
    -3.9532  -3.9532  -3.9495  -3.9495  -3.9482  -3.9429  -3.9429  -3.9420
    -3.9420  -3.9418  -3.9350  -3.9350  -3.9340  -3.9340  -3.9313  -3.9309
    -3.9309  -3.9264  -3.9264  -3.9255  -3.9255  -3.9239  -3.9229  -3.9229
    -3.9220  -3.9219  -3.9165  -3.9163  -3.9163  -3.9144  -3.9101  -3.9063
    -3.9063  -3.9024  -3.9020  -3.9020  -3.9004  -3.9004  -3.8991  -3.8991
    -3.8949  -3.8949  -3.8936  -3.8886  -3.8886  -3.8852  -3.8835  -3.8835
    -3.8820  -3.8820  -3.8797  -3.8758  -3.8758  -3.8655  -3.8646  -3.8637
    -3.8637  -3.8629  -3.8629  -3.8509  -3.8509  -3.8444  -3.8309  -3.7909
    -3.7909  -3.7700  -3.7700  -3.7404  -3.7404  -3.7323  -3.7319  -3.6274
    -3.6274  -3.5285  -3.5119  -3.5119  -3.4968  -3.4968  -3.4705  -3.3997
    -3.3911  -3.3178  -3.3138  -3.3092  -3.3092  -3.3006  -3.3006  -3.2911
    -3.2911  -3.2753  -3.2704  -3.2704  -3.1076  -2.6418  -2.6354  -2.6335
    -2.6335  -2.6326  -2.6280  -2.6280  -2.6143  -2.6143  -2.6028  -2.6028
    -2.5889  -2.4576  -2.2117  -2.2112  -2.2105  -2.2105  -2.2003  -2.2003
    -2.1963  -2.1887  -2.1885  -2.1760  -2.1760  -2.1252  -2.1099  -2.1033
    -2.1033  -2.0795  -2.0795  -0.1316   2.3923   3.3534   3.3641   3.3641
     3.3678   3.3775   3.3806   3.3806   3.3937   3.4060   3.4082   3.4082
     3.4424   3.4424   3.4559   3.5060   3.5110   3.5110   3.5151   3.5177
     3.5177   3.5230   3.5230   3.6019   3.6053   3.6053   3.6580   3.9856
     3.9990   4.0161   4.0161   4.0320   4.0507   4.1773   4.1773   4.3745
     4.3753   4.3799   4.3799   4.3875   4.3875   4.3971   4.3971   4.4357
     4.4357   4.4357   4.4855   4.5214   4.5214   4.5549   4.5549   4.5770
     4.6612   4.6612   4.7061   4.7193   4.7193   5.3991   5.4032   5.4032
     5.4415   5.4415   5.5510   5.8551   5.8551   5.8821   5.8821   6.1522
     6.1539   6.1539   6.1598   6.1634   6.1634   6.1787   6.1787   6.2111
     6.2111   6.2150   6.2746   6.3710   6.3883   6.3883   6.4902   6.6474
     6.6474   6.9463   6.9532   6.9532   6.9737   6.9921   7.0174   7.0174
     7.0231   7.2900   7.3008   7.3008   7.3038   7.3072   7.3072   7.3144
     7.3260   7.3260   7.3399   7.4416   7.4416   7.4625   7.4867   7.4913
     7.4913   7.4959   7.5224   7.5224   7.5701   7.9604   7.9629   7.9629
     7.9675   7.9690   7.9690   7.9739   7.9739   8.0095   8.0134   8.0134
     8.0285   8.0344   8.0344   8.0348   8.0457   8.0457   8.0694   8.0763
     8.0763   8.0801   8.0868   8.0868   8.0961   8.1090   8.1114   8.1114
     8.2068   8.2068   8.3167   8.3167   8.4963   8.4963   8.5170   8.5198
     8.5198   8.5242   8.5242   8.5433   8.6859   8.7753   8.7753   9.0020
     9.0020   9.1477   9.1477   9.3189   9.4619   9.4619  11.0197  12.6879
    12.7176  13.3314  13.4651  13.4826  13.5436  13.5454  13.5454  13.5525
    13.5525  13.5527  13.5583  13.5583  13.5691  13.5691  13.5943  13.7548
    13.9571  13.9614  13.9614  14.0022  14.0022  14.1914  14.4497  14.4497
    14.6752  14.6752  14.6823  14.6825  14.6825  14.6863  14.6863  14.6865
    14.6980  14.6980  14.7515  14.7853  14.8341  14.8341  14.8572  14.8609
    14.8609  15.2051  15.6030  15.6030  15.6344  15.6344  15.8225  15.8429
    15.8429  15.8559  15.8738  15.8738  15.8738  15.9012  15.9012  15.9073
    15.9136  15.9136  16.0123  16.1308  16.3655  16.3896  16.3896  16.3930
    16.4061  16.4061  16.4316  16.4316  16.4566  16.4566  16.4967  16.5347

     occupation numbers 
     1.0000   1.0000   1.0000   1.0000   1.0000   1.0000   1.0000   1.0000
     1.0000   1.0000   1.0000   1.0000   1.0000   1.0000   1.0000   1.0000
     1.0000   1.0000   1.0000   1.0000   1.0000   1.0000   1.0000   1.0000
     1.0000   1.0000   1.0000   1.0000   1.0000   1.0000   1.0000   1.0000
     1.0000   1.0000   1.0000   1.0000   1.0000   1.0000   1.0000   1.0000
     1.0000   1.0000   1.0000   1.0000   1.0000   1.0000   1.0000   1.0000
     1.0000   1.0000   1.0000   1.0000   1.0000   1.0000   1.0000   1.0000
     1.0000   1.0000   1.0000   1.0000   1.0000   1.0000   1.0000   1.0000
     1.0000   1.0000   1.0000   1.0000   1.0000   1.0000   1.0000   1.0000
     1.0000   1.0000   1.0000   1.0000   1.0000   1.0000   1.0000   1.0000
     1.0000   1.0000   1.0000   1.0000   1.0000   1.0000   1.0000   1.0000
     1.0000   1.0000   1.0000   1.0000   1.0000   1.0000   1.0000   1.0000
     1.0000   1.0000   1.0000   1.0000   1.0000   1.0000   1.0000   1.0000
     1.0000   1.0000   1.0000   1.0000   1.0000   1.0000   1.0000   1.0000
     1.0000   1.0000   1.0000   1.0000   1.0000   1.0000   1.0000   1.0000
     1.0000   1.0000   1.0000   1.0000   1.0000   1.0000   1.0000   1.0000
     1.0000   1.0000   1.0000   1.0000   1.0000   1.0000   1.0000   1.0000
     1.0000   1.0000   1.0000   1.0000   1.0000   1.0000   1.0000   1.0000
     1.0000   1.0000   1.0000   1.0000   1.0000   1.0000   1.0000   1.0000
     1.0000   1.0000   1.0000   1.0000   1.0000   1.0000   1.0000   1.0000
     1.0000   1.0000   1.0000   1.0000   1.0000   1.0000   1.0000   1.0000
     1.0000   1.0000   1.0000   1.0000   1.0000   1.0000   1.0000   1.0000
     1.0000   1.0000   1.0000   1.0000   1.0000   1.0000   1.0000   1.0000
     1.0000   1.0000   1.0000   1.0000   1.0000   1.0000   1.0000   1.0000
     1.0000   1.0000   1.0000   1.0000   1.0000   1.0000   1.0000   1.0000
     1.0000   1.0000   1.0000   1.0000   1.0000   1.0000   1.0000   1.0000
     1.0000   1.0000   1.0000   1.0000   1.0000   1.0000   1.0000   1.0000
     1.0000   1.0000   1.0000   1.0000   1.0000   1.0000   1.0000   1.0000
     1.0000   1.0000   1.0000   1.0000   1.0000   1.0000   1.0000   1.0000
     1.0000   1.0000   1.0000   1.0000   1.0000   1.0000   1.0000   1.0000
     1.0000   1.0000   1.0000   1.0000   1.0000   1.0000   1.0000   1.0000
     1.0000   1.0000   1.0000   1.0000   1.0000   1.0000   1.0000   1.0000
     1.0000   1.0000   1.0000   1.0000   1.0000   1.0000   1.0000   1.0000
     1.0000   1.0000   1.0000   1.0000   1.0000   1.0000   1.0000   1.0000
     1.0000   1.0000   1.0000   1.0000   1.0000   1.0000   1.0000   1.0000
     1.0000   1.0000   1.0000   1.0000   1.0000   1.0000   1.0000   1.0000
     1.0000   1.0000   1.0000   1.0000   1.0000   1.0000   1.0000   1.0000
     1.0000   1.0000   1.0000   1.0000   1.0000   1.0000   1.0000   1.0000
     1.0000   1.0000   1.0000   1.0000   1.0000   1.0000   1.0000   1.0000
     1.0000   1.0000   1.0000   1.0000   1.0000   1.0000   1.0000   1.0000
     1.0000   1.0000   1.0000   1.0000   1.0000   1.0000   1.0000   1.0000
     1.0000   1.0000   1.0000   1.0000   1.0000   1.0000   1.0000   1.0000
     1.0000   1.0000   1.0000   1.0000   1.0000   1.0000   1.0000   1.0000
     1.0000   1.0000   1.0000   1.0000   1.0000   1.0000   1.0000   1.0000
     1.0000   1.0000   1.0000   1.0000   1.0000   1.0000   1.0000   1.0000
     1.0000   1.0000   1.0000   1.0000   1.0000   1.0000   1.0000   1.0000
     1.0000   1.0000   1.0000   1.0000   1.0000   1.0000   1.0000   1.0000
     1.0000   1.0000   1.0000   1.0000   1.0000   1.0000   1.0000   1.0000
     1.0000   1.0000   1.0000   1.0000   1.0000   1.0000   1.0000   1.0000
     1.0000   1.0000   1.0000   1.0000   1.0000   1.0000   1.0000   1.0000
     1.0000   1.0000   1.0000   1.0000   1.0000   1.0000   1.0000   1.0000
     1.0000   1.0000   1.0000   1.0000   1.0000   1.0000   1.0000   1.0000
     1.0000   1.0000   1.0000   1.0000   1.0000   1.0000   1.0000   1.0000
     1.0000   1.0000   1.0000   1.0000   1.0000   1.0000   1.0000   1.0000
     1.0000   1.0000   1.0000   1.0000   1.0000   1.0000   1.0000   1.0000
     1.0000   1.0000   1.0000   1.0000   1.0000   1.0000   1.0000   1.0000
     1.0000   1.0000   1.0000   1.0000   1.0000   1.0000   1.0000   1.0000
     1.0000   1.0000   1.0000   1.0000   1.0000   1.0000   1.0000   1.0000
     1.0000   1.0000   1.0000   1.0000   1.0000   1.0000   1.0000   1.0000
     1.0000   1.0000   1.0000   1.0000   1.0000   1.0000   1.0000   1.0000
     1.0000   1.0000   1.0000   1.0000  -0.0444   0.0000   0.0000   0.0000
     0.0000   0.0000   0.0000   0.0000   0.0000   0.0000   0.0000   0.0000
     0.0000   0.0000   0.0000   0.0000   0.0000   0.0000   0.0000   0.0000
     0.0000   0.0000   0.0000   0.0000   0.0000   0.0000   0.0000   0.0000
     0.0000   0.0000   0.0000   0.0000   0.0000   0.0000   0.0000   0.0000
     0.0000   0.0000   0.0000   0.0000   0.0000   0.0000   0.0000   0.0000
     0.0000   0.0000   0.0000   0.0000   0.0000   0.0000   0.0000   0.0000
     0.0000   0.0000   0.0000   0.0000   0.0000   0.0000   0.0000   0.0000
     0.0000   0.0000   0.0000   0.0000   0.0000   0.0000   0.0000   0.0000
     0.0000   0.0000   0.0000   0.0000   0.0000   0.0000   0.0000   0.0000

          k = 0.0000 0.0000 0.1533 ( 51385 PWs)   bands (ev):

    -6.4555  -6.3088  -6.0821  -5.8684  -5.8406  -5.8330  -5.8330  -5.8217
    -5.8217  -5.7974  -5.7735  -5.7649  -5.7649  -5.7528  -5.7528  -5.7371
    -5.7129  -5.6833  -5.6791  -5.6741  -5.6741  -5.6631  -5.6631  -5.6341
    -5.6126  -5.6036  -5.6036  -5.5940  -5.5940  -5.5846  -5.5811  -5.5771
    -5.5771  -5.5716  -5.5707  -5.5707  -5.5705  -5.5634  -5.5634  -5.5625
    -5.5570  -5.5544  -5.5544  -5.5496  -5.5496  -5.5455  -5.5440  -5.5355
    -5.5355  -5.5257  -5.5253  -5.4959  -5.4959  -4.2549  -4.2043  -4.2016
    -4.2016  -4.1922  -4.1922  -4.1867  -4.1867  -4.1785  -4.1785  -4.1687
    -4.1687  -4.1665  -4.1653  -4.1653  -4.1616  -4.1598  -4.1598  -4.1565
    -4.1565  -4.1547  -4.1517  -4.1517  -4.1489  -4.1489  -4.1475  -4.1457
    -4.1454  -4.1454  -4.1399  -4.1397  -4.1397  -4.1366  -4.1366  -4.1337
    -4.1337  -4.1330  -4.1276  -4.1276  -4.1264  -4.1223  -4.1223  -4.1214
    -4.1169  -4.1169  -4.1158  -4.1157  -4.1137  -4.1137  -4.1112  -4.1112
    -4.1084  -4.1023  -4.1023  -4.0959  -4.0912  -4.0912  -4.0873  -4.0872
    -4.0851  -4.0851  -4.0844  -4.0844  -4.0815  -4.0812  -4.0794  -4.0794
    -4.0719  -4.0711  -4.0711  -4.0682  -4.0613  -4.0613  -4.0604  -4.0560
    -4.0560  -4.0554  -4.0538  -4.0538  -4.0532  -4.0459  -4.0458  -4.0458
    -4.0388  -4.0388  -4.0353  -4.0353  -4.0339  -4.0297  -4.0270  -4.0262
    -4.0262  -4.0184  -4.0182  -4.0182  -4.0161  -4.0161  -4.0110  -4.0107
    -4.0107  -4.0090  -4.0090  -4.0090  -4.0074  -4.0050  -4.0050  -4.0019
    -4.0010  -4.0010  -3.9993  -3.9990  -3.9990  -3.9962  -3.9950  -3.9950
    -3.9919  -3.9919  -3.9875  -3.9860  -3.9835  -3.9835  -3.9827  -3.9808
    -3.9808  -3.9796  -3.9781  -3.9781  -3.9751  -3.9713  -3.9713  -3.9671
    -3.9671  -3.9631  -3.9625  -3.9625  -3.9618  -3.9607  -3.9607  -3.9584
    -3.9575  -3.9575  -3.9575  -3.9567  -3.9567  -3.9557  -3.9553  -3.9553
    -3.9540  -3.9540  -3.9496  -3.9496  -3.9489  -3.9435  -3.9435  -3.9430
    -3.9407  -3.9407  -3.9353  -3.9353  -3.9321  -3.9319  -3.9319  -3.9296
    -3.9296  -3.9261  -3.9261  -3.9249  -3.9249  -3.9240  -3.9225  -3.9214
    -3.9213  -3.9213  -3.9176  -3.9158  -3.9158  -3.9110  -3.9063  -3.9060
    -3.9060  -3.9049  -3.9049  -3.9022  -3.9022  -3.9022  -3.8986  -3.8986
    -3.8972  -3.8964  -3.8964  -3.8870  -3.8870  -3.8837  -3.8833  -3.8833
    -3.8813  -3.8813  -3.8786  -3.8765  -3.8765  -3.8670  -3.8637  -3.8637
    -3.8635  -3.8630  -3.8630  -3.8510  -3.8510  -3.8445  -3.8306  -3.7909
    -3.7909  -3.7700  -3.7700  -3.7404  -3.7404  -3.7340  -3.7323  -3.6273
    -3.6273  -3.6255  -3.5163  -3.5005  -3.5005  -3.4860  -3.4860  -3.4637
    -3.4117  -3.3977  -3.3977  -3.3765  -3.3765  -3.3096  -3.1871  -3.1760
    -3.1760  -3.1548  -3.1548  -3.1459  -3.0384  -2.8399  -2.8308  -2.8308
    -2.8101  -2.8101  -2.7372  -2.6600  -2.4402  -2.4320  -2.4320  -2.4128
    -2.4128  -2.3566  -2.2117  -2.2111  -2.2107  -2.2107  -2.2003  -2.2003
    -2.1965  -2.1887  -2.1885  -2.1778  -2.1778  -2.1560  -2.1482  -2.1447
    -2.1447  -2.1183  -2.1183  -0.1338   2.5174   3.2527   3.2666   3.2666
     3.2709   3.3723   3.3921   3.3925   3.3925   3.4118   3.4118   3.4168
     3.4224   3.4224   3.4348   3.4523   3.4523   3.5193   3.5369   3.5660
     3.5660   3.5890   3.6650   3.6717   3.6717   3.7151   3.7151   3.7888
     3.9127   3.9430   3.9430   3.9557   4.1143   4.1213   4.1213   4.1580
     4.1580   4.2179   4.2179   4.2470   4.4657   4.4657   4.6041   4.6041
     4.6072   4.6153   4.6153   4.6226   4.6313   4.6313   4.6528   4.6876
     4.6876   4.7092   4.8638   4.9428   4.9428   5.3682   5.3682   5.3686
     5.3988   5.3988   5.4964   5.5511   5.5511   5.6752   5.6752   5.6791
     5.7151   5.7151   5.7672   6.1695   6.1695   6.2555   6.4829   6.4955
     6.4955   6.5380   6.5853   6.5853   6.6955   6.6981   6.6981   6.7327
     6.7327   6.8295   6.9693   6.9762   6.9762   6.9961   7.0324   7.0324
     7.1278   7.1429   7.1429   7.1503   7.1569   7.1569   7.1804   7.2033
     7.2529   7.2529   7.4752   7.4812   7.4812   7.5041   7.5726   7.5726
     7.6578   7.6616   7.6616   7.6851   7.6851   7.7021   7.7238   7.7346
     7.7556   7.7556   7.8528   7.8765   7.8820   7.8820   7.9045   7.9773
     7.9773   8.0555   8.0635   8.0635   8.0788   8.0788   8.1092   8.1147
     8.1154   8.1154   8.1401   8.1401   8.2523   8.2570   8.2570   8.2756
     8.2756   8.2789   8.3480   8.3480   8.4324   8.4324   8.4857   8.4908
     8.4908   8.5122   8.5874   8.5874   8.6746   8.7615   8.7615   8.9713
     8.9713   9.0942   9.1717   9.1717   9.4576   9.4576  11.2476  12.2337
    13.0801  13.3442  13.4363  13.4643  13.5467  13.5483  13.5483  13.5657
    13.5657  13.6381  13.7202  13.7205  13.7205  13.7267  13.7267  13.8097
    13.8690  13.8726  13.8726  13.9090  13.9090  14.1309  14.3732  14.3732
    14.3764  14.3820  14.3820  14.5388  14.5388  14.5610  14.8415  14.8415
    14.8444  14.8511  14.8511  14.8528  14.8528  14.8598  14.8855  14.8855
    14.8885  15.1688  15.1688  15.1886  15.5725  15.5863  15.5863  15.7655
    15.9740  15.9740  15.9902  15.9906  15.9906  16.0611  16.0850  16.0850
    16.2030  16.2196  16.2196  16.2540  16.2792  16.2792  16.3226  16.3226
    16.3466  16.3996  16.5791  16.5956  16.5956  16.6321  16.6321  16.6767

     occupation numbers 
     1.0000   1.0000   1.0000   1.0000   1.0000   1.0000   1.0000   1.0000
     1.0000   1.0000   1.0000   1.0000   1.0000   1.0000   1.0000   1.0000
     1.0000   1.0000   1.0000   1.0000   1.0000   1.0000   1.0000   1.0000
     1.0000   1.0000   1.0000   1.0000   1.0000   1.0000   1.0000   1.0000
     1.0000   1.0000   1.0000   1.0000   1.0000   1.0000   1.0000   1.0000
     1.0000   1.0000   1.0000   1.0000   1.0000   1.0000   1.0000   1.0000
     1.0000   1.0000   1.0000   1.0000   1.0000   1.0000   1.0000   1.0000
     1.0000   1.0000   1.0000   1.0000   1.0000   1.0000   1.0000   1.0000
     1.0000   1.0000   1.0000   1.0000   1.0000   1.0000   1.0000   1.0000
     1.0000   1.0000   1.0000   1.0000   1.0000   1.0000   1.0000   1.0000
     1.0000   1.0000   1.0000   1.0000   1.0000   1.0000   1.0000   1.0000
     1.0000   1.0000   1.0000   1.0000   1.0000   1.0000   1.0000   1.0000
     1.0000   1.0000   1.0000   1.0000   1.0000   1.0000   1.0000   1.0000
     1.0000   1.0000   1.0000   1.0000   1.0000   1.0000   1.0000   1.0000
     1.0000   1.0000   1.0000   1.0000   1.0000   1.0000   1.0000   1.0000
     1.0000   1.0000   1.0000   1.0000   1.0000   1.0000   1.0000   1.0000
     1.0000   1.0000   1.0000   1.0000   1.0000   1.0000   1.0000   1.0000
     1.0000   1.0000   1.0000   1.0000   1.0000   1.0000   1.0000   1.0000
     1.0000   1.0000   1.0000   1.0000   1.0000   1.0000   1.0000   1.0000
     1.0000   1.0000   1.0000   1.0000   1.0000   1.0000   1.0000   1.0000
     1.0000   1.0000   1.0000   1.0000   1.0000   1.0000   1.0000   1.0000
     1.0000   1.0000   1.0000   1.0000   1.0000   1.0000   1.0000   1.0000
     1.0000   1.0000   1.0000   1.0000   1.0000   1.0000   1.0000   1.0000
     1.0000   1.0000   1.0000   1.0000   1.0000   1.0000   1.0000   1.0000
     1.0000   1.0000   1.0000   1.0000   1.0000   1.0000   1.0000   1.0000
     1.0000   1.0000   1.0000   1.0000   1.0000   1.0000   1.0000   1.0000
     1.0000   1.0000   1.0000   1.0000   1.0000   1.0000   1.0000   1.0000
     1.0000   1.0000   1.0000   1.0000   1.0000   1.0000   1.0000   1.0000
     1.0000   1.0000   1.0000   1.0000   1.0000   1.0000   1.0000   1.0000
     1.0000   1.0000   1.0000   1.0000   1.0000   1.0000   1.0000   1.0000
     1.0000   1.0000   1.0000   1.0000   1.0000   1.0000   1.0000   1.0000
     1.0000   1.0000   1.0000   1.0000   1.0000   1.0000   1.0000   1.0000
     1.0000   1.0000   1.0000   1.0000   1.0000   1.0000   1.0000   1.0000
     1.0000   1.0000   1.0000   1.0000   1.0000   1.0000   1.0000   1.0000
     1.0000   1.0000   1.0000   1.0000   1.0000   1.0000   1.0000   1.0000
     1.0000   1.0000   1.0000   1.0000   1.0000   1.0000   1.0000   1.0000
     1.0000   1.0000   1.0000   1.0000   1.0000   1.0000   1.0000   1.0000
     1.0000   1.0000   1.0000   1.0000   1.0000   1.0000   1.0000   1.0000
     1.0000   1.0000   1.0000   1.0000   1.0000   1.0000   1.0000   1.0000
     1.0000   1.0000   1.0000   1.0000   1.0000   1.0000   1.0000   1.0000
     1.0000   1.0000   1.0000   1.0000   1.0000   1.0000   1.0000   1.0000
     1.0000   1.0000   1.0000   1.0000   1.0000   1.0000   1.0000   1.0000
     1.0000   1.0000   1.0000   1.0000   1.0000   1.0000   1.0000   1.0000
     1.0000   1.0000   1.0000   1.0000   1.0000   1.0000   1.0000   1.0000
     1.0000   1.0000   1.0000   1.0000   1.0000   1.0000   1.0000   1.0000
     1.0000   1.0000   1.0000   1.0000   1.0000   1.0000   1.0000   1.0000
     1.0000   1.0000   1.0000   1.0000   1.0000   1.0000   1.0000   1.0000
     1.0000   1.0000   1.0000   1.0000   1.0000   1.0000   1.0000   1.0000
     1.0000   1.0000   1.0000   1.0000   1.0000   1.0000   1.0000   1.0000
     1.0000   1.0000   1.0000   1.0000   1.0000   1.0000   1.0000   1.0000
     1.0000   1.0000   1.0000   1.0000   1.0000   1.0000   1.0000   1.0000
     1.0000   1.0000   1.0000   1.0000   1.0000   1.0000   1.0000   1.0000
     1.0000   1.0000   1.0000   1.0000   1.0000   1.0000   1.0000   1.0000
     1.0000   1.0000   1.0000   1.0000   1.0000   1.0000   1.0000   1.0000
     1.0000   1.0000   1.0000   1.0000   1.0000   1.0000   1.0000   1.0000
     1.0000   1.0000   1.0000   1.0000   1.0000   1.0000   1.0000   1.0000
     1.0000   1.0000   1.0000   1.0000   1.0000   1.0000   1.0000   1.0000
     1.0000   1.0000   1.0000   1.0000   1.0000   1.0000   1.0000   1.0000
     1.0000   1.0000   1.0000   1.0000   1.0000   1.0000   1.0000   1.0000
     1.0000   1.0000   1.0000   1.0000   1.0000   1.0000   1.0000   1.0000
     1.0000   1.0000   1.0000   1.0000  -0.0124   0.0000   0.0000   0.0000
     0.0000   0.0000   0.0000   0.0000   0.0000   0.0000   0.0000   0.0000
     0.0000   0.0000   0.0000   0.0000   0.0000   0.0000   0.0000   0.0000
     0.0000   0.0000   0.0000   0.0000   0.0000   0.0000   0.0000   0.0000
     0.0000   0.0000   0.0000   0.0000   0.0000   0.0000   0.0000   0.0000
     0.0000   0.0000   0.0000   0.0000   0.0000   0.0000   0.0000   0.0000
     0.0000   0.0000   0.0000   0.0000   0.0000   0.0000   0.0000   0.0000
     0.0000   0.0000   0.0000   0.0000   0.0000   0.0000   0.0000   0.0000
     0.0000   0.0000   0.0000   0.0000   0.0000   0.0000   0.0000   0.0000
     0.0000   0.0000   0.0000   0.0000   0.0000   0.0000   0.0000   0.0000

          k = 0.0000 0.0000-0.3067 ( 51390 PWs)   bands (ev):

    -6.4166  -6.3786  -5.9702  -5.9646  -5.8220  -5.8151  -5.8151  -5.8053
    -5.8053  -5.8051  -5.7955  -5.7955  -5.7927  -5.7818  -5.7818  -5.7278
    -5.7082  -5.6907  -5.6459  -5.6401  -5.6401  -5.6395  -5.6302  -5.6302
    -5.6276  -5.6276  -5.6165  -5.6165  -5.6127  -5.5990  -5.5793  -5.5763
    -5.5763  -5.5696  -5.5696  -5.5679  -5.5679  -5.5622  -5.5604  -5.5604
    -5.5567  -5.5539  -5.5539  -5.5537  -5.5537  -5.5497  -5.5444  -5.5336
    -5.5336  -5.5243  -5.5236  -5.4956  -5.4956  -4.2549  -4.2016  -4.2016
    -4.1921  -4.1882  -4.1882  -4.1847  -4.1847  -4.1804  -4.1754  -4.1754
    -4.1733  -4.1733  -4.1712  -4.1712  -4.1657  -4.1655  -4.1655  -4.1577
    -4.1546  -4.1546  -4.1510  -4.1510  -4.1483  -4.1483  -4.1479  -4.1435
    -4.1419  -4.1419  -4.1391  -4.1391  -4.1385  -4.1381  -4.1372  -4.1372
    -4.1335  -4.1335  -4.1311  -4.1311  -4.1294  -4.1237  -4.1237  -4.1213
    -4.1213  -4.1201  -4.1198  -4.1198  -4.1191  -4.1191  -4.1148  -4.1148
    -4.1119  -4.0997  -4.0897  -4.0897  -4.0840  -4.0833  -4.0816  -4.0816
    -4.0782  -4.0782  -4.0758  -4.0758  -4.0753  -4.0736  -4.0736  -4.0708
    -4.0703  -4.0703  -4.0679  -4.0666  -4.0666  -4.0657  -4.0641  -4.0641
    -4.0614  -4.0609  -4.0599  -4.0599  -4.0536  -4.0536  -4.0527  -4.0444
    -4.0415  -4.0415  -4.0394  -4.0340  -4.0303  -4.0303  -4.0285  -4.0285
    -4.0285  -4.0231  -4.0231  -4.0224  -4.0171  -4.0171  -4.0119  -4.0119
    -4.0114  -4.0094  -4.0094  -4.0088  -4.0087  -4.0046  -4.0046  -4.0024
    -4.0024  -4.0007  -3.9994  -3.9994  -3.9977  -3.9969  -3.9953  -3.9953
    -3.9913  -3.9913  -3.9848  -3.9818  -3.9818  -3.9799  -3.9794  -3.9756
    -3.9756  -3.9741  -3.9732  -3.9732  -3.9720  -3.9720  -3.9663  -3.9663
    -3.9644  -3.9644  -3.9632  -3.9623  -3.9613  -3.9613  -3.9610  -3.9589
    -3.9589  -3.9581  -3.9581  -3.9566  -3.9562  -3.9562  -3.9562  -3.9538
    -3.9538  -3.9498  -3.9498  -3.9496  -3.9447  -3.9441  -3.9441  -3.9393
    -3.9393  -3.9357  -3.9357  -3.9327  -3.9313  -3.9313  -3.9304  -3.9288
    -3.9288  -3.9253  -3.9253  -3.9241  -3.9233  -3.9222  -3.9222  -3.9212
    -3.9206  -3.9206  -3.9175  -3.9134  -3.9134  -3.9085  -3.9085  -3.9075
    -3.9053  -3.9053  -3.9042  -3.9042  -3.9020  -3.9012  -3.9006  -3.9006
    -3.8963  -3.8963  -3.8859  -3.8859  -3.8835  -3.8825  -3.8825  -3.8808
    -3.8808  -3.8776  -3.8776  -3.8766  -3.8685  -3.8636  -3.8636  -3.8632
    -3.8632  -3.8628  -3.8585  -3.8511  -3.8511  -3.8446  -3.8213  -3.7996
    -3.7909  -3.7909  -3.7700  -3.7700  -3.7404  -3.7404  -3.7323  -3.7213
    -3.6272  -3.6272  -3.4856  -3.4731  -3.4731  -3.4705  -3.4645  -3.4645
    -3.4568  -3.4526  -3.4526  -3.4252  -3.4252  -3.3356  -3.0296  -3.0243
    -3.0234  -3.0234  -3.0132  -3.0132  -3.0009  -3.0009  -2.9877  -2.9877
    -2.9835  -2.9129  -2.8782  -2.7654  -2.2790  -2.2696  -2.2696  -2.2607
    -2.2554  -2.2554  -2.2533  -2.2533  -2.2403  -2.2400  -2.2400  -2.2267
    -2.2116  -2.2110  -2.2056  -2.2056  -2.2000  -2.2000  -2.1967  -2.1884
    -2.1875  -2.1657  -2.1657  -0.1361   2.8602   2.8723   3.2140   3.2288
     3.2288   3.2327   3.3775   3.3779   3.3779   3.3857   3.3897   3.3897
     3.3937   3.3937   3.4189   3.4366   3.4366   3.5017   3.7254   3.7442
     3.7443   3.7443   3.7491   3.7692   3.7692   3.7859   3.8668   3.8713
     3.8736   3.8736   3.8811   3.8811   3.8859   3.8859   3.9667   3.9667
     3.9690   4.0562   4.2848   4.2848   4.3369   4.3369   4.7203   4.7203
     4.7271   4.7271   4.7308   4.7348   4.7513   4.7513   4.7731   4.7888
     4.7888   4.9273   5.2178   5.2178   5.2393   5.2393   5.3669   5.3669
     5.3733   5.3733   5.3757   5.3833   5.3996   5.3996   5.4037   5.4340
     5.4535   5.4535   5.5138   5.5984   6.4002   6.4002   6.4371   6.4371
     6.7640   6.7720   6.7778   6.7778   6.7874   6.7880   6.7880   6.8701
     7.0277   7.0355   7.0355   7.0463   7.0511   7.0544   7.0544   7.0554
     7.0554   7.0867   7.1634   7.1634   7.2149   7.2157   7.2157   7.2178
     7.2234   7.2234   7.2291   7.2291   7.2796   7.3013   7.3013   7.4255
     7.6665   7.6772   7.6776   7.6776   7.6780   7.6780   7.6966   7.7033
     7.7066   7.7066   7.8072   7.8072   7.8166   7.8753   7.8753   7.8808
     8.1037   8.1114   8.1114   8.1235   8.1283   8.1283   8.1322   8.1322
     8.1419   8.1471   8.1471   8.3151   8.3151   8.3286   8.3505   8.3505
     8.3816   8.3897   8.3897   8.4043   8.4077   8.4099   8.4099   8.4218
     8.4218   8.4240   8.4353   8.6199   8.6199   8.7480   8.7480   8.8748
     8.9432   8.9432   9.1911   9.1911   9.4529   9.4529  11.6930  11.7489
    13.3218  13.3326  13.3740  13.4248  13.6712  13.6712  13.6759  13.6921
    13.6986  13.6986  13.7026  13.7026  13.7042  13.7306  13.7306  13.8557
    14.0150  14.0150  14.0169  14.0189  14.0189  14.0234  14.0290  14.0290
    14.0298  14.0298  14.0970  14.4005  14.7830  14.7830  14.7983  14.7983
    14.8681  14.8681  14.8708  14.8779  14.8779  14.8800  14.8800  14.8882
    14.9144  14.9146  14.9146  15.1688  15.4696  15.4821  15.4821  15.7023
    16.1190  16.1190  16.1379  16.1434  16.1497  16.1497  16.1616  16.1616
    16.1822  16.1822  16.2033  16.3007  16.5026  16.5026  16.5072  16.5135
    16.5135  16.5293  16.5293  16.5363  16.5495  16.6094  16.6094  16.6590

     occupation numbers 
     1.0000   1.0000   1.0000   1.0000   1.0000   1.0000   1.0000   1.0000
     1.0000   1.0000   1.0000   1.0000   1.0000   1.0000   1.0000   1.0000
     1.0000   1.0000   1.0000   1.0000   1.0000   1.0000   1.0000   1.0000
     1.0000   1.0000   1.0000   1.0000   1.0000   1.0000   1.0000   1.0000
     1.0000   1.0000   1.0000   1.0000   1.0000   1.0000   1.0000   1.0000
     1.0000   1.0000   1.0000   1.0000   1.0000   1.0000   1.0000   1.0000
     1.0000   1.0000   1.0000   1.0000   1.0000   1.0000   1.0000   1.0000
     1.0000   1.0000   1.0000   1.0000   1.0000   1.0000   1.0000   1.0000
     1.0000   1.0000   1.0000   1.0000   1.0000   1.0000   1.0000   1.0000
     1.0000   1.0000   1.0000   1.0000   1.0000   1.0000   1.0000   1.0000
     1.0000   1.0000   1.0000   1.0000   1.0000   1.0000   1.0000   1.0000
     1.0000   1.0000   1.0000   1.0000   1.0000   1.0000   1.0000   1.0000
     1.0000   1.0000   1.0000   1.0000   1.0000   1.0000   1.0000   1.0000
     1.0000   1.0000   1.0000   1.0000   1.0000   1.0000   1.0000   1.0000
     1.0000   1.0000   1.0000   1.0000   1.0000   1.0000   1.0000   1.0000
     1.0000   1.0000   1.0000   1.0000   1.0000   1.0000   1.0000   1.0000
     1.0000   1.0000   1.0000   1.0000   1.0000   1.0000   1.0000   1.0000
     1.0000   1.0000   1.0000   1.0000   1.0000   1.0000   1.0000   1.0000
     1.0000   1.0000   1.0000   1.0000   1.0000   1.0000   1.0000   1.0000
     1.0000   1.0000   1.0000   1.0000   1.0000   1.0000   1.0000   1.0000
     1.0000   1.0000   1.0000   1.0000   1.0000   1.0000   1.0000   1.0000
     1.0000   1.0000   1.0000   1.0000   1.0000   1.0000   1.0000   1.0000
     1.0000   1.0000   1.0000   1.0000   1.0000   1.0000   1.0000   1.0000
     1.0000   1.0000   1.0000   1.0000   1.0000   1.0000   1.0000   1.0000
     1.0000   1.0000   1.0000   1.0000   1.0000   1.0000   1.0000   1.0000
     1.0000   1.0000   1.0000   1.0000   1.0000   1.0000   1.0000   1.0000
     1.0000   1.0000   1.0000   1.0000   1.0000   1.0000   1.0000   1.0000
     1.0000   1.0000   1.0000   1.0000   1.0000   1.0000   1.0000   1.0000
     1.0000   1.0000   1.0000   1.0000   1.0000   1.0000   1.0000   1.0000
     1.0000   1.0000   1.0000   1.0000   1.0000   1.0000   1.0000   1.0000
     1.0000   1.0000   1.0000   1.0000   1.0000   1.0000   1.0000   1.0000
     1.0000   1.0000   1.0000   1.0000   1.0000   1.0000   1.0000   1.0000
     1.0000   1.0000   1.0000   1.0000   1.0000   1.0000   1.0000   1.0000
     1.0000   1.0000   1.0000   1.0000   1.0000   1.0000   1.0000   1.0000
     1.0000   1.0000   1.0000   1.0000   1.0000   1.0000   1.0000   1.0000
     1.0000   1.0000   1.0000   1.0000   1.0000   1.0000   1.0000   1.0000
     1.0000   1.0000   1.0000   1.0000   1.0000   1.0000   1.0000   1.0000
     1.0000   1.0000   1.0000   1.0000   1.0000   1.0000   1.0000   1.0000
     1.0000   1.0000   1.0000   1.0000   1.0000   1.0000   1.0000   1.0000
     1.0000   1.0000   1.0000   1.0000   1.0000   1.0000   1.0000   1.0000
     1.0000   1.0000   1.0000   1.0000   1.0000   1.0000   1.0000   1.0000
     1.0000   1.0000   1.0000   1.0000   1.0000   1.0000   1.0000   1.0000
     1.0000   1.0000   1.0000   1.0000   1.0000   1.0000   1.0000   1.0000
     1.0000   1.0000   1.0000   1.0000   1.0000   1.0000   1.0000   1.0000
     1.0000   1.0000   1.0000   1.0000   1.0000   1.0000   1.0000   1.0000
     1.0000   1.0000   1.0000   1.0000   1.0000   1.0000   1.0000   1.0000
     1.0000   1.0000   1.0000   1.0000   1.0000   1.0000   1.0000   1.0000
     1.0000   1.0000   1.0000   1.0000   1.0000   1.0000   1.0000   1.0000
     1.0000   1.0000   1.0000   1.0000   1.0000   1.0000   1.0000   1.0000
     1.0000   1.0000   1.0000   1.0000   1.0000   1.0000   1.0000   1.0000
     1.0000   1.0000   1.0000   1.0000   1.0000   1.0000   1.0000   1.0000
     1.0000   1.0000   1.0000   1.0000   1.0000   1.0000   1.0000   1.0000
     1.0000   1.0000   1.0000   1.0000   1.0000   1.0000   1.0000   1.0000
     1.0000   1.0000   1.0000   1.0000   1.0000   1.0000   1.0000   1.0000
     1.0000   1.0000   1.0000   1.0000   1.0000   1.0000   1.0000   1.0000
     1.0000   1.0000   1.0000   1.0000   1.0000   1.0000   1.0000   1.0000
     1.0000   1.0000   1.0000   1.0000   1.0000   1.0000   1.0000   1.0000
     1.0000   1.0000   1.0000   1.0000   1.0000   1.0000   1.0000   1.0000
     1.0000   1.0000   1.0000   1.0000   1.0000   1.0000   1.0000   1.0000
     1.0000   1.0000   1.0000   1.0000   1.0000   1.0000   1.0000   1.0000
     1.0000   1.0000   1.0000   1.0000   0.0000   0.0000   0.0000   0.0000
     0.0000   0.0000   0.0000   0.0000   0.0000   0.0000   0.0000   0.0000
     0.0000   0.0000   0.0000   0.0000   0.0000   0.0000   0.0000   0.0000
     0.0000   0.0000   0.0000   0.0000   0.0000   0.0000   0.0000   0.0000
     0.0000   0.0000   0.0000   0.0000   0.0000   0.0000   0.0000   0.0000
     0.0000   0.0000   0.0000   0.0000   0.0000   0.0000   0.0000   0.0000
     0.0000   0.0000   0.0000   0.0000   0.0000   0.0000   0.0000   0.0000
     0.0000   0.0000   0.0000   0.0000   0.0000   0.0000   0.0000   0.0000
     0.0000   0.0000   0.0000   0.0000   0.0000   0.0000   0.0000   0.0000
     0.0000   0.0000   0.0000   0.0000   0.0000   0.0000   0.0000   0.0000

          k = 0.0000 0.1443 0.0000 ( 51335 PWs)   bands (ev):

    -6.4577  -6.1975  -6.1781  -5.9226  -5.8727  -5.8637  -5.7948  -5.7941
    -5.7870  -5.7841  -5.7778  -5.7734  -5.7598  -5.7436  -5.7370  -5.7360
    -5.7218  -5.6888  -5.6877  -5.6813  -5.6793  -5.6714  -5.6639  -5.6421
    -5.6083  -5.6041  -5.5952  -5.5917  -5.5901  -5.5878  -5.5851  -5.5850
    -5.5745  -5.5724  -5.5714  -5.5674  -5.5665  -5.5626  -5.5626  -5.5609
    -5.5583  -5.5550  -5.5527  -5.5469  -5.5459  -5.5453  -5.5419  -5.5395
    -5.5377  -5.5275  -5.5246  -5.4958  -5.4957  -4.2542  -4.2090  -4.1994
    -4.1971  -4.1937  -4.1937  -4.1853  -4.1841  -4.1782  -4.1778  -4.1680
    -4.1657  -4.1656  -4.1630  -4.1614  -4.1608  -4.1577  -4.1563  -4.1533
    -4.1512  -4.1509  -4.1491  -4.1488  -4.1471  -4.1456  -4.1453  -4.1436
    -4.1430  -4.1413  -4.1412  -4.1395  -4.1381  -4.1364  -4.1354  -4.1328
    -4.1325  -4.1314  -4.1304  -4.1261  -4.1247  -4.1236  -4.1227  -4.1187
    -4.1182  -4.1106  -4.1092  -4.1090  -4.1088  -4.1063  -4.1062  -4.1045
    -4.1045  -4.1038  -4.1025  -4.1024  -4.1011  -4.1006  -4.0992  -4.0965
    -4.0944  -4.0925  -4.0923  -4.0905  -4.0831  -4.0816  -4.0811  -4.0781
    -4.0762  -4.0759  -4.0726  -4.0709  -4.0693  -4.0663  -4.0650  -4.0629
    -4.0589  -4.0548  -4.0532  -4.0531  -4.0508  -4.0491  -4.0454  -4.0452
    -4.0412  -4.0396  -4.0386  -4.0338  -4.0337  -4.0320  -4.0272  -4.0264
    -4.0250  -4.0247  -4.0223  -4.0208  -4.0193  -4.0167  -4.0154  -4.0140
    -4.0100  -4.0092  -4.0071  -4.0070  -4.0047  -4.0045  -4.0030  -4.0021
    -4.0005  -3.9983  -3.9981  -3.9978  -3.9970  -3.9952  -3.9951  -3.9947
    -3.9936  -3.9907  -3.9902  -3.9900  -3.9885  -3.9885  -3.9865  -3.9855
    -3.9844  -3.9825  -3.9796  -3.9792  -3.9778  -3.9743  -3.9725  -3.9716
    -3.9705  -3.9695  -3.9668  -3.9650  -3.9639  -3.9637  -3.9633  -3.9619
    -3.9601  -3.9585  -3.9574  -3.9558  -3.9556  -3.9531  -3.9523  -3.9513
    -3.9502  -3.9495  -3.9484  -3.9457  -3.9456  -3.9439  -3.9415  -3.9415
    -3.9390  -3.9388  -3.9377  -3.9364  -3.9355  -3.9336  -3.9329  -3.9307
    -3.9287  -3.9276  -3.9263  -3.9245  -3.9229  -3.9225  -3.9199  -3.9196
    -3.9181  -3.9180  -3.9165  -3.9160  -3.9137  -3.9113  -3.9084  -3.9073
    -3.9061  -3.9031  -3.9029  -3.9016  -3.9009  -3.8995  -3.8987  -3.8970
    -3.8944  -3.8942  -3.8926  -3.8910  -3.8905  -3.8870  -3.8846  -3.8826
    -3.8821  -3.8809  -3.8777  -3.8774  -3.8751  -3.8682  -3.8674  -3.8656
    -3.8642  -3.8630  -3.8606  -3.8498  -3.8496  -3.8439  -3.8295  -3.7931
    -3.7903  -3.7725  -3.7698  -3.7423  -3.7406  -3.7327  -3.7307  -3.6932
    -3.6286  -3.6280  -3.5903  -3.5873  -3.4894  -3.4753  -3.3954  -3.3929
    -3.3881  -3.3855  -3.3829  -3.3714  -3.3698  -3.3211  -3.2702  -3.1816
    -3.1795  -3.1698  -3.1387  -3.0801  -3.0128  -2.7710  -2.7644  -2.6867
    -2.6849  -2.6772  -2.6548  -2.6070  -2.5412  -2.5380  -2.5365  -2.5188
    -2.4773  -2.4342  -2.3339  -2.3211  -2.2761  -2.2718  -2.2703  -2.2227
    -2.1735  -2.1605  -2.1576  -2.1569  -2.1371  -2.1240  -2.1174  -2.1026
    -2.0763  -2.0581  -2.0581  -0.1303   2.4163   3.1839   3.1977   3.2744
     3.2826   3.2841   3.2903   3.3137   3.3428   3.3533   3.3593   3.3673
     3.3858   3.3913   3.4025   3.4109   3.4275   3.4327   3.4670   3.4793
     3.5043   3.6867   3.7055   3.7129   3.7218   3.8028   3.8070   3.8467
     3.8775   3.9464   3.9715   4.0333   4.0466   4.0478   4.0891   4.1572
     4.1741   4.1834   4.2404   4.3960   4.3979   4.4508   4.4745   4.5019
     4.6251   4.6366   4.6415   4.6664   4.6910   4.7338   4.7654   4.7674
     4.7956   4.8252   4.8660   4.8918   4.9912   5.1024   5.2227   5.2620
     5.6259   5.6563   5.9025   5.9323   5.9333   5.9572   5.9706   6.1061
     6.1208   6.1652   6.1659   6.1696   6.1797   6.1918   6.2077   6.2130
     6.2309   6.2464   6.2470   6.2882   6.3639   6.6314   6.6714   6.7212
     6.7289   6.8069   6.8257   6.8358   6.9639   6.9876   6.9953   7.0085
     7.1415   7.1589   7.1667   7.1708   7.1741   7.2077   7.2289   7.3104
     7.3173   7.3221   7.3258   7.3329   7.3610   7.3745   7.4328   7.4807
     7.5436   7.6187   7.6343   7.6362   7.6623   7.7494   7.8658   7.8781
     7.8811   7.8832   7.8907   7.8977   7.9178   7.9313   7.9663   7.9744
     7.9799   7.9910   8.0004   8.0165   8.0348   8.0387   8.0435   8.0471
     8.0795   8.1102   8.1316   8.1365   8.1591   8.1646   8.1797   8.2204
     8.2362   8.2364   8.2936   8.3073   8.3776   8.4044   8.4165   8.4423
     8.4675   8.4778   8.5188   8.6008   8.6982   8.7082   8.7729   8.9297
     8.9805   9.0116   9.1297   9.2975   9.3320   9.4448  11.2062  12.7695
    12.7990  13.4400  13.4512  13.4668  13.5690  13.5690  13.5768  13.5778
    13.5836  13.6212  13.6501  13.6604  13.6769  13.6810  13.6999  13.7110
    13.8300  13.9316  14.0067  14.1390  14.1553  14.2725  14.4809  14.4969
    14.4993  14.5127  14.6600  14.6658  14.6769  14.7045  14.7543  14.8604
    14.8706  14.8712  14.8771  14.8865  14.8866  14.9176  14.9570  15.0044
    15.0128  15.2215  15.3448  15.3478  15.3576  15.4760  15.6403  15.7355
    15.7566  15.7847  15.7939  15.8029  15.9116  16.0365  16.0741  16.1711
    16.1763  16.1809  16.2248  16.2733  16.3409  16.3562  16.3643  16.3792
    16.3855  16.4103  16.4444  16.4449  16.4664  16.4680  16.5279  16.5451

     occupation numbers 
     1.0000   1.0000   1.0000   1.0000   1.0000   1.0000   1.0000   1.0000
     1.0000   1.0000   1.0000   1.0000   1.0000   1.0000   1.0000   1.0000
     1.0000   1.0000   1.0000   1.0000   1.0000   1.0000   1.0000   1.0000
     1.0000   1.0000   1.0000   1.0000   1.0000   1.0000   1.0000   1.0000
     1.0000   1.0000   1.0000   1.0000   1.0000   1.0000   1.0000   1.0000
     1.0000   1.0000   1.0000   1.0000   1.0000   1.0000   1.0000   1.0000
     1.0000   1.0000   1.0000   1.0000   1.0000   1.0000   1.0000   1.0000
     1.0000   1.0000   1.0000   1.0000   1.0000   1.0000   1.0000   1.0000
     1.0000   1.0000   1.0000   1.0000   1.0000   1.0000   1.0000   1.0000
     1.0000   1.0000   1.0000   1.0000   1.0000   1.0000   1.0000   1.0000
     1.0000   1.0000   1.0000   1.0000   1.0000   1.0000   1.0000   1.0000
     1.0000   1.0000   1.0000   1.0000   1.0000   1.0000   1.0000   1.0000
     1.0000   1.0000   1.0000   1.0000   1.0000   1.0000   1.0000   1.0000
     1.0000   1.0000   1.0000   1.0000   1.0000   1.0000   1.0000   1.0000
     1.0000   1.0000   1.0000   1.0000   1.0000   1.0000   1.0000   1.0000
     1.0000   1.0000   1.0000   1.0000   1.0000   1.0000   1.0000   1.0000
     1.0000   1.0000   1.0000   1.0000   1.0000   1.0000   1.0000   1.0000
     1.0000   1.0000   1.0000   1.0000   1.0000   1.0000   1.0000   1.0000
     1.0000   1.0000   1.0000   1.0000   1.0000   1.0000   1.0000   1.0000
     1.0000   1.0000   1.0000   1.0000   1.0000   1.0000   1.0000   1.0000
     1.0000   1.0000   1.0000   1.0000   1.0000   1.0000   1.0000   1.0000
     1.0000   1.0000   1.0000   1.0000   1.0000   1.0000   1.0000   1.0000
     1.0000   1.0000   1.0000   1.0000   1.0000   1.0000   1.0000   1.0000
     1.0000   1.0000   1.0000   1.0000   1.0000   1.0000   1.0000   1.0000
     1.0000   1.0000   1.0000   1.0000   1.0000   1.0000   1.0000   1.0000
     1.0000   1.0000   1.0000   1.0000   1.0000   1.0000   1.0000   1.0000
     1.0000   1.0000   1.0000   1.0000   1.0000   1.0000   1.0000   1.0000
     1.0000   1.0000   1.0000   1.0000   1.0000   1.0000   1.0000   1.0000
     1.0000   1.0000   1.0000   1.0000   1.0000   1.0000   1.0000   1.0000
     1.0000   1.0000   1.0000   1.0000   1.0000   1.0000   1.0000   1.0000
     1.0000   1.0000   1.0000   1.0000   1.0000   1.0000   1.0000   1.0000
     1.0000   1.0000   1.0000   1.0000   1.0000   1.0000   1.0000   1.0000
     1.0000   1.0000   1.0000   1.0000   1.0000   1.0000   1.0000   1.0000
     1.0000   1.0000   1.0000   1.0000   1.0000   1.0000   1.0000   1.0000
     1.0000   1.0000   1.0000   1.0000   1.0000   1.0000   1.0000   1.0000
     1.0000   1.0000   1.0000   1.0000   1.0000   1.0000   1.0000   1.0000
     1.0000   1.0000   1.0000   1.0000   1.0000   1.0000   1.0000   1.0000
     1.0000   1.0000   1.0000   1.0000   1.0000   1.0000   1.0000   1.0000
     1.0000   1.0000   1.0000   1.0000   1.0000   1.0000   1.0000   1.0000
     1.0000   1.0000   1.0000   1.0000   1.0000   1.0000   1.0000   1.0000
     1.0000   1.0000   1.0000   1.0000   1.0000   1.0000   1.0000   1.0000
     1.0000   1.0000   1.0000   1.0000   1.0000   1.0000   1.0000   1.0000
     1.0000   1.0000   1.0000   1.0000   1.0000   1.0000   1.0000   1.0000
     1.0000   1.0000   1.0000   1.0000   1.0000   1.0000   1.0000   1.0000
     1.0000   1.0000   1.0000   1.0000   1.0000   1.0000   1.0000   1.0000
     1.0000   1.0000   1.0000   1.0000   1.0000   1.0000   1.0000   1.0000
     1.0000   1.0000   1.0000   1.0000   1.0000   1.0000   1.0000   1.0000
     1.0000   1.0000   1.0000   1.0000   1.0000   1.0000   1.0000   1.0000
     1.0000   1.0000   1.0000   1.0000   1.0000   1.0000   1.0000   1.0000
     1.0000   1.0000   1.0000   1.0000   1.0000   1.0000   1.0000   1.0000
     1.0000   1.0000   1.0000   1.0000   1.0000   1.0000   1.0000   1.0000
     1.0000   1.0000   1.0000   1.0000   1.0000   1.0000   1.0000   1.0000
     1.0000   1.0000   1.0000   1.0000   1.0000   1.0000   1.0000   1.0000
     1.0000   1.0000   1.0000   1.0000   1.0000   1.0000   1.0000   1.0000
     1.0000   1.0000   1.0000   1.0000   1.0000   1.0000   1.0000   1.0000
     1.0000   1.0000   1.0000   1.0000   1.0000   1.0000   1.0000   1.0000
     1.0000   1.0000   1.0000   1.0000   1.0000   1.0000   1.0000   1.0000
     1.0000   1.0000   1.0000   1.0000   1.0000   1.0000   1.0000   1.0000
     1.0000   1.0000   1.0000   1.0000   1.0000   1.0000   1.0000   1.0000
     1.0000   1.0000   1.0000   1.0000   1.0000   1.0000   1.0000   1.0000
     1.0000   1.0000   1.0000   1.0000   0.5460   0.0000   0.0000   0.0000
     0.0000   0.0000   0.0000   0.0000   0.0000   0.0000   0.0000   0.0000
     0.0000   0.0000   0.0000   0.0000   0.0000   0.0000   0.0000   0.0000
     0.0000   0.0000   0.0000   0.0000   0.0000   0.0000   0.0000   0.0000
     0.0000   0.0000   0.0000   0.0000   0.0000   0.0000   0.0000   0.0000
     0.0000   0.0000   0.0000   0.0000   0.0000   0.0000   0.0000   0.0000
     0.0000   0.0000   0.0000   0.0000   0.0000   0.0000   0.0000   0.0000
     0.0000   0.0000   0.0000   0.0000   0.0000   0.0000   0.0000   0.0000
     0.0000   0.0000   0.0000   0.0000   0.0000   0.0000   0.0000   0.0000
     0.0000   0.0000   0.0000   0.0000   0.0000   0.0000   0.0000   0.0000

          k = 0.0000 0.1443 0.1533 ( 51348 PWs)   bands (ev):

    -6.4397  -6.2945  -6.0707  -5.9123  -5.8632  -5.8618  -5.8555  -5.8285
    -5.7909  -5.7896  -5.7868  -5.7734  -5.7538  -5.7321  -5.7250  -5.7214
    -5.7198  -5.6940  -5.6896  -5.6791  -5.6725  -5.6458  -5.6444  -5.6318
    -5.6212  -5.6107  -5.6078  -5.5932  -5.5912  -5.5892  -5.5836  -5.5829
    -5.5766  -5.5762  -5.5719  -5.5705  -5.5662  -5.5655  -5.5623  -5.5615
    -5.5575  -5.5549  -5.5514  -5.5511  -5.5469  -5.5436  -5.5423  -5.5364
    -5.5357  -5.5262  -5.5242  -5.4957  -5.4956  -4.2542  -4.2056  -4.1993
    -4.1964  -4.1907  -4.1906  -4.1847  -4.1844  -4.1763  -4.1760  -4.1684
    -4.1663  -4.1662  -4.1642  -4.1633  -4.1606  -4.1587  -4.1585  -4.1558
    -4.1542  -4.1525  -4.1508  -4.1498  -4.1491  -4.1470  -4.1458  -4.1451
    -4.1442  -4.1441  -4.1417  -4.1397  -4.1387  -4.1372  -4.1354  -4.1354
    -4.1328  -4.1319  -4.1281  -4.1272  -4.1260  -4.1246  -4.1234  -4.1223
    -4.1182  -4.1179  -4.1170  -4.1167  -4.1153  -4.1130  -4.1116  -4.1114
    -4.1080  -4.1040  -4.1021  -4.0998  -4.0949  -4.0920  -4.0904  -4.0888
    -4.0874  -4.0858  -4.0847  -4.0843  -4.0819  -4.0815  -4.0800  -4.0778
    -4.0750  -4.0735  -4.0713  -4.0696  -4.0654  -4.0650  -4.0616  -4.0608
    -4.0569  -4.0565  -4.0538  -4.0535  -4.0520  -4.0486  -4.0468  -4.0444
    -4.0427  -4.0395  -4.0380  -4.0353  -4.0338  -4.0323  -4.0311  -4.0285
    -4.0282  -4.0243  -4.0207  -4.0199  -4.0181  -4.0160  -4.0134  -4.0133
    -4.0117  -4.0113  -4.0095  -4.0075  -4.0056  -4.0043  -4.0025  -4.0019
    -4.0006  -4.0002  -3.9990  -3.9980  -3.9970  -3.9962  -3.9942  -3.9932
    -3.9921  -3.9895  -3.9893  -3.9878  -3.9864  -3.9831  -3.9827  -3.9826
    -3.9809  -3.9789  -3.9770  -3.9762  -3.9753  -3.9732  -3.9727  -3.9706
    -3.9698  -3.9690  -3.9657  -3.9652  -3.9645  -3.9636  -3.9627  -3.9612
    -3.9602  -3.9584  -3.9575  -3.9568  -3.9560  -3.9541  -3.9531  -3.9521
    -3.9513  -3.9490  -3.9490  -3.9482  -3.9469  -3.9448  -3.9417  -3.9404
    -3.9384  -3.9370  -3.9368  -3.9366  -3.9366  -3.9317  -3.9310  -3.9282
    -3.9277  -3.9269  -3.9260  -3.9232  -3.9231  -3.9217  -3.9198  -3.9194
    -3.9175  -3.9171  -3.9159  -3.9158  -3.9138  -3.9100  -3.9093  -3.9073
    -3.9060  -3.9053  -3.9029  -3.9028  -3.8994  -3.8987  -3.8976  -3.8976
    -3.8961  -3.8945  -3.8935  -3.8898  -3.8889  -3.8858  -3.8848  -3.8814
    -3.8813  -3.8805  -3.8782  -3.8774  -3.8762  -3.8688  -3.8677  -3.8656
    -3.8636  -3.8627  -3.8605  -3.8499  -3.8496  -3.8444  -3.8290  -3.7933
    -3.7903  -3.7725  -3.7698  -3.7425  -3.7406  -3.7327  -3.7322  -3.6806
    -3.6346  -3.6287  -3.6093  -3.5837  -3.5791  -3.5629  -3.4754  -3.4624
    -3.3721  -3.3665  -3.3510  -3.2778  -3.2714  -3.2575  -3.2476  -3.2179
    -3.1455  -3.1138  -3.0534  -3.0301  -2.9885  -2.9370  -2.8959  -2.8517
    -2.7257  -2.7152  -2.6802  -2.6186  -2.5442  -2.4762  -2.4526  -2.3594
    -2.3571  -2.3308  -2.3284  -2.3148  -2.2954  -2.2662  -2.2454  -2.2231
    -2.2173  -2.1863  -2.1780  -2.1669  -2.1532  -2.1368  -2.1231  -2.1114
    -2.1085  -2.0900  -2.0852  -0.1326   2.5404   3.1560   3.2074   3.2188
     3.2585   3.2795   3.2833   3.3087   3.3106   3.3207   3.3626   3.3717
     3.3792   3.4032   3.4128   3.4301   3.4382   3.4615   3.4956   3.5328
     3.5650   3.5780   3.6336   3.6439   3.6750   3.7070   3.7433   3.7627
     3.8817   3.9052   3.9184   3.9443   3.9978   4.0260   4.1001   4.2210
     4.3624   4.3900   4.3979   4.4013   4.4313   4.4314   4.4953   4.5401
     4.5621   4.5958   4.6066   4.6400   4.7435   4.7671   4.7801   4.8683
     4.9112   4.9517   5.0326   5.0362   5.1044   5.1727   5.2185   5.2449
     5.5690   5.6011   5.6320   5.6322   5.7039   5.7108   5.7383   5.7593
     5.7780   5.8194   5.8813   6.2268   6.2358   6.2420   6.2450   6.2699
     6.6464   6.6475   6.6787   6.6925   6.7172   6.7412   6.7491   6.7600
     6.7820   6.8293   6.8456   6.8572   6.8652   6.9320   6.9798   6.9977
     7.0032   7.0190   7.0478   7.0631   7.1734   7.1950   7.2178   7.3309
     7.3429   7.3519   7.3629   7.3874   7.4051   7.5066   7.5198   7.6167
     7.6189   7.6398   7.6430   7.6616   7.6651   7.6832   7.6876   7.7101
     7.7378   7.7846   7.7988   7.8112   7.8381   7.8435   7.8709   7.9278
     7.9402   7.9485   7.9693   7.9965   8.0234   8.0702   8.0805   8.1480
     8.1596   8.1690   8.1787   8.1843   8.2033   8.2039   8.2412   8.2608
     8.2831   8.3083   8.3191   8.3389   8.3724   8.3847   8.3985   8.4250
     8.4719   8.5031   8.5294   8.6078   8.6675   8.6851   8.7486   8.8893
     8.9519   8.9541   9.1540   9.1801   9.3667   9.4401  11.4000  12.3231
    13.1636  13.4601  13.5241  13.5457  13.5561  13.5660  13.5863  13.6099
    13.6215  13.6395  13.6622  13.7026  13.7155  13.7643  13.8601  13.8659
    13.8746  13.8792  13.9750  14.0214  14.0431  14.1574  14.2374  14.3498
    14.4075  14.5477  14.5643  14.5806  14.5813  14.6266  14.6688  14.7472
    14.8391  14.8516  14.8815  14.9320  15.0063  15.0262  15.0361  15.0560
    15.0577  15.1204  15.1251  15.2263  15.3381  15.4265  15.5501  15.6805
    15.8230  15.8624  15.8895  16.0155  16.0609  16.0876  16.1319  16.2314
    16.2461  16.2680  16.2965  16.2994  16.3073  16.3290  16.3418  16.4090
    16.4461  16.4895  16.5054  16.5338  16.5563  16.5873  16.6162  16.6552

     occupation numbers 
     1.0000   1.0000   1.0000   1.0000   1.0000   1.0000   1.0000   1.0000
     1.0000   1.0000   1.0000   1.0000   1.0000   1.0000   1.0000   1.0000
     1.0000   1.0000   1.0000   1.0000   1.0000   1.0000   1.0000   1.0000
     1.0000   1.0000   1.0000   1.0000   1.0000   1.0000   1.0000   1.0000
     1.0000   1.0000   1.0000   1.0000   1.0000   1.0000   1.0000   1.0000
     1.0000   1.0000   1.0000   1.0000   1.0000   1.0000   1.0000   1.0000
     1.0000   1.0000   1.0000   1.0000   1.0000   1.0000   1.0000   1.0000
     1.0000   1.0000   1.0000   1.0000   1.0000   1.0000   1.0000   1.0000
     1.0000   1.0000   1.0000   1.0000   1.0000   1.0000   1.0000   1.0000
     1.0000   1.0000   1.0000   1.0000   1.0000   1.0000   1.0000   1.0000
     1.0000   1.0000   1.0000   1.0000   1.0000   1.0000   1.0000   1.0000
     1.0000   1.0000   1.0000   1.0000   1.0000   1.0000   1.0000   1.0000
     1.0000   1.0000   1.0000   1.0000   1.0000   1.0000   1.0000   1.0000
     1.0000   1.0000   1.0000   1.0000   1.0000   1.0000   1.0000   1.0000
     1.0000   1.0000   1.0000   1.0000   1.0000   1.0000   1.0000   1.0000
     1.0000   1.0000   1.0000   1.0000   1.0000   1.0000   1.0000   1.0000
     1.0000   1.0000   1.0000   1.0000   1.0000   1.0000   1.0000   1.0000
     1.0000   1.0000   1.0000   1.0000   1.0000   1.0000   1.0000   1.0000
     1.0000   1.0000   1.0000   1.0000   1.0000   1.0000   1.0000   1.0000
     1.0000   1.0000   1.0000   1.0000   1.0000   1.0000   1.0000   1.0000
     1.0000   1.0000   1.0000   1.0000   1.0000   1.0000   1.0000   1.0000
     1.0000   1.0000   1.0000   1.0000   1.0000   1.0000   1.0000   1.0000
     1.0000   1.0000   1.0000   1.0000   1.0000   1.0000   1.0000   1.0000
     1.0000   1.0000   1.0000   1.0000   1.0000   1.0000   1.0000   1.0000
     1.0000   1.0000   1.0000   1.0000   1.0000   1.0000   1.0000   1.0000
     1.0000   1.0000   1.0000   1.0000   1.0000   1.0000   1.0000   1.0000
     1.0000   1.0000   1.0000   1.0000   1.0000   1.0000   1.0000   1.0000
     1.0000   1.0000   1.0000   1.0000   1.0000   1.0000   1.0000   1.0000
     1.0000   1.0000   1.0000   1.0000   1.0000   1.0000   1.0000   1.0000
     1.0000   1.0000   1.0000   1.0000   1.0000   1.0000   1.0000   1.0000
     1.0000   1.0000   1.0000   1.0000   1.0000   1.0000   1.0000   1.0000
     1.0000   1.0000   1.0000   1.0000   1.0000   1.0000   1.0000   1.0000
     1.0000   1.0000   1.0000   1.0000   1.0000   1.0000   1.0000   1.0000
     1.0000   1.0000   1.0000   1.0000   1.0000   1.0000   1.0000   1.0000
     1.0000   1.0000   1.0000   1.0000   1.0000   1.0000   1.0000   1.0000
     1.0000   1.0000   1.0000   1.0000   1.0000   1.0000   1.0000   1.0000
     1.0000   1.0000   1.0000   1.0000   1.0000   1.0000   1.0000   1.0000
     1.0000   1.0000   1.0000   1.0000   1.0000   1.0000   1.0000   1.0000
     1.0000   1.0000   1.0000   1.0000   1.0000   1.0000   1.0000   1.0000
     1.0000   1.0000   1.0000   1.0000   1.0000   1.0000   1.0000   1.0000
     1.0000   1.0000   1.0000   1.0000   1.0000   1.0000   1.0000   1.0000
     1.0000   1.0000   1.0000   1.0000   1.0000   1.0000   1.0000   1.0000
     1.0000   1.0000   1.0000   1.0000   1.0000   1.0000   1.0000   1.0000
     1.0000   1.0000   1.0000   1.0000   1.0000   1.0000   1.0000   1.0000
     1.0000   1.0000   1.0000   1.0000   1.0000   1.0000   1.0000   1.0000
     1.0000   1.0000   1.0000   1.0000   1.0000   1.0000   1.0000   1.0000
     1.0000   1.0000   1.0000   1.0000   1.0000   1.0000   1.0000   1.0000
     1.0000   1.0000   1.0000   1.0000   1.0000   1.0000   1.0000   1.0000
     1.0000   1.0000   1.0000   1.0000   1.0000   1.0000   1.0000   1.0000
     1.0000   1.0000   1.0000   1.0000   1.0000   1.0000   1.0000   1.0000
     1.0000   1.0000   1.0000   1.0000   1.0000   1.0000   1.0000   1.0000
     1.0000   1.0000   1.0000   1.0000   1.0000   1.0000   1.0000   1.0000
     1.0000   1.0000   1.0000   1.0000   1.0000   1.0000   1.0000   1.0000
     1.0000   1.0000   1.0000   1.0000   1.0000   1.0000   1.0000   1.0000
     1.0000   1.0000   1.0000   1.0000   1.0000   1.0000   1.0000   1.0000
     1.0000   1.0000   1.0000   1.0000   1.0000   1.0000   1.0000   1.0000
     1.0000   1.0000   1.0000   1.0000   1.0000   1.0000   1.0000   1.0000
     1.0000   1.0000   1.0000   1.0000   1.0000   1.0000   1.0000   1.0000
     1.0000   1.0000   1.0000   1.0000   1.0000   1.0000   1.0000   1.0000
     1.0000   1.0000   1.0000   1.0000   1.0000   1.0000   1.0000   1.0000
     1.0000   1.0000   1.0000   1.0000   0.2789   0.0000   0.0000   0.0000
     0.0000   0.0000   0.0000   0.0000   0.0000   0.0000   0.0000   0.0000
     0.0000   0.0000   0.0000   0.0000   0.0000   0.0000   0.0000   0.0000
     0.0000   0.0000   0.0000   0.0000   0.0000   0.0000   0.0000   0.0000
     0.0000   0.0000   0.0000   0.0000   0.0000   0.0000   0.0000   0.0000
     0.0000   0.0000   0.0000   0.0000   0.0000   0.0000   0.0000   0.0000
     0.0000   0.0000   0.0000   0.0000   0.0000   0.0000   0.0000   0.0000
     0.0000   0.0000   0.0000   0.0000   0.0000   0.0000   0.0000   0.0000
     0.0000   0.0000   0.0000   0.0000   0.0000   0.0000   0.0000   0.0000
     0.0000   0.0000   0.0000   0.0000   0.0000   0.0000   0.0000   0.0000

          k = 0.0000 0.1443-0.3067 ( 51302 PWs)   bands (ev):

    -6.4011  -6.3636  -5.9603  -5.9556  -5.8902  -5.8704  -5.8439  -5.8374
    -5.8226  -5.8095  -5.7722  -5.7687  -5.7517  -5.7511  -5.7397  -5.7100
    -5.7023  -5.6872  -5.6715  -5.6689  -5.6481  -5.6448  -5.6416  -5.6380
    -5.6138  -5.6113  -5.6101  -5.6072  -5.5950  -5.5925  -5.5862  -5.5861
    -5.5813  -5.5743  -5.5735  -5.5700  -5.5699  -5.5668  -5.5614  -5.5610
    -5.5568  -5.5553  -5.5501  -5.5498  -5.5489  -5.5449  -5.5436  -5.5336
    -5.5333  -5.5252  -5.5239  -5.4956  -5.4954  -4.2542  -4.2019  -4.1992
    -4.1942  -4.1862  -4.1845  -4.1829  -4.1803  -4.1758  -4.1732  -4.1724
    -4.1713  -4.1706  -4.1690  -4.1688  -4.1664  -4.1640  -4.1636  -4.1573
    -4.1537  -4.1523  -4.1516  -4.1493  -4.1481  -4.1469  -4.1462  -4.1432
    -4.1420  -4.1409  -4.1399  -4.1397  -4.1378  -4.1374  -4.1366  -4.1358
    -4.1344  -4.1328  -4.1322  -4.1308  -4.1288  -4.1252  -4.1250  -4.1238
    -4.1227  -4.1222  -4.1210  -4.1205  -4.1192  -4.1175  -4.1153  -4.1145
    -4.1112  -4.1036  -4.0922  -4.0908  -4.0876  -4.0873  -4.0856  -4.0849
    -4.0832  -4.0797  -4.0792  -4.0769  -4.0752  -4.0751  -4.0732  -4.0728
    -4.0724  -4.0700  -4.0690  -4.0689  -4.0657  -4.0646  -4.0641  -4.0628
    -4.0610  -4.0597  -4.0580  -4.0575  -4.0562  -4.0556  -4.0496  -4.0476
    -4.0462  -4.0426  -4.0425  -4.0389  -4.0364  -4.0319  -4.0305  -4.0276
    -4.0270  -4.0262  -4.0245  -4.0243  -4.0196  -4.0174  -4.0157  -4.0139
    -4.0133  -4.0124  -4.0091  -4.0088  -4.0075  -4.0046  -4.0022  -4.0016
    -4.0002  -3.9999  -3.9994  -3.9975  -3.9969  -3.9956  -3.9944  -3.9935
    -3.9927  -3.9888  -3.9879  -3.9845  -3.9841  -3.9805  -3.9794  -3.9774
    -3.9770  -3.9758  -3.9742  -3.9732  -3.9724  -3.9715  -3.9712  -3.9692
    -3.9682  -3.9658  -3.9650  -3.9641  -3.9639  -3.9618  -3.9611  -3.9606
    -3.9599  -3.9583  -3.9575  -3.9570  -3.9550  -3.9541  -3.9539  -3.9515
    -3.9503  -3.9503  -3.9489  -3.9474  -3.9466  -3.9432  -3.9420  -3.9402
    -3.9387  -3.9373  -3.9369  -3.9355  -3.9330  -3.9312  -3.9306  -3.9281
    -3.9272  -3.9244  -3.9232  -3.9227  -3.9219  -3.9209  -3.9192  -3.9188
    -3.9182  -3.9175  -3.9141  -3.9140  -3.9128  -3.9107  -3.9104  -3.9080
    -3.9072  -3.9067  -3.9041  -3.9024  -3.9007  -3.9003  -3.8985  -3.8968
    -3.8964  -3.8946  -3.8888  -3.8881  -3.8852  -3.8844  -3.8818  -3.8815
    -3.8797  -3.8795  -3.8776  -3.8755  -3.8701  -3.8678  -3.8656  -3.8632
    -3.8626  -3.8610  -3.8505  -3.8496  -3.8455  -3.8447  -3.8127  -3.7949
    -3.7904  -3.7846  -3.7698  -3.7696  -3.7416  -3.7406  -3.7327  -3.7189
    -3.6618  -3.6394  -3.6279  -3.6128  -3.5571  -3.5544  -3.5256  -3.5085
    -3.3473  -3.3436  -3.3195  -3.3108  -3.2404  -3.2088  -3.1889  -3.1694
    -3.0906  -3.0868  -3.0839  -3.0395  -2.9042  -2.9028  -2.8987  -2.8909
    -2.8669  -2.8510  -2.8136  -2.7189  -2.3614  -2.3493  -2.3267  -2.3228
    -2.3123  -2.3046  -2.2996  -2.2890  -2.2855  -2.2703  -2.2212  -2.2191
    -2.2171  -2.2157  -2.2095  -2.2020  -2.1994  -2.1899  -2.1727  -2.1350
    -2.1259  -2.1133  -2.1072  -0.1348   2.8806   2.8925   3.1808   3.1902
     3.2029   3.2150   3.2211   3.2331   3.3042   3.3102   3.3240   3.3395
     3.4539   3.4638   3.4638   3.4701   3.4743   3.4872   3.4987   3.5424
     3.5816   3.5883   3.5983   3.6312   3.6691   3.7031   3.7035   3.7463
     3.8249   3.8347   3.8523   3.8837   4.1012   4.1189   4.1311   4.1553
     4.3343   4.3706   4.4048   4.4305   4.4320   4.4450   4.4748   4.4927
     4.5691   4.5775   4.6040   4.6843   4.8989   4.9035   4.9333   4.9803
     5.0741   5.1233   5.3031   5.3050   5.3073   5.3095   5.3189   5.3257
     5.3264   5.3464   5.3620   5.3944   5.4692   5.4883   5.5102   5.5286
     5.5612   5.6093   5.7103   5.8045   6.4586   6.4612   6.4815   6.4953
     6.5461   6.5571   6.5614   6.6031   6.8849   6.8906   6.8996   6.9097
     6.9348   6.9481   7.0057   7.0098   7.0139   7.0498   7.0583   7.0629
     7.0948   7.1364   7.1917   7.1930   7.1971   7.1988   7.2093   7.2198
     7.2204   7.2247   7.2419   7.2632   7.2814   7.3176   7.3186   7.4146
     7.5614   7.5770   7.5855   7.5972   7.6138   7.6205   7.7117   7.7158
     7.7348   7.7898   7.8038   7.8189   7.8411   7.8456   7.8538   7.9075
     7.9092   7.9245   8.0081   8.0122   8.0234   8.0951   8.1807   8.2199
     8.2237   8.2326   8.2355   8.2646   8.2756   8.2823   8.2931   8.2955
     8.3007   8.3128   8.3161   8.3250   8.3426   8.3592   8.3695   8.4143
     8.4159   8.4596   8.5359   8.5516   8.6228   8.6457   8.7209   8.8425
     8.8792   8.9250   9.1653   9.1743   9.3675   9.4351  11.8036  11.8610
    13.4150  13.4268  13.4889  13.5317  13.5853  13.6086  13.7149  13.7183
    13.7300  13.7330  13.7532  13.7705  13.8033  13.8058  13.8126  13.8400
    13.8484  13.9297  13.9967  14.0019  14.0141  14.0859  14.1786  14.1898
    14.1961  14.2057  14.2464  14.4573  14.6784  14.7266  14.8005  14.8032
    14.8158  14.8180  14.8749  14.8845  14.8930  14.9479  15.0383  15.0608
    15.0674  15.0813  15.0884  15.2124  15.3604  15.3689  15.3696  15.6181
    16.0898  16.1052  16.1141  16.1188  16.1253  16.1590  16.1634  16.1828
    16.1866  16.2182  16.2617  16.2769  16.2859  16.3089  16.3510  16.4393
    16.6368  16.6372  16.6479  16.6523  16.7245  16.7314  16.7528  16.7741

     occupation numbers 
     1.0000   1.0000   1.0000   1.0000   1.0000   1.0000   1.0000   1.0000
     1.0000   1.0000   1.0000   1.0000   1.0000   1.0000   1.0000   1.0000
     1.0000   1.0000   1.0000   1.0000   1.0000   1.0000   1.0000   1.0000
     1.0000   1.0000   1.0000   1.0000   1.0000   1.0000   1.0000   1.0000
     1.0000   1.0000   1.0000   1.0000   1.0000   1.0000   1.0000   1.0000
     1.0000   1.0000   1.0000   1.0000   1.0000   1.0000   1.0000   1.0000
     1.0000   1.0000   1.0000   1.0000   1.0000   1.0000   1.0000   1.0000
     1.0000   1.0000   1.0000   1.0000   1.0000   1.0000   1.0000   1.0000
     1.0000   1.0000   1.0000   1.0000   1.0000   1.0000   1.0000   1.0000
     1.0000   1.0000   1.0000   1.0000   1.0000   1.0000   1.0000   1.0000
     1.0000   1.0000   1.0000   1.0000   1.0000   1.0000   1.0000   1.0000
     1.0000   1.0000   1.0000   1.0000   1.0000   1.0000   1.0000   1.0000
     1.0000   1.0000   1.0000   1.0000   1.0000   1.0000   1.0000   1.0000
     1.0000   1.0000   1.0000   1.0000   1.0000   1.0000   1.0000   1.0000
     1.0000   1.0000   1.0000   1.0000   1.0000   1.0000   1.0000   1.0000
     1.0000   1.0000   1.0000   1.0000   1.0000   1.0000   1.0000   1.0000
     1.0000   1.0000   1.0000   1.0000   1.0000   1.0000   1.0000   1.0000
     1.0000   1.0000   1.0000   1.0000   1.0000   1.0000   1.0000   1.0000
     1.0000   1.0000   1.0000   1.0000   1.0000   1.0000   1.0000   1.0000
     1.0000   1.0000   1.0000   1.0000   1.0000   1.0000   1.0000   1.0000
     1.0000   1.0000   1.0000   1.0000   1.0000   1.0000   1.0000   1.0000
     1.0000   1.0000   1.0000   1.0000   1.0000   1.0000   1.0000   1.0000
     1.0000   1.0000   1.0000   1.0000   1.0000   1.0000   1.0000   1.0000
     1.0000   1.0000   1.0000   1.0000   1.0000   1.0000   1.0000   1.0000
     1.0000   1.0000   1.0000   1.0000   1.0000   1.0000   1.0000   1.0000
     1.0000   1.0000   1.0000   1.0000   1.0000   1.0000   1.0000   1.0000
     1.0000   1.0000   1.0000   1.0000   1.0000   1.0000   1.0000   1.0000
     1.0000   1.0000   1.0000   1.0000   1.0000   1.0000   1.0000   1.0000
     1.0000   1.0000   1.0000   1.0000   1.0000   1.0000   1.0000   1.0000
     1.0000   1.0000   1.0000   1.0000   1.0000   1.0000   1.0000   1.0000
     1.0000   1.0000   1.0000   1.0000   1.0000   1.0000   1.0000   1.0000
     1.0000   1.0000   1.0000   1.0000   1.0000   1.0000   1.0000   1.0000
     1.0000   1.0000   1.0000   1.0000   1.0000   1.0000   1.0000   1.0000
     1.0000   1.0000   1.0000   1.0000   1.0000   1.0000   1.0000   1.0000
     1.0000   1.0000   1.0000   1.0000   1.0000   1.0000   1.0000   1.0000
     1.0000   1.0000   1.0000   1.0000   1.0000   1.0000   1.0000   1.0000
     1.0000   1.0000   1.0000   1.0000   1.0000   1.0000   1.0000   1.0000
     1.0000   1.0000   1.0000   1.0000   1.0000   1.0000   1.0000   1.0000
     1.0000   1.0000   1.0000   1.0000   1.0000   1.0000   1.0000   1.0000
     1.0000   1.0000   1.0000   1.0000   1.0000   1.0000   1.0000   1.0000
     1.0000   1.0000   1.0000   1.0000   1.0000   1.0000   1.0000   1.0000
     1.0000   1.0000   1.0000   1.0000   1.0000   1.0000   1.0000   1.0000
     1.0000   1.0000   1.0000   1.0000   1.0000   1.0000   1.0000   1.0000
     1.0000   1.0000   1.0000   1.0000   1.0000   1.0000   1.0000   1.0000
     1.0000   1.0000   1.0000   1.0000   1.0000   1.0000   1.0000   1.0000
     1.0000   1.0000   1.0000   1.0000   1.0000   1.0000   1.0000   1.0000
     1.0000   1.0000   1.0000   1.0000   1.0000   1.0000   1.0000   1.0000
     1.0000   1.0000   1.0000   1.0000   1.0000   1.0000   1.0000   1.0000
     1.0000   1.0000   1.0000   1.0000   1.0000   1.0000   1.0000   1.0000
     1.0000   1.0000   1.0000   1.0000   1.0000   1.0000   1.0000   1.0000
     1.0000   1.0000   1.0000   1.0000   1.0000   1.0000   1.0000   1.0000
     1.0000   1.0000   1.0000   1.0000   1.0000   1.0000   1.0000   1.0000
     1.0000   1.0000   1.0000   1.0000   1.0000   1.0000   1.0000   1.0000
     1.0000   1.0000   1.0000   1.0000   1.0000   1.0000   1.0000   1.0000
     1.0000   1.0000   1.0000   1.0000   1.0000   1.0000   1.0000   1.0000
     1.0000   1.0000   1.0000   1.0000   1.0000   1.0000   1.0000   1.0000
     1.0000   1.0000   1.0000   1.0000   1.0000   1.0000   1.0000   1.0000
     1.0000   1.0000   1.0000   1.0000   1.0000   1.0000   1.0000   1.0000
     1.0000   1.0000   1.0000   1.0000   1.0000   1.0000   1.0000   1.0000
     1.0000   1.0000   1.0000   1.0000   1.0000   1.0000   1.0000   1.0000
     1.0000   1.0000   1.0000   1.0000   0.2988   0.0000   0.0000   0.0000
     0.0000   0.0000   0.0000   0.0000   0.0000   0.0000   0.0000   0.0000
     0.0000   0.0000   0.0000   0.0000   0.0000   0.0000   0.0000   0.0000
     0.0000   0.0000   0.0000   0.0000   0.0000   0.0000   0.0000   0.0000
     0.0000   0.0000   0.0000   0.0000   0.0000   0.0000   0.0000   0.0000
     0.0000   0.0000   0.0000   0.0000   0.0000   0.0000   0.0000   0.0000
     0.0000   0.0000   0.0000   0.0000   0.0000   0.0000   0.0000   0.0000
     0.0000   0.0000   0.0000   0.0000   0.0000   0.0000   0.0000   0.0000
     0.0000   0.0000   0.0000   0.0000   0.0000   0.0000   0.0000   0.0000
     0.0000   0.0000   0.0000   0.0000   0.0000   0.0000   0.0000   0.0000

          k = 0.0000 0.2887 0.0000 ( 51284 PWs)   bands (ev):

    -6.4110  -6.1586  -6.1416  -6.0220  -5.9013  -5.8933  -5.8528  -5.8409
    -5.7695  -5.7668  -5.7638  -5.7584  -5.7565  -5.7548  -5.7518  -5.7321
    -5.7121  -5.6616  -5.6603  -5.6583  -5.6531  -5.6522  -5.6385  -5.6333
    -5.6299  -5.6235  -5.6139  -5.6069  -5.5989  -5.5953  -5.5930  -5.5929
    -5.5821  -5.5708  -5.5693  -5.5663  -5.5647  -5.5626  -5.5598  -5.5593
    -5.5558  -5.5546  -5.5507  -5.5486  -5.5466  -5.5457  -5.5394  -5.5370
    -5.5355  -5.5268  -5.5219  -5.4952  -5.4947  -4.2525  -4.2047  -4.1932
    -4.1899  -4.1887  -4.1876  -4.1818  -4.1775  -4.1719  -4.1699  -4.1678
    -4.1640  -4.1629  -4.1605  -4.1576  -4.1550  -4.1544  -4.1536  -4.1514
    -4.1513  -4.1490  -4.1486  -4.1471  -4.1465  -4.1457  -4.1448  -4.1429
    -4.1428  -4.1385  -4.1381  -4.1364  -4.1363  -4.1346  -4.1338  -4.1323
    -4.1316  -4.1298  -4.1297  -4.1269  -4.1254  -4.1244  -4.1222  -4.1188
    -4.1179  -4.1159  -4.1157  -4.1127  -4.1123  -4.1098  -4.1093  -4.1077
    -4.1074  -4.1056  -4.1048  -4.1036  -4.1014  -4.1002  -4.0981  -4.0967
    -4.0961  -4.0940  -4.0938  -4.0909  -4.0893  -4.0845  -4.0836  -4.0819
    -4.0810  -4.0793  -4.0766  -4.0757  -4.0735  -4.0688  -4.0677  -4.0658
    -4.0639  -4.0610  -4.0608  -4.0575  -4.0558  -4.0525  -4.0524  -4.0487
    -4.0469  -4.0461  -4.0453  -4.0404  -4.0389  -4.0339  -4.0325  -4.0292
    -4.0282  -4.0257  -4.0256  -4.0233  -4.0214  -4.0170  -4.0152  -4.0136
    -4.0114  -4.0106  -4.0090  -4.0080  -4.0055  -4.0050  -4.0036  -4.0026
    -4.0020  -3.9992  -3.9988  -3.9972  -3.9956  -3.9949  -3.9935  -3.9928
    -3.9917  -3.9903  -3.9896  -3.9884  -3.9873  -3.9864  -3.9844  -3.9842
    -3.9828  -3.9806  -3.9797  -3.9787  -3.9786  -3.9779  -3.9771  -3.9754
    -3.9723  -3.9720  -3.9705  -3.9703  -3.9689  -3.9671  -3.9649  -3.9635
    -3.9617  -3.9592  -3.9568  -3.9563  -3.9546  -3.9528  -3.9526  -3.9509
    -3.9503  -3.9489  -3.9482  -3.9472  -3.9449  -3.9418  -3.9404  -3.9386
    -3.9367  -3.9361  -3.9353  -3.9333  -3.9324  -3.9316  -3.9313  -3.9293
    -3.9275  -3.9256  -3.9250  -3.9233  -3.9224  -3.9197  -3.9175  -3.9162
    -3.9146  -3.9145  -3.9122  -3.9119  -3.9100  -3.9097  -3.9073  -3.9065
    -3.9040  -3.9029  -3.9022  -3.9006  -3.9004  -3.8988  -3.8973  -3.8956
    -3.8947  -3.8935  -3.8928  -3.8916  -3.8888  -3.8885  -3.8873  -3.8834
    -3.8829  -3.8787  -3.8786  -3.8759  -3.8759  -3.8745  -3.8713  -3.8674
    -3.8648  -3.8636  -3.8583  -3.8520  -3.8484  -3.8415  -3.8369  -3.8236
    -3.7907  -3.7891  -3.7694  -3.7684  -3.7450  -3.7419  -3.7332  -3.7289
    -3.6674  -3.6490  -3.6413  -3.6242  -3.6210  -3.6100  -3.4449  -3.4446
    -3.4326  -3.4148  -3.3374  -3.3200  -3.2323  -3.2156  -3.0464  -3.0393
    -3.0359  -3.0292  -2.9878  -2.9201  -2.9121  -2.8684  -2.8282  -2.7339
    -2.7320  -2.7258  -2.6825  -2.5730  -2.4940  -2.4876  -2.4519  -2.4495
    -2.4488  -2.4383  -2.4004  -2.3987  -2.3934  -2.3862  -2.3733  -2.2805
    -2.2464  -2.1656  -2.1610  -2.1605  -2.1538  -2.1425  -2.0914  -2.0690
    -2.0477  -2.0358  -2.0268  -0.1272   2.4874   2.9035   2.9202   3.1254
     3.1556   3.1738   3.1790   3.1830   3.1988   3.2177   3.2366   3.2512
     3.2531   3.3581   3.3652   3.3919   3.4202   3.4702   3.4897   3.4947
     3.5104   3.5746   3.5865   3.6082   3.6437   3.8305   3.8455   3.8531
     3.8628   3.9453   3.9564   3.9755   3.9895   4.0438   4.0467   4.0835
     4.1059   4.1234   4.1856   4.3292   4.4548   4.4959   4.7419   4.7509
     4.8369   4.8465   4.8565   4.8875   4.9235   4.9534   5.0223   5.0382
     5.0450   5.0697   5.0769   5.1180   5.1359   5.3757   5.4014   5.4817
     5.7585   5.7914   5.8490   5.8793   6.1476   6.1510   6.1609   6.1694
     6.2193   6.2247   6.2328   6.2337   6.2568   6.2746   6.2999   6.3039
     6.3610   6.3759   6.3911   6.4400   6.4709   6.5242   6.5454   6.7202
     6.8464   6.8536   6.8721   6.9047   6.9117   6.9181   6.9232   6.9271
     6.9391   6.9554   6.9693   7.0217   7.0692   7.1061   7.1500   7.1627
     7.1696   7.1991   7.2108   7.2303   7.2370   7.3062   7.3693   7.4657
     7.6107   7.6257   7.6261   7.6414   7.6677   7.7110   7.7224   7.7307
     7.7410   7.7503   7.7637   7.7737   7.7864   7.8425   7.8655   7.8913
     7.9003   7.9100   7.9334   7.9453   7.9554   8.0105   8.0252   8.0277
     8.0485   8.0581   8.0877   8.1133   8.1311   8.1384   8.1524   8.1693
     8.1720   8.2198   8.2504   8.2934   8.3165   8.3531   8.3709   8.3736
     8.3915   8.4339   8.4837   8.5232   8.6104   8.6604   8.6843   8.8127
     8.8270   8.9172   9.0582   9.0814   9.2723   9.4003  11.6136  12.9796
    13.0073  13.3602  13.3671  13.4078  13.7013  13.7150  13.7214  13.7321
    13.7336  13.7455  13.7851  13.8642  13.8787  13.8855  13.8959  13.9049
    13.9287  13.9590  14.1035  14.2410  14.3103  14.3548  14.4665  14.5407
    14.6319  14.6355  14.6876  14.7932  14.7997  14.8062  14.8694  14.9849
    14.9862  14.9910  14.9946  15.0008  15.0243  15.0875  15.0965  15.1230
    15.1425  15.1641  15.1885  15.3004  15.3496  15.4264  15.4853  15.5505
    15.5953  15.6924  15.7061  15.7102  15.8698  16.1560  16.1916  16.2415
    16.2658  16.3254  16.3300  16.3473  16.3594  16.4009  16.4328  16.4657
    16.4686  16.4818  16.4895  16.5281  16.5320  16.5371  16.5728  16.5803

     occupation numbers 
     1.0000   1.0000   1.0000   1.0000   1.0000   1.0000   1.0000   1.0000
     1.0000   1.0000   1.0000   1.0000   1.0000   1.0000   1.0000   1.0000
     1.0000   1.0000   1.0000   1.0000   1.0000   1.0000   1.0000   1.0000
     1.0000   1.0000   1.0000   1.0000   1.0000   1.0000   1.0000   1.0000
     1.0000   1.0000   1.0000   1.0000   1.0000   1.0000   1.0000   1.0000
     1.0000   1.0000   1.0000   1.0000   1.0000   1.0000   1.0000   1.0000
     1.0000   1.0000   1.0000   1.0000   1.0000   1.0000   1.0000   1.0000
     1.0000   1.0000   1.0000   1.0000   1.0000   1.0000   1.0000   1.0000
     1.0000   1.0000   1.0000   1.0000   1.0000   1.0000   1.0000   1.0000
     1.0000   1.0000   1.0000   1.0000   1.0000   1.0000   1.0000   1.0000
     1.0000   1.0000   1.0000   1.0000   1.0000   1.0000   1.0000   1.0000
     1.0000   1.0000   1.0000   1.0000   1.0000   1.0000   1.0000   1.0000
     1.0000   1.0000   1.0000   1.0000   1.0000   1.0000   1.0000   1.0000
     1.0000   1.0000   1.0000   1.0000   1.0000   1.0000   1.0000   1.0000
     1.0000   1.0000   1.0000   1.0000   1.0000   1.0000   1.0000   1.0000
     1.0000   1.0000   1.0000   1.0000   1.0000   1.0000   1.0000   1.0000
     1.0000   1.0000   1.0000   1.0000   1.0000   1.0000   1.0000   1.0000
     1.0000   1.0000   1.0000   1.0000   1.0000   1.0000   1.0000   1.0000
     1.0000   1.0000   1.0000   1.0000   1.0000   1.0000   1.0000   1.0000
     1.0000   1.0000   1.0000   1.0000   1.0000   1.0000   1.0000   1.0000
     1.0000   1.0000   1.0000   1.0000   1.0000   1.0000   1.0000   1.0000
     1.0000   1.0000   1.0000   1.0000   1.0000   1.0000   1.0000   1.0000
     1.0000   1.0000   1.0000   1.0000   1.0000   1.0000   1.0000   1.0000
     1.0000   1.0000   1.0000   1.0000   1.0000   1.0000   1.0000   1.0000
     1.0000   1.0000   1.0000   1.0000   1.0000   1.0000   1.0000   1.0000
     1.0000   1.0000   1.0000   1.0000   1.0000   1.0000   1.0000   1.0000
     1.0000   1.0000   1.0000   1.0000   1.0000   1.0000   1.0000   1.0000
     1.0000   1.0000   1.0000   1.0000   1.0000   1.0000   1.0000   1.0000
     1.0000   1.0000   1.0000   1.0000   1.0000   1.0000   1.0000   1.0000
     1.0000   1.0000   1.0000   1.0000   1.0000   1.0000   1.0000   1.0000
     1.0000   1.0000   1.0000   1.0000   1.0000   1.0000   1.0000   1.0000
     1.0000   1.0000   1.0000   1.0000   1.0000   1.0000   1.0000   1.0000
     1.0000   1.0000   1.0000   1.0000   1.0000   1.0000   1.0000   1.0000
     1.0000   1.0000   1.0000   1.0000   1.0000   1.0000   1.0000   1.0000
     1.0000   1.0000   1.0000   1.0000   1.0000   1.0000   1.0000   1.0000
     1.0000   1.0000   1.0000   1.0000   1.0000   1.0000   1.0000   1.0000
     1.0000   1.0000   1.0000   1.0000   1.0000   1.0000   1.0000   1.0000
     1.0000   1.0000   1.0000   1.0000   1.0000   1.0000   1.0000   1.0000
     1.0000   1.0000   1.0000   1.0000   1.0000   1.0000   1.0000   1.0000
     1.0000   1.0000   1.0000   1.0000   1.0000   1.0000   1.0000   1.0000
     1.0000   1.0000   1.0000   1.0000   1.0000   1.0000   1.0000   1.0000
     1.0000   1.0000   1.0000   1.0000   1.0000   1.0000   1.0000   1.0000
     1.0000   1.0000   1.0000   1.0000   1.0000   1.0000   1.0000   1.0000
     1.0000   1.0000   1.0000   1.0000   1.0000   1.0000   1.0000   1.0000
     1.0000   1.0000   1.0000   1.0000   1.0000   1.0000   1.0000   1.0000
     1.0000   1.0000   1.0000   1.0000   1.0000   1.0000   1.0000   1.0000
     1.0000   1.0000   1.0000   1.0000   1.0000   1.0000   1.0000   1.0000
     1.0000   1.0000   1.0000   1.0000   1.0000   1.0000   1.0000   1.0000
     1.0000   1.0000   1.0000   1.0000   1.0000   1.0000   1.0000   1.0000
     1.0000   1.0000   1.0000   1.0000   1.0000   1.0000   1.0000   1.0000
     1.0000   1.0000   1.0000   1.0000   1.0000   1.0000   1.0000   1.0000
     1.0000   1.0000   1.0000   1.0000   1.0000   1.0000   1.0000   1.0000
     1.0000   1.0000   1.0000   1.0000   1.0000   1.0000   1.0000   1.0000
     1.0000   1.0000   1.0000   1.0000   1.0000   1.0000   1.0000   1.0000
     1.0000   1.0000   1.0000   1.0000   1.0000   1.0000   1.0000   1.0000
     1.0000   1.0000   1.0000   1.0000   1.0000   1.0000   1.0000   1.0000
     1.0000   1.0000   1.0000   1.0000   1.0000   1.0000   1.0000   1.0000
     1.0000   1.0000   1.0000   1.0000   1.0000   1.0000   1.0000   1.0000
     1.0000   1.0000   1.0000   1.0000   1.0000   1.0000   1.0000   1.0000
     1.0000   1.0000   1.0000   1.0000   1.0000   1.0000   1.0000   1.0000
     1.0000   1.0000   1.0000   1.0000   1.0124  -0.0025   0.0000   0.0000
     0.0000   0.0000   0.0000   0.0000   0.0000   0.0000   0.0000   0.0000
     0.0000   0.0000   0.0000   0.0000   0.0000   0.0000   0.0000   0.0000
     0.0000   0.0000   0.0000   0.0000   0.0000   0.0000   0.0000   0.0000
     0.0000   0.0000   0.0000   0.0000   0.0000   0.0000   0.0000   0.0000
     0.0000   0.0000   0.0000   0.0000   0.0000   0.0000   0.0000   0.0000
     0.0000   0.0000   0.0000   0.0000   0.0000   0.0000   0.0000   0.0000
     0.0000   0.0000   0.0000   0.0000   0.0000   0.0000   0.0000   0.0000
     0.0000   0.0000   0.0000   0.0000   0.0000   0.0000   0.0000   0.0000
     0.0000   0.0000   0.0000   0.0000   0.0000   0.0000   0.0000   0.0000

          k = 0.0000 0.2887 0.1533 ( 51308 PWs)   bands (ev):

    -6.3934  -6.2528  -6.0391  -6.0089  -5.9179  -5.8912  -5.8782  -5.8369
    -5.8126  -5.8016  -5.7776  -5.7463  -5.7429  -5.7181  -5.7122  -5.7056
    -5.6995  -5.6910  -5.6831  -5.6699  -5.6644  -5.6541  -5.6282  -5.6254
    -5.6172  -5.6154  -5.6110  -5.6099  -5.6088  -5.5974  -5.5869  -5.5856
    -5.5812  -5.5777  -5.5769  -5.5711  -5.5681  -5.5622  -5.5603  -5.5601
    -5.5557  -5.5552  -5.5476  -5.5473  -5.5445  -5.5425  -5.5402  -5.5363
    -5.5362  -5.5277  -5.5221  -5.4953  -5.4948  -4.2525  -4.2024  -4.1928
    -4.1905  -4.1862  -4.1859  -4.1783  -4.1781  -4.1697  -4.1696  -4.1668
    -4.1635  -4.1621  -4.1600  -4.1597  -4.1577  -4.1559  -4.1558  -4.1547
    -4.1517  -4.1495  -4.1494  -4.1470  -4.1466  -4.1451  -4.1451  -4.1429
    -4.1424  -4.1419  -4.1401  -4.1386  -4.1374  -4.1361  -4.1339  -4.1339
    -4.1320  -4.1314  -4.1280  -4.1274  -4.1264  -4.1259  -4.1219  -4.1216
    -4.1205  -4.1199  -4.1184  -4.1184  -4.1157  -4.1134  -4.1122  -4.1110
    -4.1094  -4.1074  -4.1050  -4.1021  -4.1010  -4.0995  -4.0944  -4.0943
    -4.0924  -4.0898  -4.0883  -4.0865  -4.0841  -4.0833  -4.0818  -4.0816
    -4.0774  -4.0772  -4.0761  -4.0756  -4.0710  -4.0691  -4.0679  -4.0645
    -4.0634  -4.0619  -4.0597  -4.0563  -4.0560  -4.0520  -4.0501  -4.0471
    -4.0463  -4.0454  -4.0421  -4.0420  -4.0379  -4.0348  -4.0348  -4.0316
    -4.0307  -4.0297  -4.0281  -4.0215  -4.0210  -4.0173  -4.0155  -4.0133
    -4.0127  -4.0099  -4.0082  -4.0082  -4.0053  -4.0047  -4.0032  -4.0025
    -4.0015  -4.0004  -4.0003  -3.9973  -3.9967  -3.9944  -3.9938  -3.9923
    -3.9917  -3.9912  -3.9901  -3.9899  -3.9860  -3.9840  -3.9830  -3.9826
    -3.9820  -3.9795  -3.9787  -3.9777  -3.9773  -3.9751  -3.9746  -3.9724
    -3.9723  -3.9703  -3.9694  -3.9683  -3.9669  -3.9662  -3.9646  -3.9624
    -3.9613  -3.9587  -3.9586  -3.9577  -3.9568  -3.9541  -3.9527  -3.9521
    -3.9505  -3.9498  -3.9475  -3.9465  -3.9460  -3.9430  -3.9415  -3.9412
    -3.9376  -3.9365  -3.9362  -3.9342  -3.9308  -3.9297  -3.9293  -3.9279
    -3.9252  -3.9249  -3.9233  -3.9224  -3.9193  -3.9185  -3.9171  -3.9168
    -3.9154  -3.9137  -3.9123  -3.9113  -3.9098  -3.9097  -3.9074  -3.9064
    -3.9056  -3.9054  -3.9025  -3.9005  -3.8977  -3.8972  -3.8963  -3.8953
    -3.8938  -3.8935  -3.8929  -3.8892  -3.8888  -3.8866  -3.8858  -3.8828
    -3.8815  -3.8782  -3.8777  -3.8768  -3.8736  -3.8715  -3.8712  -3.8672
    -3.8633  -3.8619  -3.8585  -3.8498  -3.8483  -3.8421  -3.8351  -3.8226
    -3.7909  -3.7891  -3.7691  -3.7658  -3.7449  -3.7420  -3.7332  -3.7322
    -3.7226  -3.6433  -3.6389  -3.6194  -3.6188  -3.5678  -3.5318  -3.5196
    -3.5036  -3.3104  -3.2998  -3.2211  -3.2082  -3.1461  -3.1213  -3.1084
    -3.0720  -3.0187  -2.9514  -2.9458  -2.9305  -2.9169  -2.8651  -2.7513
    -2.6773  -2.6474  -2.6179  -2.5985  -2.5189  -2.5159  -2.5034  -2.4878
    -2.4631  -2.4335  -2.4033  -2.3398  -2.3222  -2.3104  -2.2889  -2.2826
    -2.2467  -2.2203  -2.2035  -2.1903  -2.1480  -2.1132  -2.1015  -2.0886
    -2.0687  -2.0525  -2.0447  -0.1296   2.6085   2.9143   2.9820   3.0816
     3.1468   3.1557   3.1976   3.2086   3.2321   3.2740   3.2830   3.2979
     3.3116   3.3117   3.3149   3.3355   3.3566   3.3844   3.4265   3.4354
     3.4739   3.5501   3.5606   3.6539   3.6626   3.6837   3.7050   3.7227
     3.7279   3.7850   3.8683   4.0418   4.0606   4.0653   4.0984   4.2125
     4.2263   4.2851   4.4192   4.4728   4.5132   4.5810   4.6204   4.7438
     4.7444   4.7726   4.8793   4.8852   4.9818   4.9842   5.0718   5.0793
     5.1117   5.1506   5.1535   5.1888   5.2929   5.2935   5.4389   5.6234
     5.7062   5.7373   5.7759   5.7954   5.8247   5.8364   5.8672   5.8851
     5.9060   5.9767   6.0174   6.1267   6.1941   6.3783   6.4319   6.4480
     6.5413   6.5576   6.7010   6.7026   6.7187   6.7247   6.7352   6.7387
     6.7487   6.7627   6.7660   6.8036   6.8460   6.8572   6.9176   6.9343
     6.9553   6.9781   6.9982   7.0375   7.0827   7.1111   7.1694   7.2335
     7.2703   7.3679   7.3791   7.3912   7.4045   7.4156   7.5061   7.5114
     7.5120   7.5302   7.5307   7.5601   7.5886   7.6461   7.6716   7.6916
     7.7002   7.7247   7.7731   7.7828   7.7886   7.8137   7.8205   7.8315
     7.8343   7.8446   7.8609   7.8696   7.9024   7.9259   7.9652   8.0192
     8.0516   8.0884   8.1105   8.1148   8.1445   8.1497   8.1690   8.1902
     8.2225   8.2731   8.2938   8.3032   8.3243   8.3267   8.3701   8.3817
     8.4337   8.4424   8.5049   8.5187   8.5245   8.6352   8.7482   8.7592
     8.7952   8.9079   9.0801   9.1033   9.2368   9.3948  11.7567  12.5522
    13.3706  13.3890  13.4526  13.4945  13.5309  13.7701  13.7958  13.8008
    13.8075  13.8140  13.8343  13.8423  13.8464  13.8826  13.9182  13.9641
    14.0166  14.0609  14.1094  14.1109  14.2207  14.3203  14.3812  14.4613
    14.4624  14.5282  14.5856  14.6929  14.6949  14.7391  14.8067  14.8860
    14.9653  14.9774  14.9981  15.0033  15.0102  15.0316  15.0689  15.0772
    15.1113  15.2250  15.3545  15.3648  15.3737  15.3954  15.4023  15.6056
    15.7181  15.7317  15.7772  15.8962  15.9561  16.1627  16.1790  16.1816
    16.2118  16.2179  16.2755  16.3147  16.3334  16.4202  16.4817  16.5151
    16.5426  16.5563  16.5681  16.6373  16.6630  16.6701  16.6809  16.6998

     occupation numbers 
     1.0000   1.0000   1.0000   1.0000   1.0000   1.0000   1.0000   1.0000
     1.0000   1.0000   1.0000   1.0000   1.0000   1.0000   1.0000   1.0000
     1.0000   1.0000   1.0000   1.0000   1.0000   1.0000   1.0000   1.0000
     1.0000   1.0000   1.0000   1.0000   1.0000   1.0000   1.0000   1.0000
     1.0000   1.0000   1.0000   1.0000   1.0000   1.0000   1.0000   1.0000
     1.0000   1.0000   1.0000   1.0000   1.0000   1.0000   1.0000   1.0000
     1.0000   1.0000   1.0000   1.0000   1.0000   1.0000   1.0000   1.0000
     1.0000   1.0000   1.0000   1.0000   1.0000   1.0000   1.0000   1.0000
     1.0000   1.0000   1.0000   1.0000   1.0000   1.0000   1.0000   1.0000
     1.0000   1.0000   1.0000   1.0000   1.0000   1.0000   1.0000   1.0000
     1.0000   1.0000   1.0000   1.0000   1.0000   1.0000   1.0000   1.0000
     1.0000   1.0000   1.0000   1.0000   1.0000   1.0000   1.0000   1.0000
     1.0000   1.0000   1.0000   1.0000   1.0000   1.0000   1.0000   1.0000
     1.0000   1.0000   1.0000   1.0000   1.0000   1.0000   1.0000   1.0000
     1.0000   1.0000   1.0000   1.0000   1.0000   1.0000   1.0000   1.0000
     1.0000   1.0000   1.0000   1.0000   1.0000   1.0000   1.0000   1.0000
     1.0000   1.0000   1.0000   1.0000   1.0000   1.0000   1.0000   1.0000
     1.0000   1.0000   1.0000   1.0000   1.0000   1.0000   1.0000   1.0000
     1.0000   1.0000   1.0000   1.0000   1.0000   1.0000   1.0000   1.0000
     1.0000   1.0000   1.0000   1.0000   1.0000   1.0000   1.0000   1.0000
     1.0000   1.0000   1.0000   1.0000   1.0000   1.0000   1.0000   1.0000
     1.0000   1.0000   1.0000   1.0000   1.0000   1.0000   1.0000   1.0000
     1.0000   1.0000   1.0000   1.0000   1.0000   1.0000   1.0000   1.0000
     1.0000   1.0000   1.0000   1.0000   1.0000   1.0000   1.0000   1.0000
     1.0000   1.0000   1.0000   1.0000   1.0000   1.0000   1.0000   1.0000
     1.0000   1.0000   1.0000   1.0000   1.0000   1.0000   1.0000   1.0000
     1.0000   1.0000   1.0000   1.0000   1.0000   1.0000   1.0000   1.0000
     1.0000   1.0000   1.0000   1.0000   1.0000   1.0000   1.0000   1.0000
     1.0000   1.0000   1.0000   1.0000   1.0000   1.0000   1.0000   1.0000
     1.0000   1.0000   1.0000   1.0000   1.0000   1.0000   1.0000   1.0000
     1.0000   1.0000   1.0000   1.0000   1.0000   1.0000   1.0000   1.0000
     1.0000   1.0000   1.0000   1.0000   1.0000   1.0000   1.0000   1.0000
     1.0000   1.0000   1.0000   1.0000   1.0000   1.0000   1.0000   1.0000
     1.0000   1.0000   1.0000   1.0000   1.0000   1.0000   1.0000   1.0000
     1.0000   1.0000   1.0000   1.0000   1.0000   1.0000   1.0000   1.0000
     1.0000   1.0000   1.0000   1.0000   1.0000   1.0000   1.0000   1.0000
     1.0000   1.0000   1.0000   1.0000   1.0000   1.0000   1.0000   1.0000
     1.0000   1.0000   1.0000   1.0000   1.0000   1.0000   1.0000   1.0000
     1.0000   1.0000   1.0000   1.0000   1.0000   1.0000   1.0000   1.0000
     1.0000   1.0000   1.0000   1.0000   1.0000   1.0000   1.0000   1.0000
     1.0000   1.0000   1.0000   1.0000   1.0000   1.0000   1.0000   1.0000
     1.0000   1.0000   1.0000   1.0000   1.0000   1.0000   1.0000   1.0000
     1.0000   1.0000   1.0000   1.0000   1.0000   1.0000   1.0000   1.0000
     1.0000   1.0000   1.0000   1.0000   1.0000   1.0000   1.0000   1.0000
     1.0000   1.0000   1.0000   1.0000   1.0000   1.0000   1.0000   1.0000
     1.0000   1.0000   1.0000   1.0000   1.0000   1.0000   1.0000   1.0000
     1.0000   1.0000   1.0000   1.0000   1.0000   1.0000   1.0000   1.0000
     1.0000   1.0000   1.0000   1.0000   1.0000   1.0000   1.0000   1.0000
     1.0000   1.0000   1.0000   1.0000   1.0000   1.0000   1.0000   1.0000
     1.0000   1.0000   1.0000   1.0000   1.0000   1.0000   1.0000   1.0000
     1.0000   1.0000   1.0000   1.0000   1.0000   1.0000   1.0000   1.0000
     1.0000   1.0000   1.0000   1.0000   1.0000   1.0000   1.0000   1.0000
     1.0000   1.0000   1.0000   1.0000   1.0000   1.0000   1.0000   1.0000
     1.0000   1.0000   1.0000   1.0000   1.0000   1.0000   1.0000   1.0000
     1.0000   1.0000   1.0000   1.0000   1.0000   1.0000   1.0000   1.0000
     1.0000   1.0000   1.0000   1.0000   1.0000   1.0000   1.0000   1.0000
     1.0000   1.0000   1.0000   1.0000   1.0000   1.0000   1.0000   1.0000
     1.0000   1.0000   1.0000   1.0000   1.0000   1.0000   1.0000   1.0000
     1.0000   1.0000   1.0000   1.0000   1.0000   1.0000   1.0000   1.0000
     1.0000   1.0000   1.0000   1.0000   1.0000   1.0000   1.0000   1.0000
     1.0000   1.0000   1.0000   1.0000   1.0215  -0.0473   0.0000   0.0000
     0.0000   0.0000   0.0000   0.0000   0.0000   0.0000   0.0000   0.0000
     0.0000   0.0000   0.0000   0.0000   0.0000   0.0000   0.0000   0.0000
     0.0000   0.0000   0.0000   0.0000   0.0000   0.0000   0.0000   0.0000
     0.0000   0.0000   0.0000   0.0000   0.0000   0.0000   0.0000   0.0000
     0.0000   0.0000   0.0000   0.0000   0.0000   0.0000   0.0000   0.0000
     0.0000   0.0000   0.0000   0.0000   0.0000   0.0000   0.0000   0.0000
     0.0000   0.0000   0.0000   0.0000   0.0000   0.0000   0.0000   0.0000
     0.0000   0.0000   0.0000   0.0000   0.0000   0.0000   0.0000   0.0000
     0.0000   0.0000   0.0000   0.0000   0.0000   0.0000   0.0000   0.0000

          k = 0.0000 0.2887-0.3067 ( 51272 PWs)   bands (ev):

    -6.3557  -6.3199  -5.9856  -5.9629  -5.9313  -5.9251  -5.8702  -5.8637
    -5.8485  -5.8293  -5.7338  -5.7311  -5.7188  -5.7174  -5.7137  -5.7134
    -5.6996  -5.6926  -5.6768  -5.6725  -5.6596  -5.6573  -5.6543  -5.6453
    -5.6067  -5.6060  -5.6029  -5.5972  -5.5945  -5.5935  -5.5905  -5.5902
    -5.5890  -5.5831  -5.5767  -5.5761  -5.5747  -5.5666  -5.5607  -5.5590
    -5.5556  -5.5555  -5.5466  -5.5457  -5.5430  -5.5408  -5.5395  -5.5350
    -5.5349  -5.5297  -5.5227  -5.4954  -5.4948  -4.2525  -4.1993  -4.1928
    -4.1926  -4.1812  -4.1802  -4.1776  -4.1726  -4.1713  -4.1686  -4.1679
    -4.1671  -4.1653  -4.1622  -4.1619  -4.1607  -4.1585  -4.1566  -4.1547
    -4.1531  -4.1494  -4.1475  -4.1471  -4.1459  -4.1455  -4.1444  -4.1430
    -4.1421  -4.1409  -4.1401  -4.1396  -4.1388  -4.1357  -4.1355  -4.1334
    -4.1334  -4.1316  -4.1311  -4.1297  -4.1287  -4.1283  -4.1275  -4.1263
    -4.1245  -4.1226  -4.1219  -4.1196  -4.1195  -4.1166  -4.1146  -4.1139
    -4.1106  -4.1098  -4.0993  -4.0981  -4.0968  -4.0958  -4.0952  -4.0913
    -4.0897  -4.0865  -4.0861  -4.0849  -4.0803  -4.0787  -4.0785  -4.0763
    -4.0727  -4.0723  -4.0700  -4.0686  -4.0675  -4.0669  -4.0666  -4.0632
    -4.0614  -4.0604  -4.0594  -4.0584  -4.0558  -4.0553  -4.0533  -4.0506
    -4.0490  -4.0484  -4.0465  -4.0462  -4.0409  -4.0401  -4.0365  -4.0334
    -4.0329  -4.0285  -4.0279  -4.0258  -4.0230  -4.0223  -4.0193  -4.0157
    -4.0127  -4.0109  -4.0087  -4.0085  -4.0058  -4.0053  -4.0032  -4.0015
    -4.0005  -4.0001  -3.9980  -3.9969  -3.9957  -3.9954  -3.9947  -3.9923
    -3.9923  -3.9902  -3.9885  -3.9870  -3.9840  -3.9833  -3.9820  -3.9804
    -3.9796  -3.9782  -3.9759  -3.9759  -3.9748  -3.9731  -3.9721  -3.9705
    -3.9704  -3.9682  -3.9674  -3.9668  -3.9657  -3.9646  -3.9624  -3.9619
    -3.9605  -3.9605  -3.9593  -3.9579  -3.9549  -3.9548  -3.9530  -3.9530
    -3.9506  -3.9501  -3.9488  -3.9476  -3.9462  -3.9437  -3.9429  -3.9410
    -3.9403  -3.9374  -3.9353  -3.9347  -3.9321  -3.9292  -3.9275  -3.9261
    -3.9257  -3.9233  -3.9209  -3.9207  -3.9196  -3.9177  -3.9170  -3.9154
    -3.9146  -3.9136  -3.9134  -3.9116  -3.9106  -3.9099  -3.9081  -3.9077
    -3.9060  -3.9032  -3.9023  -3.8998  -3.8992  -3.8989  -3.8962  -3.8961
    -3.8937  -3.8936  -3.8921  -3.8889  -3.8884  -3.8867  -3.8860  -3.8826
    -3.8808  -3.8798  -3.8776  -3.8750  -3.8736  -3.8713  -3.8670  -3.8650
    -3.8623  -3.8594  -3.8495  -3.8485  -3.8423  -3.8346  -3.8189  -3.8027
    -3.7892  -3.7870  -3.7748  -3.7691  -3.7515  -3.7419  -3.7402  -3.7332
    -3.7322  -3.7081  -3.6332  -3.6294  -3.6098  -3.6092  -3.5792  -3.5653
    -3.3531  -3.3396  -3.1972  -3.1946  -3.1749  -3.1743  -3.1466  -3.1423
    -3.1410  -3.0881  -3.0035  -2.9562  -2.8352  -2.8253  -2.7792  -2.7763
    -2.7750  -2.7327  -2.6508  -2.6173  -2.4763  -2.4743  -2.4725  -2.4600
    -2.4582  -2.4176  -2.3322  -2.3237  -2.3186  -2.3097  -2.2824  -2.2776
    -2.2772  -2.2260  -2.1787  -2.1632  -2.1629  -2.1473  -2.1465  -2.0979
    -2.0821  -2.0720  -2.0644  -0.1319   2.9402   2.9492   2.9710   2.9964
     3.1202   3.1313   3.1845   3.1890   3.1989   3.2079   3.2300   3.2383
     3.2570   3.2770   3.4088   3.4107   3.4220   3.4225   3.4339   3.4476
     3.4784   3.4890   3.4909   3.5108   3.5137   3.5622   3.5681   3.6135
     3.8810   3.8905   3.9057   3.9452   4.0856   4.1267   4.2978   4.3121
     4.3201   4.3388   4.3954   4.4052   4.4277   4.5148   4.7465   4.7539
     4.7586   4.7858   4.7987   4.8252   5.0980   5.1006   5.1359   5.1713
     5.3604   5.3614   5.3787   5.3848   5.4206   5.4291   5.4803   5.5090
     5.5299   5.5438   5.5480   5.5547   5.5658   5.6106   5.6379   5.6470
     5.7023   5.7493   6.1828   6.2550   6.2874   6.2955   6.3033   6.3586
     6.5952   6.5989   6.6233   6.6450   6.6750   6.6828   6.7085   6.7258
     6.7927   6.8452   6.9758   6.9800   7.0010   7.0329   7.0560   7.0704
     7.0843   7.1017   7.1845   7.1974   7.2032   7.2037   7.2315   7.2361
     7.2414   7.2464   7.2781   7.2970   7.3714   7.4006   7.4202   7.4404
     7.4663   7.5210   7.5338   7.5616   7.5633   7.5716   7.6482   7.6520
     7.6679   7.6721   7.6896   7.7149   7.7680   7.7870   7.7872   7.8091
     7.8206   7.8634   7.8645   7.8820   7.9052   7.9907   8.0152   8.0351
     8.0695   8.0729   8.0889   8.0916   8.1364   8.1571   8.1793   8.2055
     8.2332   8.2511   8.2631   8.3064   8.3141   8.3361   8.3753   8.3790
     8.3816   8.4338   8.4446   8.5121   8.6403   8.6460   8.6744   8.7493
     8.7908   8.8922   9.1239   9.1290   9.1814   9.3889  12.0818  12.1407
    13.3967  13.4351  13.6542  13.6616  13.6990  13.7098  13.7816  13.7889
    13.7993  13.8184  13.8234  13.8344  13.8464  13.9205  14.0296  14.0360
    14.0398  14.0801  14.1063  14.1135  14.1192  14.2476  14.3623  14.3805
    14.4249  14.4424  14.4656  14.4720  14.5028  14.6864  14.8301  14.8401
    14.8444  14.8556  15.0565  15.0608  15.0725  15.0806  15.1031  15.1208
    15.1211  15.1256  15.1338  15.3049  15.3962  15.4069  15.4301  15.6048
    16.0209  16.0325  16.0333  16.0489  16.0496  16.0709  16.0909  16.1258
    16.1330  16.1656  16.1828  16.1988  16.2500  16.2896  16.4854  16.5007
    16.7184  16.7321  16.7683  16.7850  16.7869  16.7871  16.8050  16.8239

     occupation numbers 
     1.0000   1.0000   1.0000   1.0000   1.0000   1.0000   1.0000   1.0000
     1.0000   1.0000   1.0000   1.0000   1.0000   1.0000   1.0000   1.0000
     1.0000   1.0000   1.0000   1.0000   1.0000   1.0000   1.0000   1.0000
     1.0000   1.0000   1.0000   1.0000   1.0000   1.0000   1.0000   1.0000
     1.0000   1.0000   1.0000   1.0000   1.0000   1.0000   1.0000   1.0000
     1.0000   1.0000   1.0000   1.0000   1.0000   1.0000   1.0000   1.0000
     1.0000   1.0000   1.0000   1.0000   1.0000   1.0000   1.0000   1.0000
     1.0000   1.0000   1.0000   1.0000   1.0000   1.0000   1.0000   1.0000
     1.0000   1.0000   1.0000   1.0000   1.0000   1.0000   1.0000   1.0000
     1.0000   1.0000   1.0000   1.0000   1.0000   1.0000   1.0000   1.0000
     1.0000   1.0000   1.0000   1.0000   1.0000   1.0000   1.0000   1.0000
     1.0000   1.0000   1.0000   1.0000   1.0000   1.0000   1.0000   1.0000
     1.0000   1.0000   1.0000   1.0000   1.0000   1.0000   1.0000   1.0000
     1.0000   1.0000   1.0000   1.0000   1.0000   1.0000   1.0000   1.0000
     1.0000   1.0000   1.0000   1.0000   1.0000   1.0000   1.0000   1.0000
     1.0000   1.0000   1.0000   1.0000   1.0000   1.0000   1.0000   1.0000
     1.0000   1.0000   1.0000   1.0000   1.0000   1.0000   1.0000   1.0000
     1.0000   1.0000   1.0000   1.0000   1.0000   1.0000   1.0000   1.0000
     1.0000   1.0000   1.0000   1.0000   1.0000   1.0000   1.0000   1.0000
     1.0000   1.0000   1.0000   1.0000   1.0000   1.0000   1.0000   1.0000
     1.0000   1.0000   1.0000   1.0000   1.0000   1.0000   1.0000   1.0000
     1.0000   1.0000   1.0000   1.0000   1.0000   1.0000   1.0000   1.0000
     1.0000   1.0000   1.0000   1.0000   1.0000   1.0000   1.0000   1.0000
     1.0000   1.0000   1.0000   1.0000   1.0000   1.0000   1.0000   1.0000
     1.0000   1.0000   1.0000   1.0000   1.0000   1.0000   1.0000   1.0000
     1.0000   1.0000   1.0000   1.0000   1.0000   1.0000   1.0000   1.0000
     1.0000   1.0000   1.0000   1.0000   1.0000   1.0000   1.0000   1.0000
     1.0000   1.0000   1.0000   1.0000   1.0000   1.0000   1.0000   1.0000
     1.0000   1.0000   1.0000   1.0000   1.0000   1.0000   1.0000   1.0000
     1.0000   1.0000   1.0000   1.0000   1.0000   1.0000   1.0000   1.0000
     1.0000   1.0000   1.0000   1.0000   1.0000   1.0000   1.0000   1.0000
     1.0000   1.0000   1.0000   1.0000   1.0000   1.0000   1.0000   1.0000
     1.0000   1.0000   1.0000   1.0000   1.0000   1.0000   1.0000   1.0000
     1.0000   1.0000   1.0000   1.0000   1.0000   1.0000   1.0000   1.0000
     1.0000   1.0000   1.0000   1.0000   1.0000   1.0000   1.0000   1.0000
     1.0000   1.0000   1.0000   1.0000   1.0000   1.0000   1.0000   1.0000
     1.0000   1.0000   1.0000   1.0000   1.0000   1.0000   1.0000   1.0000
     1.0000   1.0000   1.0000   1.0000   1.0000   1.0000   1.0000   1.0000
     1.0000   1.0000   1.0000   1.0000   1.0000   1.0000   1.0000   1.0000
     1.0000   1.0000   1.0000   1.0000   1.0000   1.0000   1.0000   1.0000
     1.0000   1.0000   1.0000   1.0000   1.0000   1.0000   1.0000   1.0000
     1.0000   1.0000   1.0000   1.0000   1.0000   1.0000   1.0000   1.0000
     1.0000   1.0000   1.0000   1.0000   1.0000   1.0000   1.0000   1.0000
     1.0000   1.0000   1.0000   1.0000   1.0000   1.0000   1.0000   1.0000
     1.0000   1.0000   1.0000   1.0000   1.0000   1.0000   1.0000   1.0000
     1.0000   1.0000   1.0000   1.0000   1.0000   1.0000   1.0000   1.0000
     1.0000   1.0000   1.0000   1.0000   1.0000   1.0000   1.0000   1.0000
     1.0000   1.0000   1.0000   1.0000   1.0000   1.0000   1.0000   1.0000
     1.0000   1.0000   1.0000   1.0000   1.0000   1.0000   1.0000   1.0000
     1.0000   1.0000   1.0000   1.0000   1.0000   1.0000   1.0000   1.0000
     1.0000   1.0000   1.0000   1.0000   1.0000   1.0000   1.0000   1.0000
     1.0000   1.0000   1.0000   1.0000   1.0000   1.0000   1.0000   1.0000
     1.0000   1.0000   1.0000   1.0000   1.0000   1.0000   1.0000   1.0000
     1.0000   1.0000   1.0000   1.0000   1.0000   1.0000   1.0000   1.0000
     1.0000   1.0000   1.0000   1.0000   1.0000   1.0000   1.0000   1.0000
     1.0000   1.0000   1.0000   1.0000   1.0000   1.0000   1.0000   1.0000
     1.0000   1.0000   1.0000   1.0000   1.0000   1.0000   1.0000   1.0000
     1.0000   1.0000   1.0000   1.0000   1.0000   1.0000   1.0000   1.0000
     1.0000   1.0000   1.0000   1.0000   1.0000   1.0000   1.0000   1.0000
     1.0000   1.0000   1.0000   1.0000   1.0000   1.0000   1.0000   1.0000
     1.0000   1.0000   1.0000   1.0000   1.0319  -0.0926   0.0000   0.0000
     0.0000   0.0000   0.0000   0.0000   0.0000   0.0000   0.0000   0.0000
     0.0000   0.0000   0.0000   0.0000   0.0000   0.0000   0.0000   0.0000
     0.0000   0.0000   0.0000   0.0000   0.0000   0.0000   0.0000   0.0000
     0.0000   0.0000   0.0000   0.0000   0.0000   0.0000   0.0000   0.0000
     0.0000   0.0000   0.0000   0.0000   0.0000   0.0000   0.0000   0.0000
     0.0000   0.0000   0.0000   0.0000   0.0000   0.0000   0.0000   0.0000
     0.0000   0.0000   0.0000   0.0000   0.0000   0.0000   0.0000   0.0000
     0.0000   0.0000   0.0000   0.0000   0.0000   0.0000   0.0000   0.0000
     0.0000   0.0000   0.0000   0.0000   0.0000   0.0000   0.0000   0.0000

          k = 0.0000 0.4330 0.0000 ( 51304 PWs)   bands (ev):

    -6.3375  -6.1358  -6.0974  -6.0800  -5.9379  -5.9309  -5.9197  -5.8955
    -5.7764  -5.7721  -5.7686  -5.7610  -5.7373  -5.7321  -5.7123  -5.7083
    -5.6886  -5.6668  -5.6633  -5.6434  -5.6418  -5.6404  -5.6330  -5.6329
    -5.6285  -5.6261  -5.6151  -5.6078  -5.6048  -5.6039  -5.5999  -5.5984
    -5.5938  -5.5811  -5.5805  -5.5782  -5.5681  -5.5643  -5.5602  -5.5580
    -5.5563  -5.5488  -5.5455  -5.5443  -5.5422  -5.5421  -5.5380  -5.5349
    -5.5337  -5.5286  -5.5203  -5.4948  -5.4938  -4.2509  -4.1963  -4.1855
    -4.1831  -4.1804  -4.1799  -4.1761  -4.1733  -4.1690  -4.1663  -4.1648
    -4.1627  -4.1613  -4.1609  -4.1566  -4.1553  -4.1533  -4.1502  -4.1492
    -4.1472  -4.1467  -4.1462  -4.1440  -4.1433  -4.1426  -4.1404  -4.1385
    -4.1375  -4.1371  -4.1356  -4.1342  -4.1337  -4.1325  -4.1318  -4.1317
    -4.1299  -4.1285  -4.1285  -4.1259  -4.1244  -4.1235  -4.1221  -4.1218
    -4.1181  -4.1180  -4.1155  -4.1137  -4.1131  -4.1128  -4.1104  -4.1097
    -4.1082  -4.1080  -4.1067  -4.1042  -4.1038  -4.1017  -4.1005  -4.0990
    -4.0979  -4.0958  -4.0954  -4.0933  -4.0923  -4.0908  -4.0890  -4.0876
    -4.0861  -4.0843  -4.0843  -4.0810  -4.0788  -4.0749  -4.0731  -4.0728
    -4.0710  -4.0706  -4.0671  -4.0664  -4.0650  -4.0615  -4.0581  -4.0566
    -4.0504  -4.0503  -4.0434  -4.0420  -4.0414  -4.0377  -4.0356  -4.0295
    -4.0277  -4.0244  -4.0232  -4.0230  -4.0211  -4.0206  -4.0171  -4.0149
    -4.0145  -4.0122  -4.0113  -4.0109  -4.0090  -4.0069  -4.0062  -4.0052
    -4.0036  -4.0030  -3.9997  -3.9986  -3.9963  -3.9947  -3.9946  -3.9930
    -3.9927  -3.9912  -3.9897  -3.9894  -3.9873  -3.9862  -3.9855  -3.9842
    -3.9838  -3.9820  -3.9818  -3.9809  -3.9797  -3.9779  -3.9759  -3.9751
    -3.9735  -3.9729  -3.9707  -3.9705  -3.9689  -3.9680  -3.9673  -3.9638
    -3.9606  -3.9591  -3.9574  -3.9560  -3.9547  -3.9545  -3.9530  -3.9502
    -3.9499  -3.9493  -3.9487  -3.9473  -3.9468  -3.9423  -3.9411  -3.9398
    -3.9375  -3.9364  -3.9342  -3.9338  -3.9303  -3.9300  -3.9273  -3.9267
    -3.9243  -3.9237  -3.9208  -3.9205  -3.9196  -3.9188  -3.9160  -3.9147
    -3.9137  -3.9121  -3.9115  -3.9102  -3.9081  -3.9077  -3.9060  -3.9041
    -3.9036  -3.9032  -3.9003  -3.8994  -3.8994  -3.8974  -3.8965  -3.8961
    -3.8954  -3.8942  -3.8937  -3.8925  -3.8898  -3.8886  -3.8862  -3.8855
    -3.8822  -3.8819  -3.8813  -3.8774  -3.8762  -3.8732  -3.8694  -3.8684
    -3.8680  -3.8651  -3.8639  -3.8574  -3.8472  -3.8430  -3.8387  -3.8223
    -3.8085  -3.7880  -3.7805  -3.7687  -3.7622  -3.7452  -3.7447  -3.7329
    -3.7329  -3.7134  -3.6741  -3.6740  -3.6264  -3.6216  -3.4776  -3.4772
    -3.4649  -3.4432  -3.2680  -3.2534  -3.0593  -3.0579  -3.0544  -3.0306
    -2.8786  -2.8752  -2.8702  -2.8611  -2.8100  -2.7624  -2.7605  -2.7550
    -2.7354  -2.6958  -2.6846  -2.6756  -2.6285  -2.5425  -2.5390  -2.5359
    -2.5252  -2.4752  -2.3650  -2.3633  -2.3595  -2.3578  -2.3545  -2.3352
    -2.2739  -2.2062  -2.2000  -2.1995  -2.1755  -2.1565  -2.1414  -2.0623
    -2.0199  -2.0107  -2.0010  -0.1242   2.6031   2.7218   2.7380   2.9530
     2.9960   3.0982   3.1051   3.1055   3.1236   3.1248   3.1495   3.1541
     3.1699   3.3251   3.3324   3.3389   3.3608   3.3667   3.3996   3.4600
     3.4746   3.5308   3.5501   3.5563   3.5785   3.7657   3.7756   3.7896
     3.8088   3.9276   3.9502   3.9603   3.9671   4.1007   4.1046   4.1337
     4.1784   4.1852   4.1892   4.2689   4.3987   4.4514   4.9903   4.9975
     5.0066   5.0561   5.0948   5.1012   5.1013   5.1161   5.1515   5.1956
     5.2074   5.4109   5.4203   5.4490   5.4508   5.6505   5.6801   5.7475
     5.7559   5.8960   5.9390   6.0206   6.1300   6.1442   6.1548   6.1700
     6.1868   6.1963   6.3111   6.3175   6.3434   6.3481   6.4634   6.4677
     6.4841   6.4947   6.5116   6.5216   6.6574   6.6592   6.6968   6.7021
     6.7220   6.7490   6.7608   6.7793   6.8042   6.9090   6.9278   6.9863
     6.9943   6.9956   7.0073   7.0137   7.0379   7.0393   7.0658   7.0702
     7.0809   7.1028   7.1166   7.1558   7.2167   7.2232   7.2362   7.2506
     7.2668   7.2964   7.3141   7.3733   7.5379   7.5754   7.5777   7.6182
     7.6650   7.7694   7.7768   7.8168   7.8253   7.8267   7.8340   7.8364
     7.8416   7.8431   7.8480   7.8621   7.8662   7.8777   7.8960   7.9261
     7.9530   7.9731   7.9798   8.0175   8.0357   8.0460   8.1250   8.1591
     8.1599   8.1808   8.1862   8.2328   8.2381   8.2826   8.3013   8.3176
     8.3671   8.3941   8.4192   8.4589   8.5397   8.6291   8.6347   8.8170
     8.8179   8.8679   8.8869   9.0295   9.2168   9.3472  12.0820  12.9912
    13.2435  13.2581  13.3082  13.3484  13.6522  13.6806  13.9679  13.9767
    13.9846  13.9856  14.0021  14.0247  14.0943  14.1132  14.1133  14.1440
    14.1822  14.1917  14.2162  14.2465  14.2602  14.4220  14.6309  14.6360
    14.6408  14.6487  14.7328  14.8337  14.8394  14.8883  14.8961  14.9111
    14.9312  15.0041  15.0320  15.0423  15.0502  15.1868  15.2933  15.3182
    15.3328  15.3894  15.4127  15.4344  15.4492  15.4682  15.5204  15.5345
    15.5477  15.5761  15.6749  15.7549  15.8018  15.8511  16.0330  16.2865
    16.3123  16.3559  16.3621  16.3688  16.4041  16.4193  16.4359  16.5082
    16.5151  16.5346  16.5441  16.5626  16.5738  16.6466  16.6661  16.6867

     occupation numbers 
     1.0000   1.0000   1.0000   1.0000   1.0000   1.0000   1.0000   1.0000
     1.0000   1.0000   1.0000   1.0000   1.0000   1.0000   1.0000   1.0000
     1.0000   1.0000   1.0000   1.0000   1.0000   1.0000   1.0000   1.0000
     1.0000   1.0000   1.0000   1.0000   1.0000   1.0000   1.0000   1.0000
     1.0000   1.0000   1.0000   1.0000   1.0000   1.0000   1.0000   1.0000
     1.0000   1.0000   1.0000   1.0000   1.0000   1.0000   1.0000   1.0000
     1.0000   1.0000   1.0000   1.0000   1.0000   1.0000   1.0000   1.0000
     1.0000   1.0000   1.0000   1.0000   1.0000   1.0000   1.0000   1.0000
     1.0000   1.0000   1.0000   1.0000   1.0000   1.0000   1.0000   1.0000
     1.0000   1.0000   1.0000   1.0000   1.0000   1.0000   1.0000   1.0000
     1.0000   1.0000   1.0000   1.0000   1.0000   1.0000   1.0000   1.0000
     1.0000   1.0000   1.0000   1.0000   1.0000   1.0000   1.0000   1.0000
     1.0000   1.0000   1.0000   1.0000   1.0000   1.0000   1.0000   1.0000
     1.0000   1.0000   1.0000   1.0000   1.0000   1.0000   1.0000   1.0000
     1.0000   1.0000   1.0000   1.0000   1.0000   1.0000   1.0000   1.0000
     1.0000   1.0000   1.0000   1.0000   1.0000   1.0000   1.0000   1.0000
     1.0000   1.0000   1.0000   1.0000   1.0000   1.0000   1.0000   1.0000
     1.0000   1.0000   1.0000   1.0000   1.0000   1.0000   1.0000   1.0000
     1.0000   1.0000   1.0000   1.0000   1.0000   1.0000   1.0000   1.0000
     1.0000   1.0000   1.0000   1.0000   1.0000   1.0000   1.0000   1.0000
     1.0000   1.0000   1.0000   1.0000   1.0000   1.0000   1.0000   1.0000
     1.0000   1.0000   1.0000   1.0000   1.0000   1.0000   1.0000   1.0000
     1.0000   1.0000   1.0000   1.0000   1.0000   1.0000   1.0000   1.0000
     1.0000   1.0000   1.0000   1.0000   1.0000   1.0000   1.0000   1.0000
     1.0000   1.0000   1.0000   1.0000   1.0000   1.0000   1.0000   1.0000
     1.0000   1.0000   1.0000   1.0000   1.0000   1.0000   1.0000   1.0000
     1.0000   1.0000   1.0000   1.0000   1.0000   1.0000   1.0000   1.0000
     1.0000   1.0000   1.0000   1.0000   1.0000   1.0000   1.0000   1.0000
     1.0000   1.0000   1.0000   1.0000   1.0000   1.0000   1.0000   1.0000
     1.0000   1.0000   1.0000   1.0000   1.0000   1.0000   1.0000   1.0000
     1.0000   1.0000   1.0000   1.0000   1.0000   1.0000   1.0000   1.0000
     1.0000   1.0000   1.0000   1.0000   1.0000   1.0000   1.0000   1.0000
     1.0000   1.0000   1.0000   1.0000   1.0000   1.0000   1.0000   1.0000
     1.0000   1.0000   1.0000   1.0000   1.0000   1.0000   1.0000   1.0000
     1.0000   1.0000   1.0000   1.0000   1.0000   1.0000   1.0000   1.0000
     1.0000   1.0000   1.0000   1.0000   1.0000   1.0000   1.0000   1.0000
     1.0000   1.0000   1.0000   1.0000   1.0000   1.0000   1.0000   1.0000
     1.0000   1.0000   1.0000   1.0000   1.0000   1.0000   1.0000   1.0000
     1.0000   1.0000   1.0000   1.0000   1.0000   1.0000   1.0000   1.0000
     1.0000   1.0000   1.0000   1.0000   1.0000   1.0000   1.0000   1.0000
     1.0000   1.0000   1.0000   1.0000   1.0000   1.0000   1.0000   1.0000
     1.0000   1.0000   1.0000   1.0000   1.0000   1.0000   1.0000   1.0000
     1.0000   1.0000   1.0000   1.0000   1.0000   1.0000   1.0000   1.0000
     1.0000   1.0000   1.0000   1.0000   1.0000   1.0000   1.0000   1.0000
     1.0000   1.0000   1.0000   1.0000   1.0000   1.0000   1.0000   1.0000
     1.0000   1.0000   1.0000   1.0000   1.0000   1.0000   1.0000   1.0000
     1.0000   1.0000   1.0000   1.0000   1.0000   1.0000   1.0000   1.0000
     1.0000   1.0000   1.0000   1.0000   1.0000   1.0000   1.0000   1.0000
     1.0000   1.0000   1.0000   1.0000   1.0000   1.0000   1.0000   1.0000
     1.0000   1.0000   1.0000   1.0000   1.0000   1.0000   1.0000   1.0000
     1.0000   1.0000   1.0000   1.0000   1.0000   1.0000   1.0000   1.0000
     1.0000   1.0000   1.0000   1.0000   1.0000   1.0000   1.0000   1.0000
     1.0000   1.0000   1.0000   1.0000   1.0000   1.0000   1.0000   1.0000
     1.0000   1.0000   1.0000   1.0000   1.0000   1.0000   1.0000   1.0000
     1.0000   1.0000   1.0000   1.0000   1.0000   1.0000   1.0000   1.0000
     1.0000   1.0000   1.0000   1.0000   1.0000   1.0000   1.0000   1.0000
     1.0000   1.0000   1.0000   1.0000   1.0000   1.0000   1.0000   1.0000
     1.0000   1.0000   1.0000   1.0000   1.0000   1.0000   1.0000   1.0000
     1.0000   1.0000   1.0000   1.0000   1.0000   1.0000   1.0000   1.0000
     1.0000   1.0000   1.0000   1.0000   1.0000   1.0000   1.0000   1.0000
     1.0000   1.0000   1.0000   1.0000   1.0000   0.3518   0.0000   0.0000
     0.0000   0.0000   0.0000   0.0000   0.0000   0.0000   0.0000   0.0000
     0.0000   0.0000   0.0000   0.0000   0.0000   0.0000   0.0000   0.0000
     0.0000   0.0000   0.0000   0.0000   0.0000   0.0000   0.0000   0.0000
     0.0000   0.0000   0.0000   0.0000   0.0000   0.0000   0.0000   0.0000
     0.0000   0.0000   0.0000   0.0000   0.0000   0.0000   0.0000   0.0000
     0.0000   0.0000   0.0000   0.0000   0.0000   0.0000   0.0000   0.0000
     0.0000   0.0000   0.0000   0.0000   0.0000   0.0000   0.0000   0.0000
     0.0000   0.0000   0.0000   0.0000   0.0000   0.0000   0.0000   0.0000
     0.0000   0.0000   0.0000   0.0000   0.0000   0.0000   0.0000   0.0000

          k = 0.0000 0.4330 0.1533 ( 51269 PWs)   bands (ev):

    -6.3207  -6.1887  -6.1173  -6.0094  -5.9845  -5.9092  -5.8974  -5.8471
    -5.8277  -5.8182  -5.7951  -5.7177  -5.7165  -5.7091  -5.7063  -5.7020
    -5.6917  -5.6824  -5.6592  -5.6585  -5.6490  -5.6428  -5.6375  -5.6359
    -5.6304  -5.6286  -5.6213  -5.6062  -5.6021  -5.6017  -5.5983  -5.5962
    -5.5861  -5.5836  -5.5799  -5.5668  -5.5646  -5.5621  -5.5611  -5.5600
    -5.5560  -5.5509  -5.5463  -5.5463  -5.5418  -5.5418  -5.5380  -5.5359
    -5.5340  -5.5306  -5.5209  -5.4950  -5.4940  -4.2509  -4.1949  -4.1845
    -4.1842  -4.1799  -4.1785  -4.1743  -4.1708  -4.1696  -4.1666  -4.1636
    -4.1611  -4.1593  -4.1585  -4.1573  -4.1545  -4.1539  -4.1520  -4.1495
    -4.1491  -4.1484  -4.1465  -4.1458  -4.1446  -4.1433  -4.1430  -4.1405
    -4.1396  -4.1387  -4.1374  -4.1372  -4.1355  -4.1353  -4.1321  -4.1313
    -4.1308  -4.1305  -4.1279  -4.1273  -4.1242  -4.1223  -4.1216  -4.1200
    -4.1195  -4.1191  -4.1174  -4.1154  -4.1134  -4.1130  -4.1106  -4.1097
    -4.1093  -4.1084  -4.1080  -4.1072  -4.1035  -4.1019  -4.1005  -4.0981
    -4.0975  -4.0968  -4.0964  -4.0933  -4.0925  -4.0874  -4.0871  -4.0833
    -4.0832  -4.0795  -4.0793  -4.0770  -4.0767  -4.0746  -4.0729  -4.0702
    -4.0698  -4.0686  -4.0658  -4.0646  -4.0641  -4.0634  -4.0569  -4.0542
    -4.0501  -4.0485  -4.0434  -4.0428  -4.0413  -4.0394  -4.0382  -4.0372
    -4.0316  -4.0283  -4.0281  -4.0231  -4.0211  -4.0192  -4.0177  -4.0166
    -4.0150  -4.0134  -4.0113  -4.0096  -4.0080  -4.0064  -4.0048  -4.0035
    -4.0032  -4.0024  -4.0000  -3.9998  -3.9974  -3.9961  -3.9952  -3.9932
    -3.9919  -3.9915  -3.9903  -3.9893  -3.9883  -3.9851  -3.9844  -3.9837
    -3.9834  -3.9813  -3.9797  -3.9793  -3.9793  -3.9766  -3.9749  -3.9739
    -3.9721  -3.9720  -3.9704  -3.9689  -3.9671  -3.9658  -3.9633  -3.9625
    -3.9617  -3.9601  -3.9582  -3.9575  -3.9570  -3.9552  -3.9537  -3.9530
    -3.9512  -3.9503  -3.9488  -3.9470  -3.9469  -3.9445  -3.9421  -3.9416
    -3.9381  -3.9370  -3.9361  -3.9307  -3.9302  -3.9288  -3.9279  -3.9268
    -3.9237  -3.9233  -3.9212  -3.9204  -3.9184  -3.9179  -3.9160  -3.9156
    -3.9123  -3.9123  -3.9101  -3.9097  -3.9085  -3.9085  -3.9068  -3.9064
    -3.9039  -3.9031  -3.9014  -3.8984  -3.8975  -3.8970  -3.8962  -3.8955
    -3.8949  -3.8944  -3.8921  -3.8921  -3.8889  -3.8889  -3.8857  -3.8846
    -3.8822  -3.8815  -3.8811  -3.8801  -3.8765  -3.8733  -3.8684  -3.8677
    -3.8676  -3.8637  -3.8580  -3.8514  -3.8473  -3.8391  -3.8355  -3.8302
    -3.8167  -3.7880  -3.7801  -3.7683  -3.7682  -3.7463  -3.7447  -3.7329
    -3.7257  -3.6677  -3.6665  -3.6394  -3.6246  -3.6170  -3.5620  -3.5563
    -3.4894  -3.3436  -3.3312  -3.2794  -3.0475  -3.0396  -3.0065  -2.9824
    -2.9761  -2.9534  -2.9228  -2.8147  -2.8044  -2.7691  -2.7582  -2.7286
    -2.6678  -2.6556  -2.6150  -2.5981  -2.5915  -2.5721  -2.5399  -2.5229
    -2.5029  -2.4940  -2.4639  -2.4572  -2.4213  -2.3566  -2.2921  -2.2808
    -2.2569  -2.2223  -2.2128  -2.2052  -2.1692  -2.1394  -2.1242  -2.0728
    -2.0412  -2.0286  -2.0181  -0.1266   2.7176   2.7563   2.7784   2.9500
     3.0472   3.0820   3.1082   3.1187   3.1340   3.1589   3.1746   3.1848
     3.2147   3.2209   3.2937   3.3054   3.3464   3.3671   3.3966   3.4048
     3.4303   3.4492   3.5221   3.5509   3.5582   3.6239   3.6854   3.7179
     3.7664   3.7730   3.8021   4.0222   4.0317   4.0878   4.1297   4.1556
     4.1898   4.2216   4.3675   4.4109   4.6332   4.7311   4.7448   4.8032
     5.1016   5.1074   5.1817   5.1941   5.2170   5.2219   5.2365   5.2531
     5.2805   5.3035   5.3039   5.5376   5.6466   5.6559   5.7122   5.7346
     5.7699   5.7941   5.8225   5.8380   5.9259   5.9312   6.0148   6.0255
     6.0924   6.1610   6.1612   6.1772   6.2056   6.2288   6.4343   6.4568
     6.4678   6.4775   6.4969   6.5319   6.5816   6.6734   6.7707   6.7760
     6.8004   6.8053   6.8730   6.9007   6.9013   6.9219   6.9503   6.9609
     6.9798   6.9861   7.0064   7.0610   7.1091   7.1424   7.1821   7.2037
     7.2117   7.2216   7.2293   7.2352   7.2597   7.2720   7.3088   7.3347
     7.4078   7.4403   7.4920   7.4989   7.5423   7.5866   7.5964   7.6101
     7.6195   7.6427   7.6602   7.6694   7.6766   7.6889   7.7471   7.7604
     7.7978   7.8240   7.8429   7.8493   7.8555   7.8562   7.8614   7.8944
     7.9099   7.9390   7.9456   7.9880   7.9976   8.0154   8.0225   8.0805
     8.1073   8.1464   8.1748   8.2715   8.2773   8.2999   8.3539   8.3588
     8.3695   8.3910   8.4310   8.4968   8.5558   8.6672   8.6759   8.7721
     8.7826   8.9055   8.9402   9.0318   9.1796   9.3413  12.1857  12.8430
    13.0312  13.3531  13.3864  13.4862  13.6556  13.9215  13.9591  13.9621
    13.9871  13.9951  14.0293  14.0602  14.0744  14.0918  14.1250  14.1705
    14.1855  14.2283  14.2923  14.3278  14.3418  14.4036  14.4728  14.6569
    14.6578  14.6618  14.6782  14.6838  14.7063  14.7139  14.7449  14.8243
    14.8374  14.8580  14.9402  15.0307  15.0478  15.1087  15.1685  15.2747
    15.2891  15.3380  15.3784  15.4730  15.6280  15.6382  15.6480  15.6720
    15.7238  15.7635  15.8068  15.8081  15.8381  15.8470  16.0349  16.2438
    16.2589  16.2750  16.2963  16.3117  16.3263  16.4159  16.4263  16.5255
    16.5336  16.5581  16.5733  16.6049  16.6237  16.6792  16.6910  16.7734

     occupation numbers 
     1.0000   1.0000   1.0000   1.0000   1.0000   1.0000   1.0000   1.0000
     1.0000   1.0000   1.0000   1.0000   1.0000   1.0000   1.0000   1.0000
     1.0000   1.0000   1.0000   1.0000   1.0000   1.0000   1.0000   1.0000
     1.0000   1.0000   1.0000   1.0000   1.0000   1.0000   1.0000   1.0000
     1.0000   1.0000   1.0000   1.0000   1.0000   1.0000   1.0000   1.0000
     1.0000   1.0000   1.0000   1.0000   1.0000   1.0000   1.0000   1.0000
     1.0000   1.0000   1.0000   1.0000   1.0000   1.0000   1.0000   1.0000
     1.0000   1.0000   1.0000   1.0000   1.0000   1.0000   1.0000   1.0000
     1.0000   1.0000   1.0000   1.0000   1.0000   1.0000   1.0000   1.0000
     1.0000   1.0000   1.0000   1.0000   1.0000   1.0000   1.0000   1.0000
     1.0000   1.0000   1.0000   1.0000   1.0000   1.0000   1.0000   1.0000
     1.0000   1.0000   1.0000   1.0000   1.0000   1.0000   1.0000   1.0000
     1.0000   1.0000   1.0000   1.0000   1.0000   1.0000   1.0000   1.0000
     1.0000   1.0000   1.0000   1.0000   1.0000   1.0000   1.0000   1.0000
     1.0000   1.0000   1.0000   1.0000   1.0000   1.0000   1.0000   1.0000
     1.0000   1.0000   1.0000   1.0000   1.0000   1.0000   1.0000   1.0000
     1.0000   1.0000   1.0000   1.0000   1.0000   1.0000   1.0000   1.0000
     1.0000   1.0000   1.0000   1.0000   1.0000   1.0000   1.0000   1.0000
     1.0000   1.0000   1.0000   1.0000   1.0000   1.0000   1.0000   1.0000
     1.0000   1.0000   1.0000   1.0000   1.0000   1.0000   1.0000   1.0000
     1.0000   1.0000   1.0000   1.0000   1.0000   1.0000   1.0000   1.0000
     1.0000   1.0000   1.0000   1.0000   1.0000   1.0000   1.0000   1.0000
     1.0000   1.0000   1.0000   1.0000   1.0000   1.0000   1.0000   1.0000
     1.0000   1.0000   1.0000   1.0000   1.0000   1.0000   1.0000   1.0000
     1.0000   1.0000   1.0000   1.0000   1.0000   1.0000   1.0000   1.0000
     1.0000   1.0000   1.0000   1.0000   1.0000   1.0000   1.0000   1.0000
     1.0000   1.0000   1.0000   1.0000   1.0000   1.0000   1.0000   1.0000
     1.0000   1.0000   1.0000   1.0000   1.0000   1.0000   1.0000   1.0000
     1.0000   1.0000   1.0000   1.0000   1.0000   1.0000   1.0000   1.0000
     1.0000   1.0000   1.0000   1.0000   1.0000   1.0000   1.0000   1.0000
     1.0000   1.0000   1.0000   1.0000   1.0000   1.0000   1.0000   1.0000
     1.0000   1.0000   1.0000   1.0000   1.0000   1.0000   1.0000   1.0000
     1.0000   1.0000   1.0000   1.0000   1.0000   1.0000   1.0000   1.0000
     1.0000   1.0000   1.0000   1.0000   1.0000   1.0000   1.0000   1.0000
     1.0000   1.0000   1.0000   1.0000   1.0000   1.0000   1.0000   1.0000
     1.0000   1.0000   1.0000   1.0000   1.0000   1.0000   1.0000   1.0000
     1.0000   1.0000   1.0000   1.0000   1.0000   1.0000   1.0000   1.0000
     1.0000   1.0000   1.0000   1.0000   1.0000   1.0000   1.0000   1.0000
     1.0000   1.0000   1.0000   1.0000   1.0000   1.0000   1.0000   1.0000
     1.0000   1.0000   1.0000   1.0000   1.0000   1.0000   1.0000   1.0000
     1.0000   1.0000   1.0000   1.0000   1.0000   1.0000   1.0000   1.0000
     1.0000   1.0000   1.0000   1.0000   1.0000   1.0000   1.0000   1.0000
     1.0000   1.0000   1.0000   1.0000   1.0000   1.0000   1.0000   1.0000
     1.0000   1.0000   1.0000   1.0000   1.0000   1.0000   1.0000   1.0000
     1.0000   1.0000   1.0000   1.0000   1.0000   1.0000   1.0000   1.0000
     1.0000   1.0000   1.0000   1.0000   1.0000   1.0000   1.0000   1.0000
     1.0000   1.0000   1.0000   1.0000   1.0000   1.0000   1.0000   1.0000
     1.0000   1.0000   1.0000   1.0000   1.0000   1.0000   1.0000   1.0000
     1.0000   1.0000   1.0000   1.0000   1.0000   1.0000   1.0000   1.0000
     1.0000   1.0000   1.0000   1.0000   1.0000   1.0000   1.0000   1.0000
     1.0000   1.0000   1.0000   1.0000   1.0000   1.0000   1.0000   1.0000
     1.0000   1.0000   1.0000   1.0000   1.0000   1.0000   1.0000   1.0000
     1.0000   1.0000   1.0000   1.0000   1.0000   1.0000   1.0000   1.0000
     1.0000   1.0000   1.0000   1.0000   1.0000   1.0000   1.0000   1.0000
     1.0000   1.0000   1.0000   1.0000   1.0000   1.0000   1.0000   1.0000
     1.0000   1.0000   1.0000   1.0000   1.0000   1.0000   1.0000   1.0000
     1.0000   1.0000   1.0000   1.0000   1.0000   1.0000   1.0000   1.0000
     1.0000   1.0000   1.0000   1.0000   1.0000   1.0000   1.0000   1.0000
     1.0000   1.0000   1.0000   1.0000   1.0000   1.0000   1.0000   1.0000
     1.0000   1.0000   1.0000   1.0000   1.0000   1.0000   1.0000   1.0000
     1.0000   1.0000   1.0000   1.0000   1.0000   0.4913   0.0000   0.0000
     0.0000   0.0000   0.0000   0.0000   0.0000   0.0000   0.0000   0.0000
     0.0000   0.0000   0.0000   0.0000   0.0000   0.0000   0.0000   0.0000
     0.0000   0.0000   0.0000   0.0000   0.0000   0.0000   0.0000   0.0000
     0.0000   0.0000   0.0000   0.0000   0.0000   0.0000   0.0000   0.0000
     0.0000   0.0000   0.0000   0.0000   0.0000   0.0000   0.0000   0.0000
     0.0000   0.0000   0.0000   0.0000   0.0000   0.0000   0.0000   0.0000
     0.0000   0.0000   0.0000   0.0000   0.0000   0.0000   0.0000   0.0000
     0.0000   0.0000   0.0000   0.0000   0.0000   0.0000   0.0000   0.0000
     0.0000   0.0000   0.0000   0.0000   0.0000   0.0000   0.0000   0.0000

          k = 0.0000 0.4330-0.3067 ( 51270 PWs)   bands (ev):

    -6.2843  -6.2520  -6.0891  -6.0588  -5.8908  -5.8872  -5.8871  -5.8789
    -5.8654  -5.8423  -5.7735  -5.7662  -5.6967  -5.6964  -5.6829  -5.6773
    -5.6771  -5.6739  -5.6673  -5.6660  -5.6652  -5.6612  -5.6531  -5.6482
    -5.6310  -5.6264  -5.6230  -5.6127  -5.6072  -5.6033  -5.5827  -5.5822
    -5.5814  -5.5761  -5.5757  -5.5745  -5.5671  -5.5635  -5.5616  -5.5605
    -5.5535  -5.5513  -5.5468  -5.5447  -5.5419  -5.5405  -5.5388  -5.5367
    -5.5344  -5.5342  -5.5216  -5.4952  -5.4942  -4.2508  -4.1931  -4.1869
    -4.1837  -4.1751  -4.1746  -4.1740  -4.1698  -4.1672  -4.1652  -4.1637
    -4.1619  -4.1618  -4.1597  -4.1585  -4.1559  -4.1543  -4.1526  -4.1517
    -4.1489  -4.1479  -4.1468  -4.1466  -4.1455  -4.1451  -4.1434  -4.1419
    -4.1415  -4.1407  -4.1387  -4.1375  -4.1358  -4.1333  -4.1331  -4.1318
    -4.1303  -4.1293  -4.1277  -4.1265  -4.1256  -4.1236  -4.1224  -4.1224
    -4.1207  -4.1200  -4.1185  -4.1184  -4.1161  -4.1157  -4.1135  -4.1132
    -4.1118  -4.1099  -4.1080  -4.1063  -4.1043  -4.1042  -4.1014  -4.0978
    -4.0955  -4.0951  -4.0939  -4.0924  -4.0891  -4.0881  -4.0849  -4.0830
    -4.0802  -4.0775  -4.0766  -4.0749  -4.0732  -4.0698  -4.0681  -4.0667
    -4.0664  -4.0638  -4.0621  -4.0617  -4.0581  -4.0569  -4.0520  -4.0515
    -4.0505  -4.0488  -4.0478  -4.0462  -4.0459  -4.0447  -4.0401  -4.0397
    -4.0386  -4.0357  -4.0319  -4.0308  -4.0239  -4.0232  -4.0209  -4.0209
    -4.0186  -4.0116  -4.0111  -4.0071  -4.0062  -4.0045  -4.0038  -4.0026
    -4.0022  -4.0014  -4.0000  -3.9983  -3.9975  -3.9969  -3.9948  -3.9935
    -3.9917  -3.9910  -3.9888  -3.9874  -3.9867  -3.9856  -3.9838  -3.9826
    -3.9804  -3.9791  -3.9780  -3.9771  -3.9769  -3.9752  -3.9746  -3.9729
    -3.9711  -3.9692  -3.9691  -3.9682  -3.9674  -3.9667  -3.9643  -3.9641
    -3.9620  -3.9611  -3.9604  -3.9584  -3.9570  -3.9566  -3.9548  -3.9533
    -3.9517  -3.9514  -3.9492  -3.9485  -3.9459  -3.9456  -3.9414  -3.9406
    -3.9384  -3.9364  -3.9354  -3.9321  -3.9316  -3.9294  -3.9271  -3.9248
    -3.9218  -3.9212  -3.9203  -3.9189  -3.9182  -3.9182  -3.9168  -3.9163
    -3.9147  -3.9113  -3.9101  -3.9091  -3.9089  -3.9077  -3.9072  -3.9063
    -3.9044  -3.9023  -3.9007  -3.8985  -3.8974  -3.8969  -3.8966  -3.8956
    -3.8953  -3.8939  -3.8938  -3.8920  -3.8902  -3.8893  -3.8868  -3.8853
    -3.8832  -3.8816  -3.8813  -3.8779  -3.8770  -3.8734  -3.8692  -3.8680
    -3.8672  -3.8661  -3.8634  -3.8589  -3.8475  -3.8417  -3.8393  -3.8238
    -3.7904  -3.7882  -3.7714  -3.7680  -3.7471  -3.7445  -3.7394  -3.7329
    -3.6901  -3.6716  -3.6510  -3.6460  -3.6263  -3.6226  -3.6065  -3.5909
    -3.4878  -3.4707  -3.1815  -3.1776  -3.1775  -3.1527  -3.0236  -3.0188
    -3.0005  -2.9688  -2.7986  -2.7768  -2.7669  -2.7566  -2.6526  -2.6525
    -2.6453  -2.6432  -2.6427  -2.6372  -2.6274  -2.5983  -2.5800  -2.5673
    -2.5331  -2.4841  -2.3835  -2.3821  -2.3790  -2.3692  -2.3508  -2.3366
    -2.3331  -2.2500  -2.1964  -2.1765  -2.1192  -2.1090  -2.1038  -2.0839
    -2.0699  -2.0601  -2.0520  -0.1290   2.8287   2.8507   2.8971   2.9119
     3.0378   3.0482   3.1765   3.1858   3.1875   3.1926   3.1975   3.2077
     3.2199   3.2341   3.2802   3.2816   3.2943   3.2949   3.3113   3.3294
     3.3355   3.3694   3.3919   3.3953   3.5312   3.5489   3.5535   3.6098
     3.8562   3.8947   3.9610   3.9711   3.9844   4.0319   4.2242   4.2316
     4.2547   4.2939   4.4394   4.4588   4.4693   4.5379   5.0808   5.1055
     5.1302   5.1374   5.1638   5.1822   5.3228   5.3232   5.3597   5.3696
     5.4000   5.4309   5.4512   5.4724   5.4739   5.5134   5.5680   5.6136
     5.6699   5.6751   5.7197   5.7485   5.8979   5.9076   5.9217   5.9346
     6.0816   6.0831   6.0922   6.0990   6.1229   6.1824   6.2410   6.2499
     6.2773   6.3189   6.7024   6.7123   6.7165   6.7271   6.7290   6.7350
     6.7686   6.7903   6.8919   6.8992   6.9201   6.9381   6.9674   6.9763
     7.0028   7.0497   7.1960   7.2073   7.2228   7.2238   7.2878   7.3429
     7.3845   7.3919   7.4042   7.4081   7.4225   7.4238   7.4363   7.4438
     7.4555   7.4651   7.4910   7.5138   7.5458   7.5514   7.5544   7.5699
     7.5753   7.5936   7.6157   7.6291   7.6361   7.6378   7.6491   7.6550
     7.6886   7.6997   7.7008   7.7132   7.7263   7.7598   7.7721   7.7997
     7.8263   7.8458   7.9005   8.0008   8.0267   8.0623   8.0756   8.0944
     8.1623   8.1718   8.1806   8.1908   8.1909   8.1989   8.3290   8.3888
     8.4063   8.4277   8.5197   8.5199   8.5599   8.6287   8.7189   8.7710
     8.8059   8.8995   8.9986   9.0420   9.1209   9.3349  12.4354  12.4927
    13.1288  13.1803  13.6011  13.6186  13.8148  13.8249  13.9342  13.9362
    13.9500  13.9655  13.9680  14.0321  14.2130  14.2437  14.3021  14.3102
    14.3111  14.3216  14.3335  14.3406  14.3471  14.3471  14.3553  14.3850
    14.4013  14.5433  14.6603  14.6835  14.7057  14.7699  14.7984  14.8056
    14.8126  14.8228  14.8488  14.8509  14.8592  14.9266  14.9602  15.1994
    15.3749  15.3867  15.3881  15.4838  15.7543  15.7591  15.7834  15.8140
    15.8440  15.8477  15.8527  15.9494  15.9843  16.0084  16.0285  16.0948
    16.1508  16.2158  16.2317  16.2445  16.2649  16.3062  16.4418  16.4493
    16.4692  16.5136  16.7155  16.7338  16.7547  16.7612  16.7779  16.7779

     occupation numbers 
     1.0000   1.0000   1.0000   1.0000   1.0000   1.0000   1.0000   1.0000
     1.0000   1.0000   1.0000   1.0000   1.0000   1.0000   1.0000   1.0000
     1.0000   1.0000   1.0000   1.0000   1.0000   1.0000   1.0000   1.0000
     1.0000   1.0000   1.0000   1.0000   1.0000   1.0000   1.0000   1.0000
     1.0000   1.0000   1.0000   1.0000   1.0000   1.0000   1.0000   1.0000
     1.0000   1.0000   1.0000   1.0000   1.0000   1.0000   1.0000   1.0000
     1.0000   1.0000   1.0000   1.0000   1.0000   1.0000   1.0000   1.0000
     1.0000   1.0000   1.0000   1.0000   1.0000   1.0000   1.0000   1.0000
     1.0000   1.0000   1.0000   1.0000   1.0000   1.0000   1.0000   1.0000
     1.0000   1.0000   1.0000   1.0000   1.0000   1.0000   1.0000   1.0000
     1.0000   1.0000   1.0000   1.0000   1.0000   1.0000   1.0000   1.0000
     1.0000   1.0000   1.0000   1.0000   1.0000   1.0000   1.0000   1.0000
     1.0000   1.0000   1.0000   1.0000   1.0000   1.0000   1.0000   1.0000
     1.0000   1.0000   1.0000   1.0000   1.0000   1.0000   1.0000   1.0000
     1.0000   1.0000   1.0000   1.0000   1.0000   1.0000   1.0000   1.0000
     1.0000   1.0000   1.0000   1.0000   1.0000   1.0000   1.0000   1.0000
     1.0000   1.0000   1.0000   1.0000   1.0000   1.0000   1.0000   1.0000
     1.0000   1.0000   1.0000   1.0000   1.0000   1.0000   1.0000   1.0000
     1.0000   1.0000   1.0000   1.0000   1.0000   1.0000   1.0000   1.0000
     1.0000   1.0000   1.0000   1.0000   1.0000   1.0000   1.0000   1.0000
     1.0000   1.0000   1.0000   1.0000   1.0000   1.0000   1.0000   1.0000
     1.0000   1.0000   1.0000   1.0000   1.0000   1.0000   1.0000   1.0000
     1.0000   1.0000   1.0000   1.0000   1.0000   1.0000   1.0000   1.0000
     1.0000   1.0000   1.0000   1.0000   1.0000   1.0000   1.0000   1.0000
     1.0000   1.0000   1.0000   1.0000   1.0000   1.0000   1.0000   1.0000
     1.0000   1.0000   1.0000   1.0000   1.0000   1.0000   1.0000   1.0000
     1.0000   1.0000   1.0000   1.0000   1.0000   1.0000   1.0000   1.0000
     1.0000   1.0000   1.0000   1.0000   1.0000   1.0000   1.0000   1.0000
     1.0000   1.0000   1.0000   1.0000   1.0000   1.0000   1.0000   1.0000
     1.0000   1.0000   1.0000   1.0000   1.0000   1.0000   1.0000   1.0000
     1.0000   1.0000   1.0000   1.0000   1.0000   1.0000   1.0000   1.0000
     1.0000   1.0000   1.0000   1.0000   1.0000   1.0000   1.0000   1.0000
     1.0000   1.0000   1.0000   1.0000   1.0000   1.0000   1.0000   1.0000
     1.0000   1.0000   1.0000   1.0000   1.0000   1.0000   1.0000   1.0000
     1.0000   1.0000   1.0000   1.0000   1.0000   1.0000   1.0000   1.0000
     1.0000   1.0000   1.0000   1.0000   1.0000   1.0000   1.0000   1.0000
     1.0000   1.0000   1.0000   1.0000   1.0000   1.0000   1.0000   1.0000
     1.0000   1.0000   1.0000   1.0000   1.0000   1.0000   1.0000   1.0000
     1.0000   1.0000   1.0000   1.0000   1.0000   1.0000   1.0000   1.0000
     1.0000   1.0000   1.0000   1.0000   1.0000   1.0000   1.0000   1.0000
     1.0000   1.0000   1.0000   1.0000   1.0000   1.0000   1.0000   1.0000
     1.0000   1.0000   1.0000   1.0000   1.0000   1.0000   1.0000   1.0000
     1.0000   1.0000   1.0000   1.0000   1.0000   1.0000   1.0000   1.0000
     1.0000   1.0000   1.0000   1.0000   1.0000   1.0000   1.0000   1.0000
     1.0000   1.0000   1.0000   1.0000   1.0000   1.0000   1.0000   1.0000
     1.0000   1.0000   1.0000   1.0000   1.0000   1.0000   1.0000   1.0000
     1.0000   1.0000   1.0000   1.0000   1.0000   1.0000   1.0000   1.0000
     1.0000   1.0000   1.0000   1.0000   1.0000   1.0000   1.0000   1.0000
     1.0000   1.0000   1.0000   1.0000   1.0000   1.0000   1.0000   1.0000
     1.0000   1.0000   1.0000   1.0000   1.0000   1.0000   1.0000   1.0000
     1.0000   1.0000   1.0000   1.0000   1.0000   1.0000   1.0000   1.0000
     1.0000   1.0000   1.0000   1.0000   1.0000   1.0000   1.0000   1.0000
     1.0000   1.0000   1.0000   1.0000   1.0000   1.0000   1.0000   1.0000
     1.0000   1.0000   1.0000   1.0000   1.0000   1.0000   1.0000   1.0000
     1.0000   1.0000   1.0000   1.0000   1.0000   1.0000   1.0000   1.0000
     1.0000   1.0000   1.0000   1.0000   1.0000   1.0000   1.0000   1.0000
     1.0000   1.0000   1.0000   1.0000   1.0000   1.0000   1.0000   1.0000
     1.0000   1.0000   1.0000   1.0000   1.0000   1.0000   1.0000   1.0000
     1.0000   1.0000   1.0000   1.0000   1.0000   1.0000   1.0000   1.0000
     1.0000   1.0000   1.0000   1.0000   1.0000   1.0000   1.0000   1.0000
     1.0000   1.0000   1.0000   1.0000   1.0000   0.6597   0.0000   0.0000
     0.0000   0.0000   0.0000   0.0000   0.0000   0.0000   0.0000   0.0000
     0.0000   0.0000   0.0000   0.0000   0.0000   0.0000   0.0000   0.0000
     0.0000   0.0000   0.0000   0.0000   0.0000   0.0000   0.0000   0.0000
     0.0000   0.0000   0.0000   0.0000   0.0000   0.0000   0.0000   0.0000
     0.0000   0.0000   0.0000   0.0000   0.0000   0.0000   0.0000   0.0000
     0.0000   0.0000   0.0000   0.0000   0.0000   0.0000   0.0000   0.0000
     0.0000   0.0000   0.0000   0.0000   0.0000   0.0000   0.0000   0.0000
     0.0000   0.0000   0.0000   0.0000   0.0000   0.0000   0.0000   0.0000
     0.0000   0.0000   0.0000   0.0000   0.0000   0.0000   0.0000   0.0000

          k = 0.0000-0.5774 0.0000 ( 51276 PWs)   bands (ev):

    -6.2561  -6.2272  -6.0301  -6.0235  -6.0139  -5.9904  -5.9261  -5.9067
    -5.7809  -5.7762  -5.7730  -5.7620  -5.7111  -5.7068  -5.6965  -5.6919
    -5.6875  -5.6801  -5.6755  -5.6689  -5.6565  -5.6302  -5.6231  -5.6187
    -5.6151  -5.6116  -5.6113  -5.6081  -5.6065  -5.6041  -5.6037  -5.6012
    -5.5971  -5.5967  -5.5913  -5.5900  -5.5704  -5.5650  -5.5615  -5.5563
    -5.5547  -5.5449  -5.5436  -5.5432  -5.5415  -5.5389  -5.5372  -5.5344
    -5.5331  -5.5307  -5.5198  -5.4947  -5.4935  -4.2502  -4.1897  -4.1812
    -4.1805  -4.1777  -4.1729  -4.1728  -4.1706  -4.1699  -4.1687  -4.1680
    -4.1621  -4.1620  -4.1609  -4.1578  -4.1571  -4.1524  -4.1498  -4.1479
    -4.1471  -4.1450  -4.1442  -4.1414  -4.1408  -4.1396  -4.1375  -4.1375
    -4.1368  -4.1359  -4.1349  -4.1339  -4.1337  -4.1309  -4.1307  -4.1302
    -4.1274  -4.1270  -4.1239  -4.1235  -4.1226  -4.1218  -4.1206  -4.1192
    -4.1188  -4.1167  -4.1165  -4.1154  -4.1128  -4.1124  -4.1124  -4.1106
    -4.1105  -4.1089  -4.1063  -4.1052  -4.1023  -4.1007  -4.0989  -4.0985
    -4.0960  -4.0956  -4.0942  -4.0932  -4.0930  -4.0912  -4.0907  -4.0899
    -4.0882  -4.0861  -4.0858  -4.0850  -4.0828  -4.0808  -4.0803  -4.0783
    -4.0773  -4.0763  -4.0735  -4.0726  -4.0706  -4.0675  -4.0653  -4.0589
    -4.0568  -4.0513  -4.0456  -4.0425  -4.0419  -4.0380  -4.0348  -4.0300
    -4.0282  -4.0281  -4.0274  -4.0235  -4.0221  -4.0204  -4.0193  -4.0184
    -4.0152  -4.0131  -4.0128  -4.0115  -4.0092  -4.0079  -4.0066  -4.0062
    -4.0049  -4.0043  -4.0010  -3.9985  -3.9958  -3.9950  -3.9945  -3.9929
    -3.9929  -3.9917  -3.9895  -3.9888  -3.9875  -3.9863  -3.9857  -3.9846
    -3.9844  -3.9821  -3.9820  -3.9807  -3.9806  -3.9781  -3.9753  -3.9753
    -3.9732  -3.9725  -3.9710  -3.9705  -3.9695  -3.9648  -3.9635  -3.9616
    -3.9600  -3.9587  -3.9576  -3.9555  -3.9551  -3.9548  -3.9527  -3.9505
    -3.9501  -3.9497  -3.9492  -3.9486  -3.9459  -3.9452  -3.9430  -3.9420
    -3.9375  -3.9375  -3.9352  -3.9351  -3.9302  -3.9293  -3.9268  -3.9250
    -3.9226  -3.9217  -3.9207  -3.9179  -3.9159  -3.9149  -3.9144  -3.9137
    -3.9133  -3.9124  -3.9113  -3.9105  -3.9098  -3.9073  -3.9052  -3.9051
    -3.9024  -3.9017  -3.9014  -3.8994  -3.8993  -3.8983  -3.8964  -3.8950
    -3.8941  -3.8937  -3.8931  -3.8921  -3.8878  -3.8874  -3.8864  -3.8861
    -3.8826  -3.8821  -3.8800  -3.8754  -3.8728  -3.8708  -3.8681  -3.8676
    -3.8641  -3.8604  -3.8572  -3.8511  -3.8465  -3.8448  -3.8376  -3.8357
    -3.8261  -3.8198  -3.7876  -3.7790  -3.7683  -3.7531  -3.7462  -3.7443
    -3.7326  -3.7196  -3.6845  -3.6815  -3.6268  -3.6230  -3.4883  -3.4874
    -3.4752  -3.4531  -3.1842  -3.1821  -3.1622  -3.1365  -2.8762  -2.8708
    -2.8615  -2.8497  -2.7743  -2.7720  -2.7668  -2.7624  -2.7269  -2.7165
    -2.7111  -2.7090  -2.7050  -2.7015  -2.6999  -2.6862  -2.6459  -2.6180
    -2.5173  -2.4579  -2.4231  -2.3481  -2.3399  -2.2842  -2.2820  -2.2756
    -2.2739  -2.2725  -2.2583  -2.2531  -2.2013  -2.1715  -2.1613  -2.0586
    -2.0109  -2.0021  -1.9921  -0.1230   2.6591   2.6753   2.7427   2.7826
     2.9517   3.0706   3.0772   3.0829   3.0889   3.0999   3.1136   3.1200
     3.1410   3.2399   3.2566   3.3446   3.3551   3.3584   3.3813   3.4039
     3.4177   3.6111   3.6183   3.6222   3.6367   3.6530   3.6643   3.6878
     3.6892   3.9613   3.9815   3.9908   3.9974   4.0769   4.1281   4.1283
     4.1857   4.2134   4.2748   4.3102   4.3159   4.3880   5.0480   5.0551
     5.0698   5.1309   5.1792   5.1936   5.2050   5.2063   5.2532   5.3501
     5.3560   5.6483   5.6820   5.7509   5.7594   5.7602   5.7731   5.8127
     5.8200   5.8238   5.8249   5.8270   5.8399   5.9034   5.9091   6.3191
     6.3346   6.3404   6.3612   6.3657   6.3980   6.3999   6.4222   6.5553
     6.5637   6.6224   6.6282   6.6324   6.7438   6.7493   6.7509   6.7567
     6.7572   6.7690   6.7905   6.8295   6.9083   6.9165   6.9242   6.9312
     6.9329   6.9379   6.9396   6.9580   6.9656   6.9753   6.9817   6.9933
     7.0020   7.0036   7.0665   7.0819   7.1334   7.1449   7.1492   7.1736
     7.2804   7.3202   7.3428   7.3432   7.4210   7.5157   7.5260   7.5307
     7.5598   7.5887   7.6178   7.7436   7.7565   7.7596   7.7815   7.7866
     7.7892   7.7929   7.8206   7.8642   7.8836   7.9106   7.9154   7.9167
     7.9201   7.9275   7.9531   8.0168   8.0412   8.0508   8.0550   8.0647
     8.1488   8.1637   8.1869   8.2299   8.2345   8.2709   8.2742   8.2886
     8.3093   8.3558   8.3805   8.3932   8.6491   8.6731   8.6797   8.6966
     8.7172   8.8723   8.9366   9.0177   9.1814   9.3203  12.5305  12.5713
    13.2891  13.3066  13.4656  13.4869  13.5111  13.5604  14.0091  14.0109
    14.1493  14.1561  14.1826  14.1984  14.2035  14.2120  14.2638  14.2827
    14.2895  14.2902  14.2955  14.3055  14.3166  14.3222  14.4429  14.5958
    14.6014  14.6235  14.6301  14.6592  14.6731  14.8837  15.0642  15.0675
    15.0705  15.0908  15.2535  15.2920  15.2939  15.2979  15.3071  15.3077
    15.3265  15.3337  15.3448  15.3817  15.4187  15.4206  15.4821  15.4855
    15.5002  15.5695  15.7487  15.8936  15.9003  15.9057  15.9523  15.9787
    16.0860  16.4339  16.4520  16.4615  16.4758  16.4808  16.5088  16.5682
    16.5883  16.5888  16.5947  16.6141  16.6168  16.6717  16.6774  16.6868

     occupation numbers 
     1.0000   1.0000   1.0000   1.0000   1.0000   1.0000   1.0000   1.0000
     1.0000   1.0000   1.0000   1.0000   1.0000   1.0000   1.0000   1.0000
     1.0000   1.0000   1.0000   1.0000   1.0000   1.0000   1.0000   1.0000
     1.0000   1.0000   1.0000   1.0000   1.0000   1.0000   1.0000   1.0000
     1.0000   1.0000   1.0000   1.0000   1.0000   1.0000   1.0000   1.0000
     1.0000   1.0000   1.0000   1.0000   1.0000   1.0000   1.0000   1.0000
     1.0000   1.0000   1.0000   1.0000   1.0000   1.0000   1.0000   1.0000
     1.0000   1.0000   1.0000   1.0000   1.0000   1.0000   1.0000   1.0000
     1.0000   1.0000   1.0000   1.0000   1.0000   1.0000   1.0000   1.0000
     1.0000   1.0000   1.0000   1.0000   1.0000   1.0000   1.0000   1.0000
     1.0000   1.0000   1.0000   1.0000   1.0000   1.0000   1.0000   1.0000
     1.0000   1.0000   1.0000   1.0000   1.0000   1.0000   1.0000   1.0000
     1.0000   1.0000   1.0000   1.0000   1.0000   1.0000   1.0000   1.0000
     1.0000   1.0000   1.0000   1.0000   1.0000   1.0000   1.0000   1.0000
     1.0000   1.0000   1.0000   1.0000   1.0000   1.0000   1.0000   1.0000
     1.0000   1.0000   1.0000   1.0000   1.0000   1.0000   1.0000   1.0000
     1.0000   1.0000   1.0000   1.0000   1.0000   1.0000   1.0000   1.0000
     1.0000   1.0000   1.0000   1.0000   1.0000   1.0000   1.0000   1.0000
     1.0000   1.0000   1.0000   1.0000   1.0000   1.0000   1.0000   1.0000
     1.0000   1.0000   1.0000   1.0000   1.0000   1.0000   1.0000   1.0000
     1.0000   1.0000   1.0000   1.0000   1.0000   1.0000   1.0000   1.0000
     1.0000   1.0000   1.0000   1.0000   1.0000   1.0000   1.0000   1.0000
     1.0000   1.0000   1.0000   1.0000   1.0000   1.0000   1.0000   1.0000
     1.0000   1.0000   1.0000   1.0000   1.0000   1.0000   1.0000   1.0000
     1.0000   1.0000   1.0000   1.0000   1.0000   1.0000   1.0000   1.0000
     1.0000   1.0000   1.0000   1.0000   1.0000   1.0000   1.0000   1.0000
     1.0000   1.0000   1.0000   1.0000   1.0000   1.0000   1.0000   1.0000
     1.0000   1.0000   1.0000   1.0000   1.0000   1.0000   1.0000   1.0000
     1.0000   1.0000   1.0000   1.0000   1.0000   1.0000   1.0000   1.0000
     1.0000   1.0000   1.0000   1.0000   1.0000   1.0000   1.0000   1.0000
     1.0000   1.0000   1.0000   1.0000   1.0000   1.0000   1.0000   1.0000
     1.0000   1.0000   1.0000   1.0000   1.0000   1.0000   1.0000   1.0000
     1.0000   1.0000   1.0000   1.0000   1.0000   1.0000   1.0000   1.0000
     1.0000   1.0000   1.0000   1.0000   1.0000   1.0000   1.0000   1.0000
     1.0000   1.0000   1.0000   1.0000   1.0000   1.0000   1.0000   1.0000
     1.0000   1.0000   1.0000   1.0000   1.0000   1.0000   1.0000   1.0000
     1.0000   1.0000   1.0000   1.0000   1.0000   1.0000   1.0000   1.0000
     1.0000   1.0000   1.0000   1.0000   1.0000   1.0000   1.0000   1.0000
     1.0000   1.0000   1.0000   1.0000   1.0000   1.0000   1.0000   1.0000
     1.0000   1.0000   1.0000   1.0000   1.0000   1.0000   1.0000   1.0000
     1.0000   1.0000   1.0000   1.0000   1.0000   1.0000   1.0000   1.0000
     1.0000   1.0000   1.0000   1.0000   1.0000   1.0000   1.0000   1.0000
     1.0000   1.0000   1.0000   1.0000   1.0000   1.0000   1.0000   1.0000
     1.0000   1.0000   1.0000   1.0000   1.0000   1.0000   1.0000   1.0000
     1.0000   1.0000   1.0000   1.0000   1.0000   1.0000   1.0000   1.0000
     1.0000   1.0000   1.0000   1.0000   1.0000   1.0000   1.0000   1.0000
     1.0000   1.0000   1.0000   1.0000   1.0000   1.0000   1.0000   1.0000
     1.0000   1.0000   1.0000   1.0000   1.0000   1.0000   1.0000   1.0000
     1.0000   1.0000   1.0000   1.0000   1.0000   1.0000   1.0000   1.0000
     1.0000   1.0000   1.0000   1.0000   1.0000   1.0000   1.0000   1.0000
     1.0000   1.0000   1.0000   1.0000   1.0000   1.0000   1.0000   1.0000
     1.0000   1.0000   1.0000   1.0000   1.0000   1.0000   1.0000   1.0000
     1.0000   1.0000   1.0000   1.0000   1.0000   1.0000   1.0000   1.0000
     1.0000   1.0000   1.0000   1.0000   1.0000   1.0000   1.0000   1.0000
     1.0000   1.0000   1.0000   1.0000   1.0000   1.0000   1.0000   1.0000
     1.0000   1.0000   1.0000   1.0000   1.0000   1.0000   1.0000   1.0000
     1.0000   1.0000   1.0000   1.0000   1.0000   1.0000   1.0000   1.0000
     1.0000   1.0000   1.0000   1.0000   1.0000   1.0000   1.0000   1.0000
     1.0000   1.0000   1.0000   1.0000   1.0000   1.0000   1.0000   1.0000
     1.0000   1.0000   1.0000   1.0000   1.0000   1.0000   1.0000   1.0000
     1.0000   1.0000   1.0000   1.0000   1.0000   0.9799   0.0000   0.0000
     0.0000   0.0000   0.0000   0.0000   0.0000   0.0000   0.0000   0.0000
     0.0000   0.0000   0.0000   0.0000   0.0000   0.0000   0.0000   0.0000
     0.0000   0.0000   0.0000   0.0000   0.0000   0.0000   0.0000   0.0000
     0.0000   0.0000   0.0000   0.0000   0.0000   0.0000   0.0000   0.0000
     0.0000   0.0000   0.0000   0.0000   0.0000   0.0000   0.0000   0.0000
     0.0000   0.0000   0.0000   0.0000   0.0000   0.0000   0.0000   0.0000
     0.0000   0.0000   0.0000   0.0000   0.0000   0.0000   0.0000   0.0000
     0.0000   0.0000   0.0000   0.0000   0.0000   0.0000   0.0000   0.0000
     0.0000   0.0000   0.0000   0.0000   0.0000   0.0000   0.0000   0.0000

          k = 0.0000-0.5774 0.1533 ( 51198 PWs)   bands (ev):

    -6.2399  -6.2129  -6.1170  -6.0862  -5.9309  -5.9198  -5.9155  -5.8901
    -5.8329  -5.8205  -5.7651  -5.7453  -5.7198  -5.7149  -5.6854  -5.6752
    -5.6725  -5.6700  -5.6644  -5.6600  -5.6539  -5.6425  -5.6360  -5.6341
    -5.6308  -5.6300  -5.6271  -5.6219  -5.6175  -5.6037  -5.5917  -5.5866
    -5.5865  -5.5838  -5.5816  -5.5733  -5.5651  -5.5644  -5.5610  -5.5583
    -5.5562  -5.5473  -5.5446  -5.5437  -5.5431  -5.5411  -5.5372  -5.5355
    -5.5332  -5.5329  -5.5205  -5.4949  -5.4937  -4.2501  -4.1890  -4.1808
    -4.1800  -4.1767  -4.1746  -4.1713  -4.1710  -4.1676  -4.1670  -4.1650
    -4.1618  -4.1602  -4.1602  -4.1581  -4.1555  -4.1510  -4.1487  -4.1482
    -4.1478  -4.1474  -4.1454  -4.1445  -4.1437  -4.1414  -4.1411  -4.1401
    -4.1399  -4.1373  -4.1359  -4.1356  -4.1344  -4.1338  -4.1333  -4.1306
    -4.1294  -4.1281  -4.1265  -4.1254  -4.1229  -4.1228  -4.1211  -4.1178
    -4.1175  -4.1169  -4.1151  -4.1140  -4.1136  -4.1127  -4.1107  -4.1094
    -4.1090  -4.1078  -4.1077  -4.1048  -4.1046  -4.1034  -4.1009  -4.0997
    -4.0986  -4.0971  -4.0949  -4.0939  -4.0933  -4.0904  -4.0882  -4.0874
    -4.0849  -4.0830  -4.0820  -4.0818  -4.0793  -4.0768  -4.0764  -4.0748
    -4.0725  -4.0716  -4.0692  -4.0671  -4.0650  -4.0636  -4.0619  -4.0573
    -4.0558  -4.0521  -4.0507  -4.0485  -4.0454  -4.0423  -4.0386  -4.0366
    -4.0337  -4.0307  -4.0294  -4.0268  -4.0245  -4.0213  -4.0203  -4.0186
    -4.0151  -4.0130  -4.0122  -4.0110  -4.0079  -4.0078  -4.0054  -4.0048
    -4.0044  -4.0032  -4.0011  -4.0003  -3.9969  -3.9968  -3.9945  -3.9932
    -3.9929  -3.9916  -3.9902  -3.9889  -3.9881  -3.9858  -3.9855  -3.9844
    -3.9833  -3.9816  -3.9810  -3.9800  -3.9793  -3.9762  -3.9747  -3.9738
    -3.9719  -3.9717  -3.9699  -3.9690  -3.9677  -3.9657  -3.9635  -3.9627
    -3.9602  -3.9592  -3.9591  -3.9582  -3.9558  -3.9547  -3.9542  -3.9527
    -3.9508  -3.9506  -3.9495  -3.9486  -3.9457  -3.9451  -3.9419  -3.9404
    -3.9390  -3.9366  -3.9361  -3.9329  -3.9300  -3.9295  -3.9271  -3.9258
    -3.9229  -3.9217  -3.9202  -3.9200  -3.9172  -3.9169  -3.9134  -3.9129
    -3.9127  -3.9124  -3.9122  -3.9113  -3.9087  -3.9078  -3.9074  -3.9051
    -3.9051  -3.9019  -3.9017  -3.8997  -3.8984  -3.8969  -3.8967  -3.8950
    -3.8940  -3.8939  -3.8934  -3.8918  -3.8916  -3.8883  -3.8865  -3.8860
    -3.8836  -3.8836  -3.8808  -3.8800  -3.8759  -3.8750  -3.8728  -3.8677
    -3.8672  -3.8671  -3.8643  -3.8578  -3.8467  -3.8419  -3.8378  -3.8219
    -3.8016  -3.7877  -3.7779  -3.7679  -3.7540  -3.7474  -3.7461  -3.7326
    -3.7291  -3.7066  -3.6735  -3.6715  -3.6266  -3.6243  -3.5706  -3.5636
    -3.4144  -3.3861  -3.3545  -3.3349  -2.9927  -2.9802  -2.9312  -2.9029
    -2.8664  -2.8610  -2.8519  -2.8358  -2.7840  -2.7789  -2.7662  -2.7462
    -2.7049  -2.6523  -2.6221  -2.6167  -2.6058  -2.5920  -2.5553  -2.5472
    -2.5222  -2.5157  -2.4673  -2.4222  -2.3976  -2.3877  -2.3807  -2.3122
    -2.2627  -2.2117  -2.2029  -2.1918  -2.1722  -2.1628  -2.1547  -2.0681
    -2.0300  -2.0210  -2.0112  -0.1254   2.6964   2.7116   2.8493   2.8894
     2.9066   3.0005   3.1046   3.1127   3.1192   3.1242   3.1329   3.1575
     3.1614   3.1721   3.3019   3.3203   3.3365   3.3396   3.3965   3.4006
     3.4245   3.4324   3.4541   3.4695   3.5324   3.5960   3.6376   3.7387
     3.7945   3.8506   3.8757   3.8975   3.9103   4.0091   4.2207   4.2291
     4.2298   4.2595   4.2654   4.3286   4.7033   4.7618   4.7860   4.8429
     5.2635   5.2678   5.2740   5.2862   5.3150   5.3172   5.3685   5.4189
     5.4243   5.5997   5.6198   5.6253   5.6380   5.6586   5.6659   5.8077
     5.8147   5.8239   5.8288   5.8535   5.9167   5.9561   5.9569   6.0470
     6.0579   6.0808   6.0919   6.0936   6.3635   6.3777   6.3848   6.4268
     6.5679   6.5764   6.5936   6.5963   6.6400   6.6527   6.6593   6.7083
     6.7374   6.8334   6.8568   6.8704   6.8881   6.8963   6.9139   6.9590
     7.0235   7.0358   7.0549   7.1112   7.1179   7.1211   7.1232   7.1490
     7.2008   7.2107   7.2303   7.2791   7.2995   7.3038   7.3247   7.3717
     7.3721   7.3871   7.4007   7.4134   7.4367   7.4668   7.4971   7.5077
     7.5301   7.5531   7.5566   7.5899   7.6268   7.6378   7.6769   7.7195
     7.7807   7.8052   7.8144   7.8195   7.8203   7.8386   7.8495   7.8515
     7.8649   7.8919   7.9001   7.9310   7.9652   7.9765   7.9795   7.9867
     8.0633   8.1214   8.1444   8.1973   8.2335   8.2440   8.3317   8.3646
     8.3842   8.4188   8.4558   8.5092   8.5209   8.6415   8.6986   8.7460
     8.8154   8.9089   8.9236   8.9941   9.1540   9.3145  12.6004  12.6425
    13.1063  13.1595  13.3469  13.4825  13.8659  13.8915  13.9064  13.9996
    14.0086  14.0514  14.0804  14.2586  14.2868  14.3014  14.3371  14.3478
    14.3556  14.3591  14.4031  14.4106  14.4230  14.4324  14.4489  14.4988
    14.5060  14.5611  14.6184  14.6386  14.6795  14.8030  14.8821  14.8876
    14.8886  14.9140  14.9173  14.9335  14.9363  15.0709  15.1429  15.3135
    15.5340  15.5569  15.5642  15.5832  15.6010  15.6142  15.6203  15.6374
    15.7099  15.7567  15.8420  15.9125  15.9205  15.9229  15.9690  15.9882
    16.1081  16.3119  16.3238  16.3443  16.3668  16.4136  16.4286  16.4596
    16.4768  16.5997  16.6071  16.6606  16.6856  16.7512  16.7756  16.8051

     occupation numbers 
     1.0000   1.0000   1.0000   1.0000   1.0000   1.0000   1.0000   1.0000
     1.0000   1.0000   1.0000   1.0000   1.0000   1.0000   1.0000   1.0000
     1.0000   1.0000   1.0000   1.0000   1.0000   1.0000   1.0000   1.0000
     1.0000   1.0000   1.0000   1.0000   1.0000   1.0000   1.0000   1.0000
     1.0000   1.0000   1.0000   1.0000   1.0000   1.0000   1.0000   1.0000
     1.0000   1.0000   1.0000   1.0000   1.0000   1.0000   1.0000   1.0000
     1.0000   1.0000   1.0000   1.0000   1.0000   1.0000   1.0000   1.0000
     1.0000   1.0000   1.0000   1.0000   1.0000   1.0000   1.0000   1.0000
     1.0000   1.0000   1.0000   1.0000   1.0000   1.0000   1.0000   1.0000
     1.0000   1.0000   1.0000   1.0000   1.0000   1.0000   1.0000   1.0000
     1.0000   1.0000   1.0000   1.0000   1.0000   1.0000   1.0000   1.0000
     1.0000   1.0000   1.0000   1.0000   1.0000   1.0000   1.0000   1.0000
     1.0000   1.0000   1.0000   1.0000   1.0000   1.0000   1.0000   1.0000
     1.0000   1.0000   1.0000   1.0000   1.0000   1.0000   1.0000   1.0000
     1.0000   1.0000   1.0000   1.0000   1.0000   1.0000   1.0000   1.0000
     1.0000   1.0000   1.0000   1.0000   1.0000   1.0000   1.0000   1.0000
     1.0000   1.0000   1.0000   1.0000   1.0000   1.0000   1.0000   1.0000
     1.0000   1.0000   1.0000   1.0000   1.0000   1.0000   1.0000   1.0000
     1.0000   1.0000   1.0000   1.0000   1.0000   1.0000   1.0000   1.0000
     1.0000   1.0000   1.0000   1.0000   1.0000   1.0000   1.0000   1.0000
     1.0000   1.0000   1.0000   1.0000   1.0000   1.0000   1.0000   1.0000
     1.0000   1.0000   1.0000   1.0000   1.0000   1.0000   1.0000   1.0000
     1.0000   1.0000   1.0000   1.0000   1.0000   1.0000   1.0000   1.0000
     1.0000   1.0000   1.0000   1.0000   1.0000   1.0000   1.0000   1.0000
     1.0000   1.0000   1.0000   1.0000   1.0000   1.0000   1.0000   1.0000
     1.0000   1.0000   1.0000   1.0000   1.0000   1.0000   1.0000   1.0000
     1.0000   1.0000   1.0000   1.0000   1.0000   1.0000   1.0000   1.0000
     1.0000   1.0000   1.0000   1.0000   1.0000   1.0000   1.0000   1.0000
     1.0000   1.0000   1.0000   1.0000   1.0000   1.0000   1.0000   1.0000
     1.0000   1.0000   1.0000   1.0000   1.0000   1.0000   1.0000   1.0000
     1.0000   1.0000   1.0000   1.0000   1.0000   1.0000   1.0000   1.0000
     1.0000   1.0000   1.0000   1.0000   1.0000   1.0000   1.0000   1.0000
     1.0000   1.0000   1.0000   1.0000   1.0000   1.0000   1.0000   1.0000
     1.0000   1.0000   1.0000   1.0000   1.0000   1.0000   1.0000   1.0000
     1.0000   1.0000   1.0000   1.0000   1.0000   1.0000   1.0000   1.0000
     1.0000   1.0000   1.0000   1.0000   1.0000   1.0000   1.0000   1.0000
     1.0000   1.0000   1.0000   1.0000   1.0000   1.0000   1.0000   1.0000
     1.0000   1.0000   1.0000   1.0000   1.0000   1.0000   1.0000   1.0000
     1.0000   1.0000   1.0000   1.0000   1.0000   1.0000   1.0000   1.0000
     1.0000   1.0000   1.0000   1.0000   1.0000   1.0000   1.0000   1.0000
     1.0000   1.0000   1.0000   1.0000   1.0000   1.0000   1.0000   1.0000
     1.0000   1.0000   1.0000   1.0000   1.0000   1.0000   1.0000   1.0000
     1.0000   1.0000   1.0000   1.0000   1.0000   1.0000   1.0000   1.0000
     1.0000   1.0000   1.0000   1.0000   1.0000   1.0000   1.0000   1.0000
     1.0000   1.0000   1.0000   1.0000   1.0000   1.0000   1.0000   1.0000
     1.0000   1.0000   1.0000   1.0000   1.0000   1.0000   1.0000   1.0000
     1.0000   1.0000   1.0000   1.0000   1.0000   1.0000   1.0000   1.0000
     1.0000   1.0000   1.0000   1.0000   1.0000   1.0000   1.0000   1.0000
     1.0000   1.0000   1.0000   1.0000   1.0000   1.0000   1.0000   1.0000
     1.0000   1.0000   1.0000   1.0000   1.0000   1.0000   1.0000   1.0000
     1.0000   1.0000   1.0000   1.0000   1.0000   1.0000   1.0000   1.0000
     1.0000   1.0000   1.0000   1.0000   1.0000   1.0000   1.0000   1.0000
     1.0000   1.0000   1.0000   1.0000   1.0000   1.0000   1.0000   1.0000
     1.0000   1.0000   1.0000   1.0000   1.0000   1.0000   1.0000   1.0000
     1.0000   1.0000   1.0000   1.0000   1.0000   1.0000   1.0000   1.0000
     1.0000   1.0000   1.0000   1.0000   1.0000   1.0000   1.0000   1.0000
     1.0000   1.0000   1.0000   1.0000   1.0000   1.0000   1.0000   1.0000
     1.0000   1.0000   1.0000   1.0000   1.0000   1.0000   1.0000   1.0000
     1.0000   1.0000   1.0000   1.0000   1.0000   1.0000   1.0000   1.0000
     1.0000   1.0000   1.0000   1.0000   1.0000   1.0000   1.0000   1.0000
     1.0000   1.0000   1.0000   1.0000   1.0000   0.9975   0.0000   0.0000
     0.0000   0.0000   0.0000   0.0000   0.0000   0.0000   0.0000   0.0000
     0.0000   0.0000   0.0000   0.0000   0.0000   0.0000   0.0000   0.0000
     0.0000   0.0000   0.0000   0.0000   0.0000   0.0000   0.0000   0.0000
     0.0000   0.0000   0.0000   0.0000   0.0000   0.0000   0.0000   0.0000
     0.0000   0.0000   0.0000   0.0000   0.0000   0.0000   0.0000   0.0000
     0.0000   0.0000   0.0000   0.0000   0.0000   0.0000   0.0000   0.0000
     0.0000   0.0000   0.0000   0.0000   0.0000   0.0000   0.0000   0.0000
     0.0000   0.0000   0.0000   0.0000   0.0000   0.0000   0.0000   0.0000
     0.0000   0.0000   0.0000   0.0000   0.0000   0.0000   0.0000   0.0000

          k = 0.0000-0.5774-0.3067 ( 51244 PWs)   bands (ev):

    -6.2013  -6.1868  -6.1814  -6.1363  -5.8931  -5.8876  -5.8712  -5.8638
    -5.8403  -5.8395  -5.8241  -5.8015  -5.6776  -5.6719  -5.6707  -5.6691
    -5.6675  -5.6651  -5.6628  -5.6595  -5.6562  -5.6531  -5.6523  -5.6491
    -5.6453  -5.6427  -5.6370  -5.6355  -5.6228  -5.6088  -5.5820  -5.5814
    -5.5757  -5.5728  -5.5705  -5.5664  -5.5640  -5.5629  -5.5610  -5.5591
    -5.5581  -5.5492  -5.5468  -5.5459  -5.5455  -5.5432  -5.5377  -5.5361
    -5.5357  -5.5331  -5.5211  -5.4951  -5.4939  -4.2501  -4.1880  -4.1810
    -4.1793  -4.1787  -4.1719  -4.1700  -4.1687  -4.1642  -4.1637  -4.1621
    -4.1619  -4.1607  -4.1572  -4.1561  -4.1550  -4.1549  -4.1534  -4.1524
    -4.1513  -4.1495  -4.1459  -4.1455  -4.1442  -4.1435  -4.1421  -4.1420
    -4.1407  -4.1404  -4.1392  -4.1378  -4.1335  -4.1333  -4.1317  -4.1310
    -4.1301  -4.1290  -4.1273  -4.1246  -4.1235  -4.1231  -4.1196  -4.1185
    -4.1183  -4.1176  -4.1156  -4.1147  -4.1143  -4.1141  -4.1129  -4.1110
    -4.1106  -4.1081  -4.1079  -4.1058  -4.1048  -4.1031  -4.1004  -4.1002
    -4.0972  -4.0969  -4.0957  -4.0930  -4.0914  -4.0904  -4.0893  -4.0880
    -4.0865  -4.0836  -4.0805  -4.0760  -4.0733  -4.0700  -4.0681  -4.0668
    -4.0665  -4.0651  -4.0645  -4.0635  -4.0628  -4.0614  -4.0582  -4.0568
    -4.0535  -4.0524  -4.0502  -4.0488  -4.0447  -4.0441  -4.0427  -4.0420
    -4.0414  -4.0408  -4.0361  -4.0342  -4.0318  -4.0263  -4.0237  -4.0206
    -4.0201  -4.0127  -4.0112  -4.0091  -4.0054  -4.0054  -4.0042  -4.0036
    -4.0030  -4.0013  -4.0006  -3.9993  -3.9988  -3.9968  -3.9935  -3.9928
    -3.9915  -3.9912  -3.9889  -3.9879  -3.9871  -3.9858  -3.9847  -3.9843
    -3.9830  -3.9803  -3.9793  -3.9790  -3.9781  -3.9771  -3.9754  -3.9734
    -3.9723  -3.9703  -3.9686  -3.9684  -3.9670  -3.9660  -3.9649  -3.9644
    -3.9626  -3.9613  -3.9610  -3.9588  -3.9574  -3.9567  -3.9557  -3.9529
    -3.9519  -3.9517  -3.9486  -3.9479  -3.9469  -3.9458  -3.9417  -3.9397
    -3.9387  -3.9354  -3.9349  -3.9327  -3.9326  -3.9289  -3.9266  -3.9242
    -3.9242  -3.9217  -3.9216  -3.9196  -3.9176  -3.9169  -3.9158  -3.9140
    -3.9135  -3.9114  -3.9114  -3.9109  -3.9104  -3.9080  -3.9079  -3.9053
    -3.9039  -3.9025  -3.9016  -3.9015  -3.8997  -3.8965  -3.8964  -3.8957
    -3.8944  -3.8939  -3.8933  -3.8921  -3.8891  -3.8889  -3.8882  -3.8865
    -3.8860  -3.8844  -3.8827  -3.8799  -3.8773  -3.8765  -3.8729  -3.8677
    -3.8674  -3.8665  -3.8646  -3.8585  -3.8468  -3.8423  -3.8381  -3.8219
    -3.7916  -3.7878  -3.7723  -3.7675  -3.7471  -3.7459  -3.7336  -3.7326
    -3.6656  -3.6589  -3.6533  -3.6249  -3.6177  -3.6139  -3.5980  -3.5875
    -3.5815  -3.5566  -3.1924  -3.1886  -3.1883  -3.1587  -2.8427  -2.8389
    -2.8340  -2.8324  -2.8282  -2.8213  -2.8043  -2.7726  -2.7050  -2.7016
    -2.6890  -2.6812  -2.6725  -2.6337  -2.5219  -2.5193  -2.5184  -2.5089
    -2.5076  -2.5066  -2.5064  -2.4901  -2.4737  -2.4004  -2.3577  -2.3445
    -2.3409  -2.2701  -2.2281  -2.1838  -2.0926  -2.0864  -2.0792  -2.0781
    -2.0771  -2.0676  -2.0575  -0.1279   2.7798   2.7950   2.8210   2.8406
     3.1423   3.1563   3.1736   3.1839   3.1865   3.1966   3.2011   3.2059
     3.2081   3.2189   3.2219   3.2253   3.2259   3.2304   3.2369   3.2441
     3.2746   3.3068   3.3241   3.3436   3.5368   3.5533   3.5551   3.6109
     3.7725   3.8124   4.0602   4.0762   4.0772   4.0842   4.0911   4.1225
     4.1391   4.1808   4.4909   4.5101   4.5201   4.5822   5.2777   5.2835
     5.3092   5.3489   5.4258   5.4326   5.4334   5.4356   5.4398   5.4521
     5.4544   5.4779   5.4893   5.5056   5.5331   5.5968   5.6024   5.6046
     5.6243   5.6721   5.6838   5.6854   5.9985   6.0029   6.0083   6.0130
     6.0206   6.0235   6.0475   6.0981   6.2999   6.3016   6.3070   6.3092
     6.3147   6.3224   6.3670   6.3719   6.6911   6.6946   6.7019   6.7353
     6.7476   6.7609   6.8633   6.8724   6.8879   6.9628   7.2048   7.2076
     7.2152   7.2187   7.2197   7.2300   7.2448   7.2759   7.2981   7.3106
     7.3122   7.3138   7.3241   7.3404   7.3488   7.3853   7.3872   7.4160
     7.4262   7.4327   7.4426   7.4509   7.5011   7.5070   7.5099   7.5551
     7.6039   7.6197   7.6217   7.6281   7.6282   7.6316   7.6376   7.6446
     7.6472   7.6474   7.6484   7.6486   7.6601   7.6626   7.6724   7.6785
     7.6791   7.7019   7.8298   7.8424   7.8477   7.9065   7.9698   8.0516
     8.1210   8.1337   8.1415   8.1607   8.2097   8.3561   8.3575   8.3739
     8.3898   8.4200   8.4292   8.5061   8.5698   8.5922   8.7660   8.7910
     8.9030   8.9144   8.9316   8.9393   9.1171   9.3084  12.7882  12.8079
    12.8151  12.8950  13.5685  13.5892  13.8301  13.8427  13.9837  13.9844
    14.0154  14.0385  14.2161  14.2345  14.2547  14.2626  14.2861  14.3369
    14.5546  14.5561  14.5561  14.5690  14.5707  14.5766  14.5775  14.5943
    14.6128  14.6227  14.6274  14.6281  14.6306  14.6320  14.6370  14.6401
    14.6425  14.6633  14.7125  14.7645  14.7648  14.7920  14.8416  15.2161
    15.6661  15.6804  15.6813  15.7059  15.7126  15.7249  15.7456  15.7962
    15.8857  15.9010  15.9026  15.9683  16.0402  16.0526  16.0668  16.0677
    16.0759  16.1057  16.1427  16.1444  16.1872  16.2875  16.3902  16.4018
    16.4258  16.4721  16.7185  16.7359  16.7541  16.7768  16.8352  16.8421

     occupation numbers 
     1.0000   1.0000   1.0000   1.0000   1.0000   1.0000   1.0000   1.0000
     1.0000   1.0000   1.0000   1.0000   1.0000   1.0000   1.0000   1.0000
     1.0000   1.0000   1.0000   1.0000   1.0000   1.0000   1.0000   1.0000
     1.0000   1.0000   1.0000   1.0000   1.0000   1.0000   1.0000   1.0000
     1.0000   1.0000   1.0000   1.0000   1.0000   1.0000   1.0000   1.0000
     1.0000   1.0000   1.0000   1.0000   1.0000   1.0000   1.0000   1.0000
     1.0000   1.0000   1.0000   1.0000   1.0000   1.0000   1.0000   1.0000
     1.0000   1.0000   1.0000   1.0000   1.0000   1.0000   1.0000   1.0000
     1.0000   1.0000   1.0000   1.0000   1.0000   1.0000   1.0000   1.0000
     1.0000   1.0000   1.0000   1.0000   1.0000   1.0000   1.0000   1.0000
     1.0000   1.0000   1.0000   1.0000   1.0000   1.0000   1.0000   1.0000
     1.0000   1.0000   1.0000   1.0000   1.0000   1.0000   1.0000   1.0000
     1.0000   1.0000   1.0000   1.0000   1.0000   1.0000   1.0000   1.0000
     1.0000   1.0000   1.0000   1.0000   1.0000   1.0000   1.0000   1.0000
     1.0000   1.0000   1.0000   1.0000   1.0000   1.0000   1.0000   1.0000
     1.0000   1.0000   1.0000   1.0000   1.0000   1.0000   1.0000   1.0000
     1.0000   1.0000   1.0000   1.0000   1.0000   1.0000   1.0000   1.0000
     1.0000   1.0000   1.0000   1.0000   1.0000   1.0000   1.0000   1.0000
     1.0000   1.0000   1.0000   1.0000   1.0000   1.0000   1.0000   1.0000
     1.0000   1.0000   1.0000   1.0000   1.0000   1.0000   1.0000   1.0000
     1.0000   1.0000   1.0000   1.0000   1.0000   1.0000   1.0000   1.0000
     1.0000   1.0000   1.0000   1.0000   1.0000   1.0000   1.0000   1.0000
     1.0000   1.0000   1.0000   1.0000   1.0000   1.0000   1.0000   1.0000
     1.0000   1.0000   1.0000   1.0000   1.0000   1.0000   1.0000   1.0000
     1.0000   1.0000   1.0000   1.0000   1.0000   1.0000   1.0000   1.0000
     1.0000   1.0000   1.0000   1.0000   1.0000   1.0000   1.0000   1.0000
     1.0000   1.0000   1.0000   1.0000   1.0000   1.0000   1.0000   1.0000
     1.0000   1.0000   1.0000   1.0000   1.0000   1.0000   1.0000   1.0000
     1.0000   1.0000   1.0000   1.0000   1.0000   1.0000   1.0000   1.0000
     1.0000   1.0000   1.0000   1.0000   1.0000   1.0000   1.0000   1.0000
     1.0000   1.0000   1.0000   1.0000   1.0000   1.0000   1.0000   1.0000
     1.0000   1.0000   1.0000   1.0000   1.0000   1.0000   1.0000   1.0000
     1.0000   1.0000   1.0000   1.0000   1.0000   1.0000   1.0000   1.0000
     1.0000   1.0000   1.0000   1.0000   1.0000   1.0000   1.0000   1.0000
     1.0000   1.0000   1.0000   1.0000   1.0000   1.0000   1.0000   1.0000
     1.0000   1.0000   1.0000   1.0000   1.0000   1.0000   1.0000   1.0000
     1.0000   1.0000   1.0000   1.0000   1.0000   1.0000   1.0000   1.0000
     1.0000   1.0000   1.0000   1.0000   1.0000   1.0000   1.0000   1.0000
     1.0000   1.0000   1.0000   1.0000   1.0000   1.0000   1.0000   1.0000
     1.0000   1.0000   1.0000   1.0000   1.0000   1.0000   1.0000   1.0000
     1.0000   1.0000   1.0000   1.0000   1.0000   1.0000   1.0000   1.0000
     1.0000   1.0000   1.0000   1.0000   1.0000   1.0000   1.0000   1.0000
     1.0000   1.0000   1.0000   1.0000   1.0000   1.0000   1.0000   1.0000
     1.0000   1.0000   1.0000   1.0000   1.0000   1.0000   1.0000   1.0000
     1.0000   1.0000   1.0000   1.0000   1.0000   1.0000   1.0000   1.0000
     1.0000   1.0000   1.0000   1.0000   1.0000   1.0000   1.0000   1.0000
     1.0000   1.0000   1.0000   1.0000   1.0000   1.0000   1.0000   1.0000
     1.0000   1.0000   1.0000   1.0000   1.0000   1.0000   1.0000   1.0000
     1.0000   1.0000   1.0000   1.0000   1.0000   1.0000   1.0000   1.0000
     1.0000   1.0000   1.0000   1.0000   1.0000   1.0000   1.0000   1.0000
     1.0000   1.0000   1.0000   1.0000   1.0000   1.0000   1.0000   1.0000
     1.0000   1.0000   1.0000   1.0000   1.0000   1.0000   1.0000   1.0000
     1.0000   1.0000   1.0000   1.0000   1.0000   1.0000   1.0000   1.0000
     1.0000   1.0000   1.0000   1.0000   1.0000   1.0000   1.0000   1.0000
     1.0000   1.0000   1.0000   1.0000   1.0000   1.0000   1.0000   1.0000
     1.0000   1.0000   1.0000   1.0000   1.0000   1.0000   1.0000   1.0000
     1.0000   1.0000   1.0000   1.0000   1.0000   1.0000   1.0000   1.0000
     1.0000   1.0000   1.0000   1.0000   1.0000   1.0000   1.0000   1.0000
     1.0000   1.0000   1.0000   1.0000   1.0000   1.0000   1.0000   1.0000
     1.0000   1.0000   1.0000   1.0000   1.0000   1.0000   1.0000   1.0000
     1.0000   1.0000   1.0000   1.0000   1.0000   1.0027   0.0000   0.0000
     0.0000   0.0000   0.0000   0.0000   0.0000   0.0000   0.0000   0.0000
     0.0000   0.0000   0.0000   0.0000   0.0000   0.0000   0.0000   0.0000
     0.0000   0.0000   0.0000   0.0000   0.0000   0.0000   0.0000   0.0000
     0.0000   0.0000   0.0000   0.0000   0.0000   0.0000   0.0000   0.0000
     0.0000   0.0000   0.0000   0.0000   0.0000   0.0000   0.0000   0.0000
     0.0000   0.0000   0.0000   0.0000   0.0000   0.0000   0.0000   0.0000
     0.0000   0.0000   0.0000   0.0000   0.0000   0.0000   0.0000   0.0000
     0.0000   0.0000   0.0000   0.0000   0.0000   0.0000   0.0000   0.0000
     0.0000   0.0000   0.0000   0.0000   0.0000   0.0000   0.0000   0.0000

          k = 0.1250 0.2165 0.0000 ( 51323 PWs)   bands (ev):

    -6.4263  -6.1713  -6.1534  -5.9742  -5.9507  -5.8235  -5.8159  -5.8135
    -5.8093  -5.8019  -5.7864  -5.7715  -5.7633  -5.7433  -5.7272  -5.7071
    -5.7037  -5.6969  -5.6812  -5.6637  -5.6555  -5.6497  -5.6425  -5.6309
    -5.6219  -5.6181  -5.6105  -5.6073  -5.6066  -5.5975  -5.5831  -5.5794
    -5.5763  -5.5737  -5.5719  -5.5679  -5.5668  -5.5620  -5.5598  -5.5572
    -5.5565  -5.5522  -5.5518  -5.5503  -5.5473  -5.5465  -5.5401  -5.5380
    -5.5360  -5.5268  -5.5226  -5.4955  -5.4949  -4.2530  -4.2063  -4.1951
    -4.1917  -4.1904  -4.1896  -4.1830  -4.1796  -4.1740  -4.1713  -4.1680
    -4.1655  -4.1620  -4.1617  -4.1602  -4.1559  -4.1550  -4.1535  -4.1515
    -4.1509  -4.1503  -4.1496  -4.1476  -4.1471  -4.1461  -4.1453  -4.1437
    -4.1426  -4.1408  -4.1389  -4.1364  -4.1353  -4.1344  -4.1343  -4.1336
    -4.1325  -4.1306  -4.1297  -4.1268  -4.1249  -4.1239  -4.1226  -4.1206
    -4.1173  -4.1141  -4.1130  -4.1114  -4.1110  -4.1100  -4.1079  -4.1071
    -4.1065  -4.1058  -4.1047  -4.1033  -4.1017  -4.1000  -4.0989  -4.0970
    -4.0941  -4.0935  -4.0928  -4.0905  -4.0877  -4.0837  -4.0823  -4.0806
    -4.0792  -4.0783  -4.0745  -4.0736  -4.0706  -4.0687  -4.0669  -4.0646
    -4.0637  -4.0618  -4.0590  -4.0572  -4.0524  -4.0510  -4.0498  -4.0473
    -4.0439  -4.0419  -4.0405  -4.0380  -4.0375  -4.0359  -4.0340  -4.0303
    -4.0291  -4.0268  -4.0243  -4.0196  -4.0178  -4.0176  -4.0152  -4.0135
    -4.0119  -4.0098  -4.0087  -4.0079  -4.0069  -4.0045  -4.0043  -4.0028
    -4.0006  -3.9995  -3.9986  -3.9982  -3.9970  -3.9965  -3.9945  -3.9922
    -3.9911  -3.9903  -3.9887  -3.9883  -3.9872  -3.9861  -3.9852  -3.9846
    -3.9832  -3.9808  -3.9802  -3.9787  -3.9786  -3.9771  -3.9758  -3.9729
    -3.9716  -3.9708  -3.9704  -3.9683  -3.9677  -3.9658  -3.9643  -3.9628
    -3.9622  -3.9608  -3.9593  -3.9576  -3.9564  -3.9551  -3.9518  -3.9502
    -3.9492  -3.9484  -3.9449  -3.9437  -3.9422  -3.9421  -3.9403  -3.9394
    -3.9387  -3.9381  -3.9362  -3.9350  -3.9347  -3.9319  -3.9311  -3.9298
    -3.9289  -3.9252  -3.9238  -3.9234  -3.9216  -3.9208  -3.9197  -3.9178
    -3.9160  -3.9152  -3.9133  -3.9117  -3.9104  -3.9085  -3.9083  -3.9070
    -3.9066  -3.9042  -3.9030  -3.9007  -3.8996  -3.8987  -3.8969  -3.8955
    -3.8943  -3.8938  -3.8925  -3.8910  -3.8906  -3.8883  -3.8871  -3.8847
    -3.8810  -3.8791  -3.8781  -3.8768  -3.8741  -3.8725  -3.8707  -3.8694
    -3.8656  -3.8616  -3.8591  -3.8491  -3.8478  -3.8428  -3.8277  -3.8012
    -3.7933  -3.7810  -3.7736  -3.7544  -3.7450  -3.7412  -3.7375  -3.7315
    -3.7289  -3.6311  -3.6290  -3.5673  -3.5598  -3.5475  -3.5251  -3.4601
    -3.4427  -3.3534  -3.3409  -3.2555  -3.2528  -3.2392  -3.2088  -3.1554
    -3.1141  -2.9730  -2.9690  -2.9530  -2.9071  -2.8477  -2.8463  -2.8222
    -2.7731  -2.5966  -2.5877  -2.5860  -2.5723  -2.5406  -2.4807  -2.4322
    -2.4306  -2.4130  -2.4100  -2.3953  -2.3786  -2.3486  -2.3237  -2.2580
    -2.2166  -2.1958  -2.1668  -2.1615  -2.1491  -2.1107  -2.0869  -2.0752
    -2.0596  -2.0519  -2.0284  -0.1281   2.4639   3.0385   3.0450   3.0519
     3.0789   3.1652   3.1799   3.2192   3.2424   3.2546   3.2582   3.2722
     3.3048   3.4364   3.4440   3.4670   3.4719   3.4900   3.5062   3.5295
     3.5502   3.5615   3.5730   3.6212   3.7381   3.7442   3.7697   3.7709
     3.8350   3.9524   3.9574   3.9747   3.9849   4.0125   4.0680   4.1014
     4.1766   4.3658   4.3738   4.3755   4.3961   4.4037   4.4872   4.5935
     4.6132   4.6206   4.7070   4.9391   4.9684   4.9706   4.9935   5.0199
     5.0414   5.1045   5.1143   5.1249   5.1439   5.1477   5.2656   5.3613
     5.4231   5.8733   5.9915   6.0594   6.0655   6.0983   6.1023   6.1063
     6.1587   6.1988   6.2066   6.2250   6.2269   6.2524   6.2724   6.2757
     6.2996   6.3126   6.3327   6.3583   6.4177   6.6723   6.6876   6.6952
     6.7312   6.7552   6.8320   6.8761   6.8885   6.9221   6.9382   7.0208
     7.0296   7.0383   7.0504   7.0542   7.0568   7.0909   7.1368   7.1806
     7.1878   7.2204   7.2344   7.2543   7.2758   7.4953   7.5047   7.5336
     7.5566   7.5826   7.6186   7.6945   7.6977   7.7347   7.7369   7.7467
     7.7483   7.7593   7.7715   7.7764   7.8097   7.8254   7.8428   7.9079
     7.9547   7.9603   7.9709   7.9981   8.0168   8.0326   8.0465   8.0517
     8.0750   8.0801   8.0868   8.0933   8.1244   8.1565   8.1642   8.2217
     8.2548   8.2638   8.2776   8.2844   8.2927   8.3192   8.3520   8.3605
     8.3985   8.4384   8.5051   8.5494   8.6760   8.7092   8.7560   8.7706
     8.8435   8.9324   9.0874   9.1436   9.2851   9.4055  11.4947  12.9152
    12.9439  13.4713  13.4745  13.4866  13.5061  13.6046  13.6343  13.6708
    13.7357  13.7445  13.7603  13.7695  13.7852  13.7991  13.8172  13.8252
    13.8374  14.0100  14.2431  14.2657  14.2848  14.3695  14.4712  14.4790
    14.4865  14.5771  14.5864  14.5985  14.7858  14.8162  14.9624  14.9716
    14.9770  14.9807  14.9933  15.0117  15.0270  15.0398  15.0614  15.0900
    15.1254  15.1933  15.2258  15.3109  15.3394  15.3889  15.4332  15.4951
    15.5221  15.6252  15.8351  15.8655  15.9194  15.9964  16.3018  16.3152
    16.3253  16.3279  16.3379  16.3440  16.3570  16.3612  16.3689  16.3782
    16.3856  16.4070  16.4330  16.4977  16.5208  16.5341  16.5426  16.5591

     occupation numbers 
     1.0000   1.0000   1.0000   1.0000   1.0000   1.0000   1.0000   1.0000
     1.0000   1.0000   1.0000   1.0000   1.0000   1.0000   1.0000   1.0000
     1.0000   1.0000   1.0000   1.0000   1.0000   1.0000   1.0000   1.0000
     1.0000   1.0000   1.0000   1.0000   1.0000   1.0000   1.0000   1.0000
     1.0000   1.0000   1.0000   1.0000   1.0000   1.0000   1.0000   1.0000
     1.0000   1.0000   1.0000   1.0000   1.0000   1.0000   1.0000   1.0000
     1.0000   1.0000   1.0000   1.0000   1.0000   1.0000   1.0000   1.0000
     1.0000   1.0000   1.0000   1.0000   1.0000   1.0000   1.0000   1.0000
     1.0000   1.0000   1.0000   1.0000   1.0000   1.0000   1.0000   1.0000
     1.0000   1.0000   1.0000   1.0000   1.0000   1.0000   1.0000   1.0000
     1.0000   1.0000   1.0000   1.0000   1.0000   1.0000   1.0000   1.0000
     1.0000   1.0000   1.0000   1.0000   1.0000   1.0000   1.0000   1.0000
     1.0000   1.0000   1.0000   1.0000   1.0000   1.0000   1.0000   1.0000
     1.0000   1.0000   1.0000   1.0000   1.0000   1.0000   1.0000   1.0000
     1.0000   1.0000   1.0000   1.0000   1.0000   1.0000   1.0000   1.0000
     1.0000   1.0000   1.0000   1.0000   1.0000   1.0000   1.0000   1.0000
     1.0000   1.0000   1.0000   1.0000   1.0000   1.0000   1.0000   1.0000
     1.0000   1.0000   1.0000   1.0000   1.0000   1.0000   1.0000   1.0000
     1.0000   1.0000   1.0000   1.0000   1.0000   1.0000   1.0000   1.0000
     1.0000   1.0000   1.0000   1.0000   1.0000   1.0000   1.0000   1.0000
     1.0000   1.0000   1.0000   1.0000   1.0000   1.0000   1.0000   1.0000
     1.0000   1.0000   1.0000   1.0000   1.0000   1.0000   1.0000   1.0000
     1.0000   1.0000   1.0000   1.0000   1.0000   1.0000   1.0000   1.0000
     1.0000   1.0000   1.0000   1.0000   1.0000   1.0000   1.0000   1.0000
     1.0000   1.0000   1.0000   1.0000   1.0000   1.0000   1.0000   1.0000
     1.0000   1.0000   1.0000   1.0000   1.0000   1.0000   1.0000   1.0000
     1.0000   1.0000   1.0000   1.0000   1.0000   1.0000   1.0000   1.0000
     1.0000   1.0000   1.0000   1.0000   1.0000   1.0000   1.0000   1.0000
     1.0000   1.0000   1.0000   1.0000   1.0000   1.0000   1.0000   1.0000
     1.0000   1.0000   1.0000   1.0000   1.0000   1.0000   1.0000   1.0000
     1.0000   1.0000   1.0000   1.0000   1.0000   1.0000   1.0000   1.0000
     1.0000   1.0000   1.0000   1.0000   1.0000   1.0000   1.0000   1.0000
     1.0000   1.0000   1.0000   1.0000   1.0000   1.0000   1.0000   1.0000
     1.0000   1.0000   1.0000   1.0000   1.0000   1.0000   1.0000   1.0000
     1.0000   1.0000   1.0000   1.0000   1.0000   1.0000   1.0000   1.0000
     1.0000   1.0000   1.0000   1.0000   1.0000   1.0000   1.0000   1.0000
     1.0000   1.0000   1.0000   1.0000   1.0000   1.0000   1.0000   1.0000
     1.0000   1.0000   1.0000   1.0000   1.0000   1.0000   1.0000   1.0000
     1.0000   1.0000   1.0000   1.0000   1.0000   1.0000   1.0000   1.0000
     1.0000   1.0000   1.0000   1.0000   1.0000   1.0000   1.0000   1.0000
     1.0000   1.0000   1.0000   1.0000   1.0000   1.0000   1.0000   1.0000
     1.0000   1.0000   1.0000   1.0000   1.0000   1.0000   1.0000   1.0000
     1.0000   1.0000   1.0000   1.0000   1.0000   1.0000   1.0000   1.0000
     1.0000   1.0000   1.0000   1.0000   1.0000   1.0000   1.0000   1.0000
     1.0000   1.0000   1.0000   1.0000   1.0000   1.0000   1.0000   1.0000
     1.0000   1.0000   1.0000   1.0000   1.0000   1.0000   1.0000   1.0000
     1.0000   1.0000   1.0000   1.0000   1.0000   1.0000   1.0000   1.0000
     1.0000   1.0000   1.0000   1.0000   1.0000   1.0000   1.0000   1.0000
     1.0000   1.0000   1.0000   1.0000   1.0000   1.0000   1.0000   1.0000
     1.0000   1.0000   1.0000   1.0000   1.0000   1.0000   1.0000   1.0000
     1.0000   1.0000   1.0000   1.0000   1.0000   1.0000   1.0000   1.0000
     1.0000   1.0000   1.0000   1.0000   1.0000   1.0000   1.0000   1.0000
     1.0000   1.0000   1.0000   1.0000   1.0000   1.0000   1.0000   1.0000
     1.0000   1.0000   1.0000   1.0000   1.0000   1.0000   1.0000   1.0000
     1.0000   1.0000   1.0000   1.0000   1.0000   1.0000   1.0000   1.0000
     1.0000   1.0000   1.0000   1.0000   1.0000   1.0000   1.0000   1.0000
     1.0000   1.0000   1.0000   1.0000   1.0000   1.0000   1.0000   1.0000
     1.0000   1.0000   1.0000   1.0000   1.0000   1.0000   1.0000   1.0000
     1.0000   1.0000   1.0000   1.0000   1.0000   1.0000   1.0000   1.0000
     1.0000   1.0000   1.0000   1.0000   1.0000   1.0000   1.0000   1.0000
     1.0000   1.0000   1.0000   1.0000   1.0370  -0.0127   0.0000   0.0000
     0.0000   0.0000   0.0000   0.0000   0.0000   0.0000   0.0000   0.0000
     0.0000   0.0000   0.0000   0.0000   0.0000   0.0000   0.0000   0.0000
     0.0000   0.0000   0.0000   0.0000   0.0000   0.0000   0.0000   0.0000
     0.0000   0.0000   0.0000   0.0000   0.0000   0.0000   0.0000   0.0000
     0.0000   0.0000   0.0000   0.0000   0.0000   0.0000   0.0000   0.0000
     0.0000   0.0000   0.0000   0.0000   0.0000   0.0000   0.0000   0.0000
     0.0000   0.0000   0.0000   0.0000   0.0000   0.0000   0.0000   0.0000
     0.0000   0.0000   0.0000   0.0000   0.0000   0.0000   0.0000   0.0000
     0.0000   0.0000   0.0000   0.0000   0.0000   0.0000   0.0000   0.0000

          k = 0.1250 0.2165 0.1533 ( 51308 PWs)   bands (ev):

    -6.4086  -6.2664  -6.0487  -5.9626  -5.9406  -5.8754  -5.8573  -5.8387
    -5.8118  -5.7984  -5.7531  -5.7474  -5.7393  -5.7354  -5.7336  -5.7225
    -5.7113  -5.6851  -5.6702  -5.6665  -5.6611  -5.6524  -5.6471  -5.6359
    -5.6187  -5.6101  -5.6048  -5.6027  -5.5986  -5.5947  -5.5903  -5.5874
    -5.5801  -5.5770  -5.5736  -5.5708  -5.5670  -5.5656  -5.5627  -5.5597
    -5.5562  -5.5515  -5.5505  -5.5476  -5.5450  -5.5424  -5.5415  -5.5370
    -5.5356  -5.5272  -5.5227  -5.4955  -5.4949  -4.2530  -4.2039  -4.1949
    -4.1918  -4.1878  -4.1872  -4.1804  -4.1801  -4.1718  -4.1698  -4.1679
    -4.1651  -4.1633  -4.1615  -4.1603  -4.1585  -4.1571  -4.1563  -4.1546
    -4.1528  -4.1507  -4.1494  -4.1480  -4.1473  -4.1462  -4.1451  -4.1439
    -4.1430  -4.1416  -4.1403  -4.1394  -4.1373  -4.1364  -4.1351  -4.1336
    -4.1323  -4.1307  -4.1285  -4.1276  -4.1265  -4.1252  -4.1243  -4.1224
    -4.1205  -4.1197  -4.1181  -4.1174  -4.1157  -4.1134  -4.1118  -4.1109
    -4.1078  -4.1073  -4.1042  -4.1024  -4.0992  -4.0973  -4.0945  -4.0928
    -4.0900  -4.0882  -4.0872  -4.0850  -4.0832  -4.0822  -4.0808  -4.0797
    -4.0782  -4.0761  -4.0744  -4.0728  -4.0697  -4.0688  -4.0664  -4.0648
    -4.0612  -4.0586  -4.0566  -4.0543  -4.0529  -4.0514  -4.0487  -4.0472
    -4.0456  -4.0424  -4.0417  -4.0386  -4.0379  -4.0362  -4.0345  -4.0330
    -4.0307  -4.0274  -4.0237  -4.0222  -4.0183  -4.0153  -4.0137  -4.0130
    -4.0115  -4.0107  -4.0095  -4.0078  -4.0070  -4.0050  -4.0042  -4.0026
    -4.0014  -4.0006  -3.9995  -3.9979  -3.9971  -3.9960  -3.9943  -3.9930
    -3.9917  -3.9904  -3.9883  -3.9878  -3.9855  -3.9844  -3.9829  -3.9820
    -3.9814  -3.9800  -3.9793  -3.9782  -3.9755  -3.9743  -3.9733  -3.9725
    -3.9707  -3.9701  -3.9688  -3.9669  -3.9661  -3.9650  -3.9641  -3.9632
    -3.9624  -3.9613  -3.9590  -3.9574  -3.9569  -3.9553  -3.9523  -3.9506
    -3.9500  -3.9485  -3.9467  -3.9450  -3.9444  -3.9427  -3.9416  -3.9406
    -3.9387  -3.9382  -3.9362  -3.9340  -3.9325  -3.9313  -3.9283  -3.9273
    -3.9256  -3.9242  -3.9234  -3.9223  -3.9222  -3.9199  -3.9195  -3.9177
    -3.9159  -3.9140  -3.9132  -3.9126  -3.9106  -3.9087  -3.9086  -3.9067
    -3.9058  -3.9049  -3.9043  -3.9009  -3.9001  -3.8980  -3.8960  -3.8947
    -3.8944  -3.8930  -3.8916  -3.8909  -3.8883  -3.8866  -3.8854  -3.8838
    -3.8805  -3.8782  -3.8775  -3.8763  -3.8744  -3.8722  -3.8701  -3.8682
    -3.8643  -3.8615  -3.8593  -3.8493  -3.8480  -3.8432  -3.8267  -3.7999
    -3.7927  -3.7794  -3.7719  -3.7505  -3.7456  -3.7393  -3.7353  -3.7318
    -3.7256  -3.6627  -3.6347  -3.6255  -3.6156  -3.5740  -3.4514  -3.4424
    -3.4357  -3.4011  -3.3431  -3.3198  -3.1471  -3.1311  -3.1195  -3.1094
    -3.0757  -3.0723  -3.0531  -3.0448  -2.9787  -2.8626  -2.8173  -2.7800
    -2.7477  -2.6561  -2.6182  -2.5889  -2.5817  -2.5340  -2.4710  -2.4218
    -2.3974  -2.3907  -2.3711  -2.3481  -2.3178  -2.2851  -2.2815  -2.2685
    -2.2560  -2.2347  -2.2075  -2.1633  -2.1293  -2.1140  -2.1103  -2.0986
    -2.0848  -2.0760  -2.0396  -0.1305   2.5860   3.0311   3.0480   3.1253
     3.1335   3.1460   3.1759   3.1998   3.2191   3.2588   3.2936   3.3151
     3.3349   3.3495   3.3881   3.4232   3.4425   3.4488   3.4651   3.4848
     3.4996   3.5309   3.5625   3.6558   3.6726   3.6859   3.6998   3.7201
     3.7404   3.7683   3.9595   4.0128   4.0512   4.0862   4.1293   4.1664
     4.2391   4.2917   4.3716   4.4092   4.6095   4.6162   4.6351   4.6609
     4.6815   4.7044   4.7638   4.7936   4.8044   4.8416   4.9153   5.0945
     5.1158   5.1620   5.1809   5.1981   5.2320   5.3280   5.3405   5.3661
     5.4385   5.7305   5.7452   5.7738   5.7970   5.8148   5.8520   5.9370
     5.9508   6.0055   6.0412   6.0984   6.1271   6.2303   6.3535   6.4001
     6.6948   6.6970   6.7037   6.7053   6.7108   6.7270   6.7333   6.7492
     6.7624   6.7729   6.7946   6.8251   6.8305   6.8600   6.8722   6.8871
     6.9112   6.9366   6.9622   7.0069   7.2160   7.2190   7.2263   7.2494
     7.2836   7.3036   7.3888   7.3995   7.4397   7.5056   7.5109   7.5384
     7.5413   7.5610   7.5728   7.5821   7.6012   7.6243   7.6409   7.6621
     7.7055   7.7389   7.7625   7.7881   7.8110   7.8342   7.8410   7.8567
     7.8710   7.8909   7.9162   7.9437   7.9617   8.0072   8.0471   8.0533
     8.0622   8.0672   8.1001   8.1270   8.1406   8.1808   8.1992   8.2482
     8.2584   8.2840   8.2902   8.2940   8.3006   8.3571   8.3653   8.4283
     8.4406   8.4688   8.5007   8.5725   8.5874   8.6304   8.7211   8.7906
     8.8283   8.9075   9.1127   9.1318   9.2644   9.4003  11.6504  12.4819
    13.3123  13.5673  13.5727  13.5769  13.5818  13.5940  13.5982  13.6058
    13.6596  13.6931  13.7455  13.7846  13.8281  13.8886  13.9753  13.9931
    14.0048  14.0775  14.1430  14.1464  14.1596  14.1784  14.1856  14.3712
    14.6289  14.6341  14.6398  14.6533  14.6721  14.6777  14.7152  14.7233
    14.7300  14.8766  14.9390  15.0207  15.1349  15.1420  15.1463  15.1874
    15.1923  15.2021  15.2284  15.2415  15.2661  15.3329  15.4259  15.5806
    15.7259  15.7371  15.8134  15.9117  15.9496  16.1747  16.2007  16.2215
    16.2731  16.2898  16.3086  16.3470  16.3590  16.3769  16.4129  16.4247
    16.4721  16.5129  16.5557  16.5989  16.6201  16.6326  16.6604  16.6842

     occupation numbers 
     1.0000   1.0000   1.0000   1.0000   1.0000   1.0000   1.0000   1.0000
     1.0000   1.0000   1.0000   1.0000   1.0000   1.0000   1.0000   1.0000
     1.0000   1.0000   1.0000   1.0000   1.0000   1.0000   1.0000   1.0000
     1.0000   1.0000   1.0000   1.0000   1.0000   1.0000   1.0000   1.0000
     1.0000   1.0000   1.0000   1.0000   1.0000   1.0000   1.0000   1.0000
     1.0000   1.0000   1.0000   1.0000   1.0000   1.0000   1.0000   1.0000
     1.0000   1.0000   1.0000   1.0000   1.0000   1.0000   1.0000   1.0000
     1.0000   1.0000   1.0000   1.0000   1.0000   1.0000   1.0000   1.0000
     1.0000   1.0000   1.0000   1.0000   1.0000   1.0000   1.0000   1.0000
     1.0000   1.0000   1.0000   1.0000   1.0000   1.0000   1.0000   1.0000
     1.0000   1.0000   1.0000   1.0000   1.0000   1.0000   1.0000   1.0000
     1.0000   1.0000   1.0000   1.0000   1.0000   1.0000   1.0000   1.0000
     1.0000   1.0000   1.0000   1.0000   1.0000   1.0000   1.0000   1.0000
     1.0000   1.0000   1.0000   1.0000   1.0000   1.0000   1.0000   1.0000
     1.0000   1.0000   1.0000   1.0000   1.0000   1.0000   1.0000   1.0000
     1.0000   1.0000   1.0000   1.0000   1.0000   1.0000   1.0000   1.0000
     1.0000   1.0000   1.0000   1.0000   1.0000   1.0000   1.0000   1.0000
     1.0000   1.0000   1.0000   1.0000   1.0000   1.0000   1.0000   1.0000
     1.0000   1.0000   1.0000   1.0000   1.0000   1.0000   1.0000   1.0000
     1.0000   1.0000   1.0000   1.0000   1.0000   1.0000   1.0000   1.0000
     1.0000   1.0000   1.0000   1.0000   1.0000   1.0000   1.0000   1.0000
     1.0000   1.0000   1.0000   1.0000   1.0000   1.0000   1.0000   1.0000
     1.0000   1.0000   1.0000   1.0000   1.0000   1.0000   1.0000   1.0000
     1.0000   1.0000   1.0000   1.0000   1.0000   1.0000   1.0000   1.0000
     1.0000   1.0000   1.0000   1.0000   1.0000   1.0000   1.0000   1.0000
     1.0000   1.0000   1.0000   1.0000   1.0000   1.0000   1.0000   1.0000
     1.0000   1.0000   1.0000   1.0000   1.0000   1.0000   1.0000   1.0000
     1.0000   1.0000   1.0000   1.0000   1.0000   1.0000   1.0000   1.0000
     1.0000   1.0000   1.0000   1.0000   1.0000   1.0000   1.0000   1.0000
     1.0000   1.0000   1.0000   1.0000   1.0000   1.0000   1.0000   1.0000
     1.0000   1.0000   1.0000   1.0000   1.0000   1.0000   1.0000   1.0000
     1.0000   1.0000   1.0000   1.0000   1.0000   1.0000   1.0000   1.0000
     1.0000   1.0000   1.0000   1.0000   1.0000   1.0000   1.0000   1.0000
     1.0000   1.0000   1.0000   1.0000   1.0000   1.0000   1.0000   1.0000
     1.0000   1.0000   1.0000   1.0000   1.0000   1.0000   1.0000   1.0000
     1.0000   1.0000   1.0000   1.0000   1.0000   1.0000   1.0000   1.0000
     1.0000   1.0000   1.0000   1.0000   1.0000   1.0000   1.0000   1.0000
     1.0000   1.0000   1.0000   1.0000   1.0000   1.0000   1.0000   1.0000
     1.0000   1.0000   1.0000   1.0000   1.0000   1.0000   1.0000   1.0000
     1.0000   1.0000   1.0000   1.0000   1.0000   1.0000   1.0000   1.0000
     1.0000   1.0000   1.0000   1.0000   1.0000   1.0000   1.0000   1.0000
     1.0000   1.0000   1.0000   1.0000   1.0000   1.0000   1.0000   1.0000
     1.0000   1.0000   1.0000   1.0000   1.0000   1.0000   1.0000   1.0000
     1.0000   1.0000   1.0000   1.0000   1.0000   1.0000   1.0000   1.0000
     1.0000   1.0000   1.0000   1.0000   1.0000   1.0000   1.0000   1.0000
     1.0000   1.0000   1.0000   1.0000   1.0000   1.0000   1.0000   1.0000
     1.0000   1.0000   1.0000   1.0000   1.0000   1.0000   1.0000   1.0000
     1.0000   1.0000   1.0000   1.0000   1.0000   1.0000   1.0000   1.0000
     1.0000   1.0000   1.0000   1.0000   1.0000   1.0000   1.0000   1.0000
     1.0000   1.0000   1.0000   1.0000   1.0000   1.0000   1.0000   1.0000
     1.0000   1.0000   1.0000   1.0000   1.0000   1.0000   1.0000   1.0000
     1.0000   1.0000   1.0000   1.0000   1.0000   1.0000   1.0000   1.0000
     1.0000   1.0000   1.0000   1.0000   1.0000   1.0000   1.0000   1.0000
     1.0000   1.0000   1.0000   1.0000   1.0000   1.0000   1.0000   1.0000
     1.0000   1.0000   1.0000   1.0000   1.0000   1.0000   1.0000   1.0000
     1.0000   1.0000   1.0000   1.0000   1.0000   1.0000   1.0000   1.0000
     1.0000   1.0000   1.0000   1.0000   1.0000   1.0000   1.0000   1.0000
     1.0000   1.0000   1.0000   1.0000   1.0000   1.0000   1.0000   1.0000
     1.0000   1.0000   1.0000   1.0000   1.0000   1.0000   1.0000   1.0000
     1.0000   1.0000   1.0000   1.0000   1.0000   1.0000   1.0000   1.0000
     1.0000   1.0000   1.0000   1.0000   1.0373  -0.0497   0.0000   0.0000
     0.0000   0.0000   0.0000   0.0000   0.0000   0.0000   0.0000   0.0000
     0.0000   0.0000   0.0000   0.0000   0.0000   0.0000   0.0000   0.0000
     0.0000   0.0000   0.0000   0.0000   0.0000   0.0000   0.0000   0.0000
     0.0000   0.0000   0.0000   0.0000   0.0000   0.0000   0.0000   0.0000
     0.0000   0.0000   0.0000   0.0000   0.0000   0.0000   0.0000   0.0000
     0.0000   0.0000   0.0000   0.0000   0.0000   0.0000   0.0000   0.0000
     0.0000   0.0000   0.0000   0.0000   0.0000   0.0000   0.0000   0.0000
     0.0000   0.0000   0.0000   0.0000   0.0000   0.0000   0.0000   0.0000
     0.0000   0.0000   0.0000   0.0000   0.0000   0.0000   0.0000   0.0000

          k = 0.1250 0.2165-0.3067 ( 51238 PWs)   bands (ev):

    -6.3706  -6.3342  -5.9428  -5.9399  -5.9358  -5.9225  -5.9180  -5.8808
    -5.7948  -5.7869  -5.7772  -5.7570  -5.7246  -5.7134  -5.7075  -5.6986
    -5.6962  -5.6939  -5.6905  -5.6824  -5.6770  -5.6633  -5.6271  -5.6260
    -5.6156  -5.6118  -5.6012  -5.5994  -5.5958  -5.5912  -5.5899  -5.5870
    -5.5852  -5.5838  -5.5797  -5.5780  -5.5688  -5.5663  -5.5638  -5.5618
    -5.5560  -5.5506  -5.5481  -5.5468  -5.5450  -5.5423  -5.5402  -5.5345
    -5.5341  -5.5283  -5.5230  -5.4956  -5.4949  -4.2530  -4.2004  -4.1948
    -4.1936  -4.1828  -4.1815  -4.1794  -4.1743  -4.1723  -4.1696  -4.1682
    -4.1678  -4.1667  -4.1646  -4.1637  -4.1625  -4.1605  -4.1589  -4.1561
    -4.1531  -4.1521  -4.1490  -4.1474  -4.1469  -4.1448  -4.1441  -4.1435
    -4.1424  -4.1413  -4.1405  -4.1389  -4.1377  -4.1372  -4.1364  -4.1341
    -4.1333  -4.1325  -4.1309  -4.1296  -4.1290  -4.1278  -4.1273  -4.1251
    -4.1244  -4.1236  -4.1211  -4.1205  -4.1192  -4.1177  -4.1154  -4.1135
    -4.1101  -4.1089  -4.0969  -4.0950  -4.0937  -4.0926  -4.0917  -4.0898
    -4.0893  -4.0862  -4.0845  -4.0821  -4.0806  -4.0784  -4.0742  -4.0732
    -4.0719  -4.0705  -4.0702  -4.0684  -4.0670  -4.0653  -4.0646  -4.0628
    -4.0618  -4.0603  -4.0592  -4.0573  -4.0565  -4.0550  -4.0531  -4.0505
    -4.0480  -4.0469  -4.0444  -4.0417  -4.0409  -4.0399  -4.0362  -4.0336
    -4.0306  -4.0277  -4.0252  -4.0236  -4.0230  -4.0182  -4.0161  -4.0145
    -4.0135  -4.0120  -4.0105  -4.0092  -4.0068  -4.0052  -4.0036  -4.0023
    -4.0010  -3.9998  -3.9997  -3.9975  -3.9964  -3.9953  -3.9943  -3.9934
    -3.9905  -3.9885  -3.9875  -3.9843  -3.9830  -3.9826  -3.9820  -3.9816
    -3.9792  -3.9786  -3.9765  -3.9758  -3.9742  -3.9717  -3.9711  -3.9700
    -3.9699  -3.9693  -3.9663  -3.9658  -3.9645  -3.9639  -3.9629  -3.9619
    -3.9610  -3.9605  -3.9590  -3.9583  -3.9560  -3.9538  -3.9528  -3.9500
    -3.9492  -3.9486  -3.9477  -3.9461  -3.9447  -3.9445  -3.9431  -3.9418
    -3.9407  -3.9390  -3.9371  -3.9344  -3.9316  -3.9303  -3.9271  -3.9262
    -3.9249  -3.9232  -3.9223  -3.9210  -3.9204  -3.9194  -3.9188  -3.9165
    -3.9153  -3.9146  -3.9128  -3.9127  -3.9118  -3.9100  -3.9086  -3.9067
    -3.9059  -3.9042  -3.9038  -3.9020  -3.9007  -3.8996  -3.8961  -3.8950
    -3.8932  -3.8924  -3.8918  -3.8908  -3.8871  -3.8860  -3.8856  -3.8833
    -3.8803  -3.8781  -3.8766  -3.8743  -3.8731  -3.8713  -3.8695  -3.8634
    -3.8616  -3.8599  -3.8496  -3.8482  -3.8437  -3.8352  -3.8043  -3.7936
    -3.7885  -3.7790  -3.7708  -3.7559  -3.7438  -3.7423  -3.7337  -3.7287
    -3.7259  -3.7076  -3.7003  -3.6669  -3.6251  -3.6201  -3.4227  -3.4184
    -3.3971  -3.3738  -3.2749  -3.2712  -3.2512  -3.2218  -3.1189  -3.1052
    -3.1037  -3.0457  -2.9694  -2.9676  -2.9535  -2.9136  -2.8431  -2.8250
    -2.7325  -2.7312  -2.7080  -2.6478  -2.4661  -2.4408  -2.4210  -2.4054
    -2.3958  -2.3892  -2.3772  -2.3457  -2.2698  -2.2650  -2.2488  -2.2476
    -2.2312  -2.2216  -2.2108  -2.1956  -2.1728  -2.1573  -2.1493  -2.1216
    -2.1036  -2.0762  -2.0571  -0.1327   2.9208   2.9318   3.0798   3.0875
     3.0930   3.1172   3.1604   3.1762   3.2320   3.2395   3.2812   3.2888
     3.3054   3.3340   3.3948   3.4091   3.4220   3.4304   3.4381   3.4525
     3.4755   3.4908   3.5056   3.5293   3.5475   3.6058   3.8343   3.8556
     3.8749   3.8812   3.8847   3.9147   3.9244   3.9758   4.2299   4.2415
     4.2562   4.3263   4.5274   4.5345   4.5557   4.6047   4.6546   4.6686
     4.6962   4.7096   4.7329   4.7385   4.7964   4.8522   5.2870   5.2924
     5.3135   5.3332   5.3594   5.3714   5.3770   5.3866   5.3900   5.4003
     5.4194   5.4280   5.4523   5.4857   5.4889   5.5201   5.5358   5.5537
     5.9034   5.9132   5.9325   6.0357   6.3026   6.3270   6.4170   6.4534
     6.6043   6.6160   6.6364   6.6463   6.7505   6.7554   6.7605   6.7694
     6.7728   6.7821   6.8274   6.8765   7.1235   7.1250   7.1282   7.1398
     7.1522   7.1695   7.2052   7.2094   7.2114   7.2206   7.2214   7.2330
     7.2360   7.2496   7.2544   7.2609   7.2692   7.3154   7.3553   7.3649
     7.5219   7.5251   7.5328   7.5417   7.5457   7.5777   7.5927   7.6432
     7.7611   7.7758   7.7780   7.7794   7.7828   7.8009   7.8087   7.8689
     7.8739   7.8920   7.9238   7.9406   7.9505   8.0087   8.0681   8.0743
     8.0862   8.1075   8.1430   8.1664   8.1876   8.1958   8.2017   8.2044
     8.2134   8.2311   8.2448   8.2953   8.3307   8.3603   8.4088   8.4198
     8.4416   8.4652   8.5228   8.5472   8.5515   8.6062   8.6652   8.8018
     8.8052   8.8860   9.1346   9.1411   9.2413   9.3947  11.9967  12.0555
    13.5507  13.5639  13.5679  13.5805  13.5873  13.6345  13.7025  13.7384
    13.8231  13.8302  13.8372  13.8432  13.8481  13.8575  13.8629  13.9026
    13.9664  13.9702  13.9799  14.1186  14.2635  14.2709  14.2839  14.3199
    14.3462  14.3557  14.3950  14.5380  14.6723  14.6862  14.6951  14.7884
    14.7945  14.8214  14.8711  14.8849  15.1443  15.1480  15.1732  15.1769
    15.2069  15.2212  15.2432  15.2461  15.2598  15.2627  15.2979  15.5720
    16.0249  16.0390  16.0414  16.0662  16.0757  16.0956  16.1075  16.1308
    16.1484  16.1783  16.1879  16.2858  16.3294  16.3475  16.3850  16.4027
    16.7149  16.7252  16.7351  16.7504  16.7651  16.7884  16.8004  16.8209

     occupation numbers 
     1.0000   1.0000   1.0000   1.0000   1.0000   1.0000   1.0000   1.0000
     1.0000   1.0000   1.0000   1.0000   1.0000   1.0000   1.0000   1.0000
     1.0000   1.0000   1.0000   1.0000   1.0000   1.0000   1.0000   1.0000
     1.0000   1.0000   1.0000   1.0000   1.0000   1.0000   1.0000   1.0000
     1.0000   1.0000   1.0000   1.0000   1.0000   1.0000   1.0000   1.0000
     1.0000   1.0000   1.0000   1.0000   1.0000   1.0000   1.0000   1.0000
     1.0000   1.0000   1.0000   1.0000   1.0000   1.0000   1.0000   1.0000
     1.0000   1.0000   1.0000   1.0000   1.0000   1.0000   1.0000   1.0000
     1.0000   1.0000   1.0000   1.0000   1.0000   1.0000   1.0000   1.0000
     1.0000   1.0000   1.0000   1.0000   1.0000   1.0000   1.0000   1.0000
     1.0000   1.0000   1.0000   1.0000   1.0000   1.0000   1.0000   1.0000
     1.0000   1.0000   1.0000   1.0000   1.0000   1.0000   1.0000   1.0000
     1.0000   1.0000   1.0000   1.0000   1.0000   1.0000   1.0000   1.0000
     1.0000   1.0000   1.0000   1.0000   1.0000   1.0000   1.0000   1.0000
     1.0000   1.0000   1.0000   1.0000   1.0000   1.0000   1.0000   1.0000
     1.0000   1.0000   1.0000   1.0000   1.0000   1.0000   1.0000   1.0000
     1.0000   1.0000   1.0000   1.0000   1.0000   1.0000   1.0000   1.0000
     1.0000   1.0000   1.0000   1.0000   1.0000   1.0000   1.0000   1.0000
     1.0000   1.0000   1.0000   1.0000   1.0000   1.0000   1.0000   1.0000
     1.0000   1.0000   1.0000   1.0000   1.0000   1.0000   1.0000   1.0000
     1.0000   1.0000   1.0000   1.0000   1.0000   1.0000   1.0000   1.0000
     1.0000   1.0000   1.0000   1.0000   1.0000   1.0000   1.0000   1.0000
     1.0000   1.0000   1.0000   1.0000   1.0000   1.0000   1.0000   1.0000
     1.0000   1.0000   1.0000   1.0000   1.0000   1.0000   1.0000   1.0000
     1.0000   1.0000   1.0000   1.0000   1.0000   1.0000   1.0000   1.0000
     1.0000   1.0000   1.0000   1.0000   1.0000   1.0000   1.0000   1.0000
     1.0000   1.0000   1.0000   1.0000   1.0000   1.0000   1.0000   1.0000
     1.0000   1.0000   1.0000   1.0000   1.0000   1.0000   1.0000   1.0000
     1.0000   1.0000   1.0000   1.0000   1.0000   1.0000   1.0000   1.0000
     1.0000   1.0000   1.0000   1.0000   1.0000   1.0000   1.0000   1.0000
     1.0000   1.0000   1.0000   1.0000   1.0000   1.0000   1.0000   1.0000
     1.0000   1.0000   1.0000   1.0000   1.0000   1.0000   1.0000   1.0000
     1.0000   1.0000   1.0000   1.0000   1.0000   1.0000   1.0000   1.0000
     1.0000   1.0000   1.0000   1.0000   1.0000   1.0000   1.0000   1.0000
     1.0000   1.0000   1.0000   1.0000   1.0000   1.0000   1.0000   1.0000
     1.0000   1.0000   1.0000   1.0000   1.0000   1.0000   1.0000   1.0000
     1.0000   1.0000   1.0000   1.0000   1.0000   1.0000   1.0000   1.0000
     1.0000   1.0000   1.0000   1.0000   1.0000   1.0000   1.0000   1.0000
     1.0000   1.0000   1.0000   1.0000   1.0000   1.0000   1.0000   1.0000
     1.0000   1.0000   1.0000   1.0000   1.0000   1.0000   1.0000   1.0000
     1.0000   1.0000   1.0000   1.0000   1.0000   1.0000   1.0000   1.0000
     1.0000   1.0000   1.0000   1.0000   1.0000   1.0000   1.0000   1.0000
     1.0000   1.0000   1.0000   1.0000   1.0000   1.0000   1.0000   1.0000
     1.0000   1.0000   1.0000   1.0000   1.0000   1.0000   1.0000   1.0000
     1.0000   1.0000   1.0000   1.0000   1.0000   1.0000   1.0000   1.0000
     1.0000   1.0000   1.0000   1.0000   1.0000   1.0000   1.0000   1.0000
     1.0000   1.0000   1.0000   1.0000   1.0000   1.0000   1.0000   1.0000
     1.0000   1.0000   1.0000   1.0000   1.0000   1.0000   1.0000   1.0000
     1.0000   1.0000   1.0000   1.0000   1.0000   1.0000   1.0000   1.0000
     1.0000   1.0000   1.0000   1.0000   1.0000   1.0000   1.0000   1.0000
     1.0000   1.0000   1.0000   1.0000   1.0000   1.0000   1.0000   1.0000
     1.0000   1.0000   1.0000   1.0000   1.0000   1.0000   1.0000   1.0000
     1.0000   1.0000   1.0000   1.0000   1.0000   1.0000   1.0000   1.0000
     1.0000   1.0000   1.0000   1.0000   1.0000   1.0000   1.0000   1.0000
     1.0000   1.0000   1.0000   1.0000   1.0000   1.0000   1.0000   1.0000
     1.0000   1.0000   1.0000   1.0000   1.0000   1.0000   1.0000   1.0000
     1.0000   1.0000   1.0000   1.0000   1.0000   1.0000   1.0000   1.0000
     1.0000   1.0000   1.0000   1.0000   1.0000   1.0000   1.0000   1.0000
     1.0000   1.0000   1.0000   1.0000   1.0000   1.0000   1.0000   1.0000
     1.0000   1.0000   1.0000   1.0000   1.0000   1.0000   1.0000   1.0000
     1.0000   1.0000   1.0000   1.0000   1.0496  -0.0743   0.0000   0.0000
     0.0000   0.0000   0.0000   0.0000   0.0000   0.0000   0.0000   0.0000
     0.0000   0.0000   0.0000   0.0000   0.0000   0.0000   0.0000   0.0000
     0.0000   0.0000   0.0000   0.0000   0.0000   0.0000   0.0000   0.0000
     0.0000   0.0000   0.0000   0.0000   0.0000   0.0000   0.0000   0.0000
     0.0000   0.0000   0.0000   0.0000   0.0000   0.0000   0.0000   0.0000
     0.0000   0.0000   0.0000   0.0000   0.0000   0.0000   0.0000   0.0000
     0.0000   0.0000   0.0000   0.0000   0.0000   0.0000   0.0000   0.0000
     0.0000   0.0000   0.0000   0.0000   0.0000   0.0000   0.0000   0.0000
     0.0000   0.0000   0.0000   0.0000   0.0000   0.0000   0.0000   0.0000

          k = 0.1250 0.3608 0.0000 ( 51320 PWs)   bands (ev):

    -6.3661  -6.1217  -6.1091  -6.0673  -5.9909  -5.8887  -5.8792  -5.8332
    -5.8287  -5.8137  -5.7607  -5.7491  -5.7435  -5.7153  -5.7112  -5.7041
    -5.6934  -5.6656  -5.6576  -5.6525  -5.6485  -5.6442  -5.6361  -5.6326
    -5.6280  -5.6256  -5.6226  -5.6196  -5.6169  -5.6044  -5.5928  -5.5841
    -5.5804  -5.5775  -5.5753  -5.5724  -5.5700  -5.5653  -5.5625  -5.5575
    -5.5539  -5.5516  -5.5472  -5.5458  -5.5446  -5.5426  -5.5386  -5.5358
    -5.5342  -5.5277  -5.5207  -5.4952  -5.4938  -4.2513  -4.1994  -4.1882
    -4.1858  -4.1835  -4.1822  -4.1781  -4.1721  -4.1704  -4.1660  -4.1640
    -4.1630  -4.1613  -4.1580  -4.1565  -4.1550  -4.1535  -4.1526  -4.1513
    -4.1500  -4.1490  -4.1478  -4.1461  -4.1454  -4.1441  -4.1432  -4.1405
    -4.1399  -4.1389  -4.1373  -4.1359  -4.1339  -4.1330  -4.1327  -4.1306
    -4.1295  -4.1285  -4.1274  -4.1257  -4.1248  -4.1227  -4.1214  -4.1210
    -4.1186  -4.1172  -4.1160  -4.1154  -4.1130  -4.1123  -4.1114  -4.1100
    -4.1090  -4.1078  -4.1064  -4.1039  -4.1019  -4.1008  -4.1004  -4.0983
    -4.0970  -4.0952  -4.0936  -4.0915  -4.0893  -4.0880  -4.0871  -4.0861
    -4.0845  -4.0837  -4.0817  -4.0807  -4.0792  -4.0756  -4.0739  -4.0714
    -4.0676  -4.0666  -4.0623  -4.0598  -4.0577  -4.0566  -4.0556  -4.0523
    -4.0507  -4.0477  -4.0457  -4.0436  -4.0402  -4.0372  -4.0326  -4.0320
    -4.0283  -4.0261  -4.0244  -4.0221  -4.0204  -4.0175  -4.0152  -4.0132
    -4.0124  -4.0111  -4.0105  -4.0090  -4.0078  -4.0070  -4.0058  -4.0047
    -4.0032  -4.0011  -3.9997  -3.9993  -3.9985  -3.9961  -3.9952  -3.9930
    -3.9925  -3.9912  -3.9894  -3.9880  -3.9859  -3.9850  -3.9840  -3.9833
    -3.9824  -3.9816  -3.9797  -3.9789  -3.9776  -3.9767  -3.9761  -3.9747
    -3.9729  -3.9724  -3.9717  -3.9705  -3.9692  -3.9681  -3.9668  -3.9650
    -3.9635  -3.9616  -3.9598  -3.9589  -3.9573  -3.9561  -3.9535  -3.9499
    -3.9490  -3.9484  -3.9464  -3.9447  -3.9417  -3.9407  -3.9400  -3.9385
    -3.9361  -3.9352  -3.9339  -3.9332  -3.9315  -3.9298  -3.9279  -3.9269
    -3.9251  -3.9242  -3.9236  -3.9224  -3.9210  -3.9190  -3.9182  -3.9165
    -3.9155  -3.9132  -3.9117  -3.9097  -3.9078  -3.9065  -3.9056  -3.9039
    -3.9036  -3.9027  -3.9012  -3.9002  -3.8992  -3.8987  -3.8978  -3.8967
    -3.8950  -3.8941  -3.8926  -3.8915  -3.8899  -3.8885  -3.8864  -3.8858
    -3.8844  -3.8817  -3.8788  -3.8767  -3.8752  -3.8741  -3.8719  -3.8705
    -3.8671  -3.8622  -3.8594  -3.8571  -3.8486  -3.8427  -3.8404  -3.8233
    -3.8095  -3.7931  -3.7827  -3.7705  -3.7605  -3.7473  -3.7409  -3.7333
    -3.7295  -3.6981  -3.6769  -3.6331  -3.6218  -3.5939  -3.5798  -3.4982
    -3.3037  -3.2978  -3.2937  -3.2862  -3.2526  -3.0888  -3.0688  -2.9920
    -2.9805  -2.9701  -2.9058  -2.8781  -2.8657  -2.8268  -2.8079  -2.7630
    -2.7244  -2.6707  -2.6093  -2.6005  -2.5443  -2.5401  -2.5247  -2.5060
    -2.4683  -2.4533  -2.4192  -2.4011  -2.3642  -2.3610  -2.3399  -2.3097
    -2.2717  -2.2285  -2.1927  -2.1905  -2.1820  -2.1205  -2.0873  -2.0818
    -2.0586  -2.0286  -1.9866  -0.1251   2.5574   2.8124   2.8280   2.9544
     2.9711   3.0395   3.0530   3.0679   3.0796   3.1907   3.2138   3.2329
     3.2542   3.3835   3.3972   3.4086   3.4292   3.4403   3.4536   3.4668
     3.5019   3.5242   3.5842   3.5989   3.6090   3.6308   3.6649   3.7049
     3.7408   4.0434   4.0505   4.0811   4.0838   4.1020   4.1231   4.1330
     4.1478   4.1876   4.2198   4.2739   4.3462   4.5461   4.5733   4.6244
     4.8064   4.9397   5.0465   5.0669   5.0949   5.1750   5.2424   5.2723
     5.3055   5.3227   5.3360   5.3612   5.4163   5.4466   5.6061   5.6341
     5.6568   5.7396   5.8444   6.1987   6.2261   6.2345   6.2602   6.2676
     6.2944   6.3056   6.3172   6.3303   6.3372   6.3729   6.3816   6.3958
     6.4102   6.4326   6.4425   6.4599   6.5160   6.5391   6.5939   6.6076
     6.6532   6.7287   6.7465   6.7587   6.8037   6.8438   6.8767   6.8898
     6.9068   6.9488   6.9838   7.0065   7.0198   7.0266   7.0609   7.1190
     7.1237   7.1568   7.1808   7.2369   7.3372   7.4157   7.4185   7.4258
     7.4366   7.4465   7.4612   7.4874   7.5183   7.5495   7.6100   7.6557
     7.6894   7.6937   7.7098   7.7604   7.7755   7.7801   7.7944   7.8366
     7.8499   7.8633   7.8681   7.9008   7.9059   7.9537   7.9656   7.9793
     8.0210   8.0563   8.0643   8.0783   8.0813   8.1093   8.1193   8.1232
     8.1384   8.1509   8.2198   8.2259   8.2561   8.2668   8.2949   8.3487
     8.4024   8.4259   8.4438   8.5398   8.5664   8.6186   8.6220   8.7864
     8.8397   8.8516   8.9440   9.0223   9.2374   9.3391  11.9169  13.1526
    13.1734  13.2511  13.4067  13.4311  13.5858  13.6481  13.6702  13.7391
    13.7727  13.8981  13.9319  14.0317  14.0638  14.0715  14.1095  14.1149
    14.1259  14.2228  14.3291  14.3345  14.3540  14.4512  14.5957  14.6104
    14.6255  14.6489  14.6542  14.7177  14.7375  14.7863  14.8192  15.0130
    15.0318  15.0381  15.0468  15.0676  15.1387  15.1578  15.2032  15.2408
    15.2749  15.2930  15.3261  15.3483  15.3559  15.3921  15.4141  15.5132
    15.5690  15.6404  15.6720  15.7140  15.8211  15.9374  15.9970  16.1101
    16.3428  16.3524  16.3761  16.3873  16.4116  16.4330  16.4434  16.4623
    16.4873  16.5176  16.5755  16.5840  16.6157  16.6290  16.6564  16.7090

     occupation numbers 
     1.0000   1.0000   1.0000   1.0000   1.0000   1.0000   1.0000   1.0000
     1.0000   1.0000   1.0000   1.0000   1.0000   1.0000   1.0000   1.0000
     1.0000   1.0000   1.0000   1.0000   1.0000   1.0000   1.0000   1.0000
     1.0000   1.0000   1.0000   1.0000   1.0000   1.0000   1.0000   1.0000
     1.0000   1.0000   1.0000   1.0000   1.0000   1.0000   1.0000   1.0000
     1.0000   1.0000   1.0000   1.0000   1.0000   1.0000   1.0000   1.0000
     1.0000   1.0000   1.0000   1.0000   1.0000   1.0000   1.0000   1.0000
     1.0000   1.0000   1.0000   1.0000   1.0000   1.0000   1.0000   1.0000
     1.0000   1.0000   1.0000   1.0000   1.0000   1.0000   1.0000   1.0000
     1.0000   1.0000   1.0000   1.0000   1.0000   1.0000   1.0000   1.0000
     1.0000   1.0000   1.0000   1.0000   1.0000   1.0000   1.0000   1.0000
     1.0000   1.0000   1.0000   1.0000   1.0000   1.0000   1.0000   1.0000
     1.0000   1.0000   1.0000   1.0000   1.0000   1.0000   1.0000   1.0000
     1.0000   1.0000   1.0000   1.0000   1.0000   1.0000   1.0000   1.0000
     1.0000   1.0000   1.0000   1.0000   1.0000   1.0000   1.0000   1.0000
     1.0000   1.0000   1.0000   1.0000   1.0000   1.0000   1.0000   1.0000
     1.0000   1.0000   1.0000   1.0000   1.0000   1.0000   1.0000   1.0000
     1.0000   1.0000   1.0000   1.0000   1.0000   1.0000   1.0000   1.0000
     1.0000   1.0000   1.0000   1.0000   1.0000   1.0000   1.0000   1.0000
     1.0000   1.0000   1.0000   1.0000   1.0000   1.0000   1.0000   1.0000
     1.0000   1.0000   1.0000   1.0000   1.0000   1.0000   1.0000   1.0000
     1.0000   1.0000   1.0000   1.0000   1.0000   1.0000   1.0000   1.0000
     1.0000   1.0000   1.0000   1.0000   1.0000   1.0000   1.0000   1.0000
     1.0000   1.0000   1.0000   1.0000   1.0000   1.0000   1.0000   1.0000
     1.0000   1.0000   1.0000   1.0000   1.0000   1.0000   1.0000   1.0000
     1.0000   1.0000   1.0000   1.0000   1.0000   1.0000   1.0000   1.0000
     1.0000   1.0000   1.0000   1.0000   1.0000   1.0000   1.0000   1.0000
     1.0000   1.0000   1.0000   1.0000   1.0000   1.0000   1.0000   1.0000
     1.0000   1.0000   1.0000   1.0000   1.0000   1.0000   1.0000   1.0000
     1.0000   1.0000   1.0000   1.0000   1.0000   1.0000   1.0000   1.0000
     1.0000   1.0000   1.0000   1.0000   1.0000   1.0000   1.0000   1.0000
     1.0000   1.0000   1.0000   1.0000   1.0000   1.0000   1.0000   1.0000
     1.0000   1.0000   1.0000   1.0000   1.0000   1.0000   1.0000   1.0000
     1.0000   1.0000   1.0000   1.0000   1.0000   1.0000   1.0000   1.0000
     1.0000   1.0000   1.0000   1.0000   1.0000   1.0000   1.0000   1.0000
     1.0000   1.0000   1.0000   1.0000   1.0000   1.0000   1.0000   1.0000
     1.0000   1.0000   1.0000   1.0000   1.0000   1.0000   1.0000   1.0000
     1.0000   1.0000   1.0000   1.0000   1.0000   1.0000   1.0000   1.0000
     1.0000   1.0000   1.0000   1.0000   1.0000   1.0000   1.0000   1.0000
     1.0000   1.0000   1.0000   1.0000   1.0000   1.0000   1.0000   1.0000
     1.0000   1.0000   1.0000   1.0000   1.0000   1.0000   1.0000   1.0000
     1.0000   1.0000   1.0000   1.0000   1.0000   1.0000   1.0000   1.0000
     1.0000   1.0000   1.0000   1.0000   1.0000   1.0000   1.0000   1.0000
     1.0000   1.0000   1.0000   1.0000   1.0000   1.0000   1.0000   1.0000
     1.0000   1.0000   1.0000   1.0000   1.0000   1.0000   1.0000   1.0000
     1.0000   1.0000   1.0000   1.0000   1.0000   1.0000   1.0000   1.0000
     1.0000   1.0000   1.0000   1.0000   1.0000   1.0000   1.0000   1.0000
     1.0000   1.0000   1.0000   1.0000   1.0000   1.0000   1.0000   1.0000
     1.0000   1.0000   1.0000   1.0000   1.0000   1.0000   1.0000   1.0000
     1.0000   1.0000   1.0000   1.0000   1.0000   1.0000   1.0000   1.0000
     1.0000   1.0000   1.0000   1.0000   1.0000   1.0000   1.0000   1.0000
     1.0000   1.0000   1.0000   1.0000   1.0000   1.0000   1.0000   1.0000
     1.0000   1.0000   1.0000   1.0000   1.0000   1.0000   1.0000   1.0000
     1.0000   1.0000   1.0000   1.0000   1.0000   1.0000   1.0000   1.0000
     1.0000   1.0000   1.0000   1.0000   1.0000   1.0000   1.0000   1.0000
     1.0000   1.0000   1.0000   1.0000   1.0000   1.0000   1.0000   1.0000
     1.0000   1.0000   1.0000   1.0000   1.0000   1.0000   1.0000   1.0000
     1.0000   1.0000   1.0000   1.0000   1.0000   1.0000   1.0000   1.0000
     1.0000   1.0000   1.0000   1.0000   1.0000   1.0000   1.0000   1.0000
     1.0000   1.0000   1.0000   1.0000   1.0000   1.0000   1.0000   1.0000
     1.0000   1.0000   1.0000   1.0000   1.0000   0.3840   0.0000   0.0000
     0.0000   0.0000   0.0000   0.0000   0.0000   0.0000   0.0000   0.0000
     0.0000   0.0000   0.0000   0.0000   0.0000   0.0000   0.0000   0.0000
     0.0000   0.0000   0.0000   0.0000   0.0000   0.0000   0.0000   0.0000
     0.0000   0.0000   0.0000   0.0000   0.0000   0.0000   0.0000   0.0000
     0.0000   0.0000   0.0000   0.0000   0.0000   0.0000   0.0000   0.0000
     0.0000   0.0000   0.0000   0.0000   0.0000   0.0000   0.0000   0.0000
     0.0000   0.0000   0.0000   0.0000   0.0000   0.0000   0.0000   0.0000
     0.0000   0.0000   0.0000   0.0000   0.0000   0.0000   0.0000   0.0000
     0.0000   0.0000   0.0000   0.0000   0.0000   0.0000   0.0000   0.0000

          k = 0.1250 0.3608 0.1533 ( 51279 PWs)   bands (ev):

    -6.3491  -6.2132  -6.0580  -6.0075  -5.9807  -5.9516  -5.8864  -5.8235
    -5.8144  -5.8047  -5.7626  -5.7568  -5.7461  -5.7052  -5.7019  -5.6991
    -5.6898  -5.6843  -5.6650  -5.6590  -5.6565  -5.6508  -5.6429  -5.6305
    -5.6278  -5.6218  -5.6174  -5.6040  -5.6004  -5.5991  -5.5943  -5.5929
    -5.5908  -5.5815  -5.5750  -5.5730  -5.5683  -5.5624  -5.5598  -5.5566
    -5.5539  -5.5512  -5.5478  -5.5464  -5.5431  -5.5419  -5.5393  -5.5363
    -5.5346  -5.5294  -5.5212  -5.4953  -5.4940  -4.2513  -4.1978  -4.1874
    -4.1863  -4.1827  -4.1810  -4.1739  -4.1727  -4.1703  -4.1644  -4.1631
    -4.1622  -4.1604  -4.1577  -4.1569  -4.1556  -4.1543  -4.1531  -4.1519
    -4.1510  -4.1501  -4.1486  -4.1474  -4.1459  -4.1450  -4.1434  -4.1424
    -4.1411  -4.1400  -4.1391  -4.1381  -4.1361  -4.1338  -4.1331  -4.1326
    -4.1299  -4.1293  -4.1284  -4.1271  -4.1252  -4.1233  -4.1223  -4.1218
    -4.1205  -4.1195  -4.1173  -4.1163  -4.1151  -4.1134  -4.1115  -4.1108
    -4.1095  -4.1083  -4.1072  -4.1048  -4.1035  -4.1019  -4.0989  -4.0976
    -4.0959  -4.0946  -4.0921  -4.0910  -4.0893  -4.0867  -4.0850  -4.0833
    -4.0821  -4.0799  -4.0777  -4.0767  -4.0746  -4.0729  -4.0718  -4.0696
    -4.0671  -4.0651  -4.0637  -4.0617  -4.0588  -4.0571  -4.0548  -4.0529
    -4.0502  -4.0467  -4.0440  -4.0431  -4.0404  -4.0378  -4.0360  -4.0305
    -4.0298  -4.0277  -4.0271  -4.0244  -4.0208  -4.0185  -4.0168  -4.0153
    -4.0131  -4.0110  -4.0100  -4.0089  -4.0076  -4.0067  -4.0056  -4.0044
    -4.0026  -4.0011  -4.0000  -3.9988  -3.9982  -3.9963  -3.9954  -3.9945
    -3.9928  -3.9914  -3.9906  -3.9886  -3.9866  -3.9852  -3.9833  -3.9826
    -3.9817  -3.9805  -3.9794  -3.9783  -3.9776  -3.9757  -3.9747  -3.9733
    -3.9718  -3.9704  -3.9696  -3.9687  -3.9680  -3.9659  -3.9654  -3.9636
    -3.9625  -3.9619  -3.9605  -3.9589  -3.9571  -3.9559  -3.9535  -3.9518
    -3.9496  -3.9489  -3.9473  -3.9452  -3.9433  -3.9425  -3.9409  -3.9399
    -3.9383  -3.9377  -3.9344  -3.9324  -3.9303  -3.9283  -3.9273  -3.9257
    -3.9246  -3.9232  -3.9227  -3.9218  -3.9202  -3.9180  -3.9168  -3.9147
    -3.9143  -3.9131  -3.9124  -3.9110  -3.9082  -3.9069  -3.9055  -3.9054
    -3.9042  -3.9028  -3.9005  -3.8999  -3.8990  -3.8980  -3.8964  -3.8955
    -3.8938  -3.8930  -3.8922  -3.8906  -3.8898  -3.8887  -3.8863  -3.8852
    -3.8834  -3.8803  -3.8783  -3.8767  -3.8759  -3.8723  -3.8704  -3.8683
    -3.8622  -3.8599  -3.8574  -3.8492  -3.8444  -3.8430  -3.8403  -3.8216
    -3.8060  -3.7994  -3.7807  -3.7718  -3.7659  -3.7553  -3.7459  -3.7387
    -3.7330  -3.7254  -3.6759  -3.6274  -3.6244  -3.5681  -3.5206  -3.4888
    -3.4639  -3.3794  -3.2741  -3.2083  -3.1739  -3.1533  -3.0956  -3.0331
    -2.9798  -2.9563  -2.9067  -2.8813  -2.8225  -2.7950  -2.7373  -2.7223
    -2.6762  -2.6640  -2.6464  -2.6305  -2.6067  -2.5726  -2.5080  -2.4878
    -2.4693  -2.4582  -2.4229  -2.3981  -2.3622  -2.3362  -2.2985  -2.2877
    -2.2632  -2.2547  -2.2437  -2.1743  -2.1350  -2.1179  -2.1098  -2.0936
    -2.0754  -2.0587  -2.0015  -0.1275   2.6752   2.8376   2.8764   2.9696
     3.0148   3.0333   3.0417   3.1187   3.1424   3.1574   3.2017   3.2351
     3.2483   3.2884   3.3153   3.3378   3.3666   3.3829   3.4265   3.4551
     3.4965   3.5126   3.5382   3.5775   3.6079   3.6797   3.7184   3.7266
     3.7837   3.7996   3.8550   3.9052   3.9204   4.0732   4.1161   4.1721
     4.2744   4.3358   4.3670   4.4142   4.5396   4.6103   4.7550   4.8168
     4.8784   4.9540   5.0246   5.0510   5.1148   5.1402   5.1747   5.1992
     5.2294   5.3173   5.4076   5.4462   5.4806   5.5489   5.5989   5.7195
     5.7424   5.7991   5.8195   5.8846   5.8921   5.9552   5.9741   6.0220
     6.0742   6.1097   6.1248   6.1954   6.3138   6.3486   6.4291   6.4677
     6.5206   6.5742   6.5887   6.6039   6.6214   6.6481   6.6647   6.6729
     6.6926   6.7091   6.7225   6.7536   6.8063   6.8373   6.8845   6.9164
     6.9784   6.9925   7.0384   7.0776   7.1345   7.1885   7.2253   7.2341
     7.2410   7.2600   7.3024   7.3270   7.3472   7.3971   7.4151   7.4379
     7.4532   7.4859   7.4939   7.5036   7.5336   7.5522   7.5778   7.6030
     7.6460   7.6779   7.6893   7.7080   7.7342   7.7418   7.7762   7.7941
     7.8249   7.8358   7.8506   7.8606   7.8737   7.8909   7.9069   7.9208
     7.9519   7.9666   7.9958   8.0130   8.0440   8.0493   8.0921   8.1158
     8.1717   8.1885   8.2086   8.2233   8.2523   8.3041   8.3145   8.3498
     8.4036   8.4580   8.4900   8.5325   8.5897   8.6231   8.6826   8.7271
     8.8032   8.8640   8.9973   9.0406   9.1995   9.3332  12.0335  12.7412
    13.2667  13.4703  13.5032  13.5450  13.5687  13.6082  13.7108  13.7381
    13.8009  14.0328  14.0444  14.0675  14.0767  14.0964  14.1125  14.1543
    14.1793  14.2163  14.2454  14.2917  14.3256  14.3739  14.4490  14.5068
    14.5670  14.6052  14.6498  14.6924  14.7424  14.7914  14.8212  14.8465
    14.8554  14.9212  14.9315  14.9843  15.0524  15.0759  15.1136  15.1806
    15.2247  15.3214  15.3859  15.4253  15.4787  15.5449  15.5733  15.6167
    15.6465  15.6937  15.7427  15.8228  15.9484  15.9670  16.0288  16.1112
    16.1988  16.2192  16.3500  16.3696  16.4237  16.4415  16.4838  16.5014
    16.5108  16.5549  16.5652  16.6422  16.6853  16.6999  16.7284  16.7537

     occupation numbers 
     1.0000   1.0000   1.0000   1.0000   1.0000   1.0000   1.0000   1.0000
     1.0000   1.0000   1.0000   1.0000   1.0000   1.0000   1.0000   1.0000
     1.0000   1.0000   1.0000   1.0000   1.0000   1.0000   1.0000   1.0000
     1.0000   1.0000   1.0000   1.0000   1.0000   1.0000   1.0000   1.0000
     1.0000   1.0000   1.0000   1.0000   1.0000   1.0000   1.0000   1.0000
     1.0000   1.0000   1.0000   1.0000   1.0000   1.0000   1.0000   1.0000
     1.0000   1.0000   1.0000   1.0000   1.0000   1.0000   1.0000   1.0000
     1.0000   1.0000   1.0000   1.0000   1.0000   1.0000   1.0000   1.0000
     1.0000   1.0000   1.0000   1.0000   1.0000   1.0000   1.0000   1.0000
     1.0000   1.0000   1.0000   1.0000   1.0000   1.0000   1.0000   1.0000
     1.0000   1.0000   1.0000   1.0000   1.0000   1.0000   1.0000   1.0000
     1.0000   1.0000   1.0000   1.0000   1.0000   1.0000   1.0000   1.0000
     1.0000   1.0000   1.0000   1.0000   1.0000   1.0000   1.0000   1.0000
     1.0000   1.0000   1.0000   1.0000   1.0000   1.0000   1.0000   1.0000
     1.0000   1.0000   1.0000   1.0000   1.0000   1.0000   1.0000   1.0000
     1.0000   1.0000   1.0000   1.0000   1.0000   1.0000   1.0000   1.0000
     1.0000   1.0000   1.0000   1.0000   1.0000   1.0000   1.0000   1.0000
     1.0000   1.0000   1.0000   1.0000   1.0000   1.0000   1.0000   1.0000
     1.0000   1.0000   1.0000   1.0000   1.0000   1.0000   1.0000   1.0000
     1.0000   1.0000   1.0000   1.0000   1.0000   1.0000   1.0000   1.0000
     1.0000   1.0000   1.0000   1.0000   1.0000   1.0000   1.0000   1.0000
     1.0000   1.0000   1.0000   1.0000   1.0000   1.0000   1.0000   1.0000
     1.0000   1.0000   1.0000   1.0000   1.0000   1.0000   1.0000   1.0000
     1.0000   1.0000   1.0000   1.0000   1.0000   1.0000   1.0000   1.0000
     1.0000   1.0000   1.0000   1.0000   1.0000   1.0000   1.0000   1.0000
     1.0000   1.0000   1.0000   1.0000   1.0000   1.0000   1.0000   1.0000
     1.0000   1.0000   1.0000   1.0000   1.0000   1.0000   1.0000   1.0000
     1.0000   1.0000   1.0000   1.0000   1.0000   1.0000   1.0000   1.0000
     1.0000   1.0000   1.0000   1.0000   1.0000   1.0000   1.0000   1.0000
     1.0000   1.0000   1.0000   1.0000   1.0000   1.0000   1.0000   1.0000
     1.0000   1.0000   1.0000   1.0000   1.0000   1.0000   1.0000   1.0000
     1.0000   1.0000   1.0000   1.0000   1.0000   1.0000   1.0000   1.0000
     1.0000   1.0000   1.0000   1.0000   1.0000   1.0000   1.0000   1.0000
     1.0000   1.0000   1.0000   1.0000   1.0000   1.0000   1.0000   1.0000
     1.0000   1.0000   1.0000   1.0000   1.0000   1.0000   1.0000   1.0000
     1.0000   1.0000   1.0000   1.0000   1.0000   1.0000   1.0000   1.0000
     1.0000   1.0000   1.0000   1.0000   1.0000   1.0000   1.0000   1.0000
     1.0000   1.0000   1.0000   1.0000   1.0000   1.0000   1.0000   1.0000
     1.0000   1.0000   1.0000   1.0000   1.0000   1.0000   1.0000   1.0000
     1.0000   1.0000   1.0000   1.0000   1.0000   1.0000   1.0000   1.0000
     1.0000   1.0000   1.0000   1.0000   1.0000   1.0000   1.0000   1.0000
     1.0000   1.0000   1.0000   1.0000   1.0000   1.0000   1.0000   1.0000
     1.0000   1.0000   1.0000   1.0000   1.0000   1.0000   1.0000   1.0000
     1.0000   1.0000   1.0000   1.0000   1.0000   1.0000   1.0000   1.0000
     1.0000   1.0000   1.0000   1.0000   1.0000   1.0000   1.0000   1.0000
     1.0000   1.0000   1.0000   1.0000   1.0000   1.0000   1.0000   1.0000
     1.0000   1.0000   1.0000   1.0000   1.0000   1.0000   1.0000   1.0000
     1.0000   1.0000   1.0000   1.0000   1.0000   1.0000   1.0000   1.0000
     1.0000   1.0000   1.0000   1.0000   1.0000   1.0000   1.0000   1.0000
     1.0000   1.0000   1.0000   1.0000   1.0000   1.0000   1.0000   1.0000
     1.0000   1.0000   1.0000   1.0000   1.0000   1.0000   1.0000   1.0000
     1.0000   1.0000   1.0000   1.0000   1.0000   1.0000   1.0000   1.0000
     1.0000   1.0000   1.0000   1.0000   1.0000   1.0000   1.0000   1.0000
     1.0000   1.0000   1.0000   1.0000   1.0000   1.0000   1.0000   1.0000
     1.0000   1.0000   1.0000   1.0000   1.0000   1.0000   1.0000   1.0000
     1.0000   1.0000   1.0000   1.0000   1.0000   1.0000   1.0000   1.0000
     1.0000   1.0000   1.0000   1.0000   1.0000   1.0000   1.0000   1.0000
     1.0000   1.0000   1.0000   1.0000   1.0000   1.0000   1.0000   1.0000
     1.0000   1.0000   1.0000   1.0000   1.0000   1.0000   1.0000   1.0000
     1.0000   1.0000   1.0000   1.0000   1.0000   1.0000   1.0000   1.0000
     1.0000   1.0000   1.0000   1.0000   1.0000   0.5048   0.0000   0.0000
     0.0000   0.0000   0.0000   0.0000   0.0000   0.0000   0.0000   0.0000
     0.0000   0.0000   0.0000   0.0000   0.0000   0.0000   0.0000   0.0000
     0.0000   0.0000   0.0000   0.0000   0.0000   0.0000   0.0000   0.0000
     0.0000   0.0000   0.0000   0.0000   0.0000   0.0000   0.0000   0.0000
     0.0000   0.0000   0.0000   0.0000   0.0000   0.0000   0.0000   0.0000
     0.0000   0.0000   0.0000   0.0000   0.0000   0.0000   0.0000   0.0000
     0.0000   0.0000   0.0000   0.0000   0.0000   0.0000   0.0000   0.0000
     0.0000   0.0000   0.0000   0.0000   0.0000   0.0000   0.0000   0.0000
     0.0000   0.0000   0.0000   0.0000   0.0000   0.0000   0.0000   0.0000

          k = 0.1250 0.3608-0.3067 ( 51274 PWs)   bands (ev):

    -6.3122  -6.2782  -6.0298  -6.0053  -5.9576  -5.9315  -5.9040  -5.8916
    -5.8050  -5.7832  -5.7426  -5.7413  -5.7383  -5.7216  -5.7022  -5.6990
    -5.6936  -5.6831  -5.6796  -5.6759  -5.6618  -5.6552  -5.6291  -5.6283
    -5.6234  -5.6162  -5.6113  -5.6060  -5.6016  -5.5982  -5.5967  -5.5924
    -5.5872  -5.5798  -5.5769  -5.5731  -5.5689  -5.5660  -5.5624  -5.5562
    -5.5527  -5.5506  -5.5466  -5.5451  -5.5412  -5.5403  -5.5393  -5.5366
    -5.5351  -5.5329  -5.5218  -5.4955  -5.4941  -4.2513  -4.1955  -4.1892
    -4.1869  -4.1776  -4.1762  -4.1729  -4.1712  -4.1674  -4.1664  -4.1649
    -4.1634  -4.1618  -4.1607  -4.1587  -4.1572  -4.1558  -4.1544  -4.1520
    -4.1500  -4.1488  -4.1473  -4.1466  -4.1456  -4.1444  -4.1432  -4.1427
    -4.1413  -4.1403  -4.1396  -4.1389  -4.1375  -4.1353  -4.1333  -4.1328
    -4.1318  -4.1308  -4.1295  -4.1287  -4.1275  -4.1261  -4.1254  -4.1237
    -4.1229  -4.1207  -4.1199  -4.1193  -4.1173  -4.1153  -4.1146  -4.1138
    -4.1103  -4.1099  -4.1059  -4.1037  -4.1025  -4.1010  -4.0992  -4.0965
    -4.0953  -4.0938  -4.0920  -4.0897  -4.0880  -4.0843  -4.0818  -4.0796
    -4.0771  -4.0760  -4.0730  -4.0715  -4.0693  -4.0685  -4.0672  -4.0660
    -4.0645  -4.0624  -4.0614  -4.0589  -4.0578  -4.0558  -4.0531  -4.0523
    -4.0515  -4.0496  -4.0483  -4.0460  -4.0453  -4.0417  -4.0384  -4.0373
    -4.0337  -4.0308  -4.0282  -4.0273  -4.0233  -4.0223  -4.0195  -4.0173
    -4.0146  -4.0131  -4.0123  -4.0092  -4.0079  -4.0060  -4.0054  -4.0036
    -4.0014  -4.0006  -3.9990  -3.9982  -3.9971  -3.9955  -3.9948  -3.9932
    -3.9922  -3.9899  -3.9884  -3.9877  -3.9852  -3.9847  -3.9831  -3.9815
    -3.9811  -3.9795  -3.9782  -3.9761  -3.9757  -3.9749  -3.9733  -3.9712
    -3.9707  -3.9701  -3.9694  -3.9678  -3.9673  -3.9657  -3.9650  -3.9638
    -3.9623  -3.9605  -3.9599  -3.9585  -3.9580  -3.9561  -3.9551  -3.9529
    -3.9508  -3.9479  -3.9470  -3.9458  -3.9451  -3.9438  -3.9417  -3.9398
    -3.9386  -3.9379  -3.9346  -3.9330  -3.9304  -3.9281  -3.9259  -3.9249
    -3.9233  -3.9225  -3.9215  -3.9204  -3.9195  -3.9173  -3.9165  -3.9155
    -3.9140  -3.9133  -3.9116  -3.9105  -3.9097  -3.9076  -3.9060  -3.9054
    -3.9033  -3.9026  -3.9007  -3.8996  -3.8994  -3.8977  -3.8965  -3.8957
    -3.8937  -3.8930  -3.8916  -3.8906  -3.8898  -3.8883  -3.8863  -3.8854
    -3.8836  -3.8807  -3.8781  -3.8770  -3.8759  -3.8716  -3.8702  -3.8659
    -3.8611  -3.8592  -3.8531  -3.8494  -3.8464  -3.8406  -3.8314  -3.8237
    -3.8000  -3.7843  -3.7757  -3.7693  -3.7623  -3.7509  -3.7438  -3.7380
    -3.7338  -3.7137  -3.7011  -3.6871  -3.6259  -3.6204  -3.4664  -3.4380
    -3.4142  -3.3962  -3.3097  -3.2956  -3.2508  -3.2087  -3.0035  -2.9950
    -2.9591  -2.9326  -2.8828  -2.8514  -2.8184  -2.8103  -2.7891  -2.7615
    -2.6546  -2.6326  -2.6148  -2.6056  -2.5731  -2.5519  -2.5181  -2.5097
    -2.4949  -2.4663  -2.4343  -2.4126  -2.3700  -2.3447  -2.3093  -2.2817
    -2.2341  -2.2171  -2.1789  -2.1656  -2.1545  -2.1438  -2.1332  -2.1163
    -2.0988  -2.0540  -2.0325  -0.1299   2.9044   2.9264   2.9951   2.9989
     3.0109   3.0156   3.0328   3.0591   3.0982   3.1129   3.1614   3.1795
     3.2263   3.2621   3.2887   3.3027   3.3777   3.3833   3.3907   3.4040
     3.4369   3.4542   3.4774   3.5059   3.5303   3.5763   3.6888   3.7177
     3.8984   3.9279   3.9451   3.9613   3.9758   4.0177   4.0669   4.0843
     4.1050   4.1807   4.5399   4.5876   4.7016   4.7434   4.9005   4.9143
     4.9221   4.9901   5.0013   5.0171   5.0433   5.0779   5.4036   5.4127
     5.4278   5.4397   5.4578   5.4688   5.4806   5.5002   5.5214   5.5425
     5.5827   5.6185   5.7226   5.7454   5.8003   5.8127   5.8236   5.8825
     6.0229   6.0619   6.0863   6.1041   6.2606   6.2975   6.3791   6.3917
     6.4185   6.4640   6.4970   6.5440   6.6094   6.6598   6.6744   6.7221
     6.8200   6.8468   6.8701   6.8798   6.8963   6.9254   6.9865   7.0069
     7.0522   7.0799   7.2198   7.2262   7.2337   7.2564   7.2656   7.2753
     7.2918   7.3009   7.3253   7.3543   7.4397   7.4512   7.4798   7.4946
     7.4978   7.5024   7.5133   7.5199   7.5383   7.5407   7.5520   7.5633
     7.5693   7.5874   7.6084   7.6402   7.6512   7.6747   7.7339   7.7456
     7.7623   7.7715   7.7949   7.8128   7.8170   7.8464   7.8727   7.9155
     7.9686   7.9821   7.9907   8.0207   8.0500   8.0630   8.0851   8.0904
     8.1199   8.1314   8.1426   8.1680   8.2203   8.2823   8.3198   8.3599
     8.4566   8.5113   8.5485   8.5556   8.5620   8.6202   8.6860   8.7364
     8.7833   8.8527   9.0573   9.0738   9.1314   9.3270  12.3092  12.3676
    13.3223  13.3651  13.5977  13.6377  13.7164  13.7364  13.8539  13.8613
    13.8765  13.9024  13.9761  13.9978  14.0566  14.0645  14.0748  14.1290
    14.1698  14.2228  14.3020  14.3593  14.4274  14.4453  14.4552  14.4806
    14.5087  14.5343  14.5461  14.5684  14.6039  14.7166  14.7279  14.7555
    14.8399  14.8693  14.8940  14.9664  14.9700  14.9839  15.0670  15.0980
    15.1302  15.2810  15.4089  15.4881  15.5427  15.5876  15.7053  15.7389
    15.7463  15.8485  15.9592  15.9838  16.0263  16.0329  16.0618  16.0939
    16.1034  16.1446  16.1533  16.2461  16.3576  16.4010  16.4437  16.4558
    16.6166  16.6330  16.6911  16.7057  16.7160  16.7644  16.8663  16.8759

     occupation numbers 
     1.0000   1.0000   1.0000   1.0000   1.0000   1.0000   1.0000   1.0000
     1.0000   1.0000   1.0000   1.0000   1.0000   1.0000   1.0000   1.0000
     1.0000   1.0000   1.0000   1.0000   1.0000   1.0000   1.0000   1.0000
     1.0000   1.0000   1.0000   1.0000   1.0000   1.0000   1.0000   1.0000
     1.0000   1.0000   1.0000   1.0000   1.0000   1.0000   1.0000   1.0000
     1.0000   1.0000   1.0000   1.0000   1.0000   1.0000   1.0000   1.0000
     1.0000   1.0000   1.0000   1.0000   1.0000   1.0000   1.0000   1.0000
     1.0000   1.0000   1.0000   1.0000   1.0000   1.0000   1.0000   1.0000
     1.0000   1.0000   1.0000   1.0000   1.0000   1.0000   1.0000   1.0000
     1.0000   1.0000   1.0000   1.0000   1.0000   1.0000   1.0000   1.0000
     1.0000   1.0000   1.0000   1.0000   1.0000   1.0000   1.0000   1.0000
     1.0000   1.0000   1.0000   1.0000   1.0000   1.0000   1.0000   1.0000
     1.0000   1.0000   1.0000   1.0000   1.0000   1.0000   1.0000   1.0000
     1.0000   1.0000   1.0000   1.0000   1.0000   1.0000   1.0000   1.0000
     1.0000   1.0000   1.0000   1.0000   1.0000   1.0000   1.0000   1.0000
     1.0000   1.0000   1.0000   1.0000   1.0000   1.0000   1.0000   1.0000
     1.0000   1.0000   1.0000   1.0000   1.0000   1.0000   1.0000   1.0000
     1.0000   1.0000   1.0000   1.0000   1.0000   1.0000   1.0000   1.0000
     1.0000   1.0000   1.0000   1.0000   1.0000   1.0000   1.0000   1.0000
     1.0000   1.0000   1.0000   1.0000   1.0000   1.0000   1.0000   1.0000
     1.0000   1.0000   1.0000   1.0000   1.0000   1.0000   1.0000   1.0000
     1.0000   1.0000   1.0000   1.0000   1.0000   1.0000   1.0000   1.0000
     1.0000   1.0000   1.0000   1.0000   1.0000   1.0000   1.0000   1.0000
     1.0000   1.0000   1.0000   1.0000   1.0000   1.0000   1.0000   1.0000
     1.0000   1.0000   1.0000   1.0000   1.0000   1.0000   1.0000   1.0000
     1.0000   1.0000   1.0000   1.0000   1.0000   1.0000   1.0000   1.0000
     1.0000   1.0000   1.0000   1.0000   1.0000   1.0000   1.0000   1.0000
     1.0000   1.0000   1.0000   1.0000   1.0000   1.0000   1.0000   1.0000
     1.0000   1.0000   1.0000   1.0000   1.0000   1.0000   1.0000   1.0000
     1.0000   1.0000   1.0000   1.0000   1.0000   1.0000   1.0000   1.0000
     1.0000   1.0000   1.0000   1.0000   1.0000   1.0000   1.0000   1.0000
     1.0000   1.0000   1.0000   1.0000   1.0000   1.0000   1.0000   1.0000
     1.0000   1.0000   1.0000   1.0000   1.0000   1.0000   1.0000   1.0000
     1.0000   1.0000   1.0000   1.0000   1.0000   1.0000   1.0000   1.0000
     1.0000   1.0000   1.0000   1.0000   1.0000   1.0000   1.0000   1.0000
     1.0000   1.0000   1.0000   1.0000   1.0000   1.0000   1.0000   1.0000
     1.0000   1.0000   1.0000   1.0000   1.0000   1.0000   1.0000   1.0000
     1.0000   1.0000   1.0000   1.0000   1.0000   1.0000   1.0000   1.0000
     1.0000   1.0000   1.0000   1.0000   1.0000   1.0000   1.0000   1.0000
     1.0000   1.0000   1.0000   1.0000   1.0000   1.0000   1.0000   1.0000
     1.0000   1.0000   1.0000   1.0000   1.0000   1.0000   1.0000   1.0000
     1.0000   1.0000   1.0000   1.0000   1.0000   1.0000   1.0000   1.0000
     1.0000   1.0000   1.0000   1.0000   1.0000   1.0000   1.0000   1.0000
     1.0000   1.0000   1.0000   1.0000   1.0000   1.0000   1.0000   1.0000
     1.0000   1.0000   1.0000   1.0000   1.0000   1.0000   1.0000   1.0000
     1.0000   1.0000   1.0000   1.0000   1.0000   1.0000   1.0000   1.0000
     1.0000   1.0000   1.0000   1.0000   1.0000   1.0000   1.0000   1.0000
     1.0000   1.0000   1.0000   1.0000   1.0000   1.0000   1.0000   1.0000
     1.0000   1.0000   1.0000   1.0000   1.0000   1.0000   1.0000   1.0000
     1.0000   1.0000   1.0000   1.0000   1.0000   1.0000   1.0000   1.0000
     1.0000   1.0000   1.0000   1.0000   1.0000   1.0000   1.0000   1.0000
     1.0000   1.0000   1.0000   1.0000   1.0000   1.0000   1.0000   1.0000
     1.0000   1.0000   1.0000   1.0000   1.0000   1.0000   1.0000   1.0000
     1.0000   1.0000   1.0000   1.0000   1.0000   1.0000   1.0000   1.0000
     1.0000   1.0000   1.0000   1.0000   1.0000   1.0000   1.0000   1.0000
     1.0000   1.0000   1.0000   1.0000   1.0000   1.0000   1.0000   1.0000
     1.0000   1.0000   1.0000   1.0000   1.0000   1.0000   1.0000   1.0000
     1.0000   1.0000   1.0000   1.0000   1.0000   1.0000   1.0000   1.0000
     1.0000   1.0000   1.0000   1.0000   1.0000   1.0000   1.0000   1.0000
     1.0000   1.0000   1.0000   1.0000   1.0000   1.0000   1.0000   1.0000
     1.0000   1.0000   1.0000   1.0000   1.0000   0.6437   0.0000   0.0000
     0.0000   0.0000   0.0000   0.0000   0.0000   0.0000   0.0000   0.0000
     0.0000   0.0000   0.0000   0.0000   0.0000   0.0000   0.0000   0.0000
     0.0000   0.0000   0.0000   0.0000   0.0000   0.0000   0.0000   0.0000
     0.0000   0.0000   0.0000   0.0000   0.0000   0.0000   0.0000   0.0000
     0.0000   0.0000   0.0000   0.0000   0.0000   0.0000   0.0000   0.0000
     0.0000   0.0000   0.0000   0.0000   0.0000   0.0000   0.0000   0.0000
     0.0000   0.0000   0.0000   0.0000   0.0000   0.0000   0.0000   0.0000
     0.0000   0.0000   0.0000   0.0000   0.0000   0.0000   0.0000   0.0000
     0.0000   0.0000   0.0000   0.0000   0.0000   0.0000   0.0000   0.0000

          k = 0.1250 0.5052 0.0000 ( 51251 PWs)   bands (ev):

    -6.2830  -6.1786  -6.0534  -6.0433  -6.0095  -5.9710  -5.9511  -5.8444
    -5.8390  -5.8241  -5.7217  -5.7209  -5.7162  -5.7139  -5.7059  -5.6882
    -5.6807  -5.6782  -5.6754  -5.6625  -5.6482  -5.6355  -5.6342  -5.6306
    -5.6265  -5.6218  -5.6170  -5.6125  -5.6092  -5.6065  -5.6030  -5.5987
    -5.5918  -5.5877  -5.5806  -5.5794  -5.5747  -5.5681  -5.5581  -5.5558
    -5.5520  -5.5477  -5.5439  -5.5425  -5.5416  -5.5411  -5.5373  -5.5345
    -5.5336  -5.5301  -5.5198  -5.4951  -5.4931  -4.2501  -4.1904  -4.1819
    -4.1788  -4.1778  -4.1750  -4.1726  -4.1722  -4.1679  -4.1669  -4.1648
    -4.1632  -4.1615  -4.1577  -4.1568  -4.1559  -4.1544  -4.1512  -4.1496
    -4.1486  -4.1472  -4.1449  -4.1441  -4.1429  -4.1415  -4.1401  -4.1386
    -4.1370  -4.1364  -4.1346  -4.1335  -4.1320  -4.1313  -4.1299  -4.1289
    -4.1275  -4.1262  -4.1252  -4.1247  -4.1238  -4.1227  -4.1216  -4.1190
    -4.1176  -4.1165  -4.1157  -4.1148  -4.1131  -4.1124  -4.1102  -4.1094
    -4.1087  -4.1073  -4.1067  -4.1059  -4.1043  -4.1036  -4.1015  -4.0992
    -4.0976  -4.0963  -4.0961  -4.0944  -4.0935  -4.0923  -4.0904  -4.0897
    -4.0888  -4.0866  -4.0851  -4.0839  -4.0834  -4.0810  -4.0792  -4.0769
    -4.0750  -4.0739  -4.0721  -4.0668  -4.0657  -4.0622  -4.0595  -4.0561
    -4.0540  -4.0501  -4.0485  -4.0391  -4.0374  -4.0350  -4.0333  -4.0322
    -4.0304  -4.0291  -4.0254  -4.0240  -4.0224  -4.0216  -4.0201  -4.0170
    -4.0144  -4.0135  -4.0122  -4.0111  -4.0102  -4.0090  -4.0077  -4.0064
    -4.0056  -4.0037  -4.0018  -4.0000  -3.9990  -3.9975  -3.9960  -3.9957
    -3.9939  -3.9930  -3.9907  -3.9884  -3.9880  -3.9867  -3.9853  -3.9832
    -3.9825  -3.9814  -3.9805  -3.9794  -3.9783  -3.9773  -3.9752  -3.9745
    -3.9731  -3.9721  -3.9706  -3.9701  -3.9695  -3.9671  -3.9656  -3.9643
    -3.9634  -3.9611  -3.9599  -3.9589  -3.9575  -3.9564  -3.9526  -3.9507
    -3.9487  -3.9483  -3.9476  -3.9455  -3.9433  -3.9420  -3.9410  -3.9385
    -3.9376  -3.9362  -3.9339  -3.9328  -3.9305  -3.9286  -3.9275  -3.9266
    -3.9241  -3.9228  -3.9211  -3.9193  -3.9175  -3.9167  -3.9151  -3.9147
    -3.9137  -3.9114  -3.9097  -3.9086  -3.9084  -3.9072  -3.9057  -3.9046
    -3.9041  -3.9033  -3.9013  -3.9002  -3.8991  -3.8981  -3.8966  -3.8958
    -3.8951  -3.8940  -3.8934  -3.8902  -3.8885  -3.8871  -3.8862  -3.8853
    -3.8836  -3.8821  -3.8797  -3.8763  -3.8755  -3.8729  -3.8688  -3.8675
    -3.8649  -3.8635  -3.8563  -3.8527  -3.8477  -3.8417  -3.8385  -3.8259
    -3.8201  -3.8162  -3.7940  -3.7821  -3.7754  -3.7634  -3.7485  -3.7418
    -3.7391  -3.7327  -3.7189  -3.6401  -3.6285  -3.6066  -3.5990  -3.5197
    -3.3177  -3.2993  -3.2141  -3.2022  -3.1075  -3.1028  -3.0810  -2.9142
    -2.9100  -2.8981  -2.8943  -2.8654  -2.8200  -2.7383  -2.7223  -2.7081
    -2.6834  -2.6721  -2.6600  -2.6307  -2.6270  -2.6222  -2.5763  -2.5413
    -2.4980  -2.4670  -2.3923  -2.3595  -2.3572  -2.3346  -2.3214  -2.2901
    -2.2832  -2.2561  -2.2519  -2.2429  -2.2312  -2.1748  -2.1015  -2.0809
    -2.0557  -2.0005  -1.9716  -0.1231   2.6855   2.6968   2.7084   2.8709
     2.9212   2.9330   2.9567   2.9697   2.9896   3.1843   3.1973   3.2382
     3.2483   3.2605   3.2704   3.2911   3.3089   3.3405   3.4391   3.4571
     3.4911   3.5000   3.5217   3.5341   3.5697   3.7343   3.7578   3.7882
     3.8188   3.9189   3.9473   4.0841   4.0948   4.0999   4.1255   4.1291
     4.1794   4.2072   4.2262   4.2695   4.3343   4.4891   4.6549   4.7197
     5.0430   5.1461   5.1674   5.1800   5.2126   5.2769   5.3139   5.4431
     5.4871   5.5356   5.6219   5.6312   5.6688   5.7068   5.7319   5.8149
     5.9153   6.0101   6.0417   6.0527   6.0796   6.0963   6.1046   6.1333
     6.1877   6.3046   6.3491   6.3633   6.4641   6.4730   6.4811   6.4889
     6.5152   6.5348   6.5551   6.5715   6.5919   6.6111   6.6495   6.6621
     6.6767   6.7033   6.7517   6.7771   6.8534   6.8593   6.8753   6.8824
     6.8976   6.9156   6.9453   6.9671   6.9879   7.0002   7.0230   7.0535
     7.0942   7.1189   7.1533   7.1604   7.1854   7.1919   7.2619   7.2868
     7.3200   7.3418   7.3455   7.3519   7.4176   7.4353   7.4750   7.5080
     7.5759   7.6116   7.6378   7.6598   7.6720   7.6877   7.7312   7.8170
     7.8348   7.8363   7.8561   7.8624   7.8987   7.9084   7.9136   7.9385
     7.9542   7.9681   7.9985   8.0218   8.0472   8.0525   8.0718   8.0931
     8.1241   8.1367   8.1556   8.1829   8.1957   8.2200   8.2277   8.3209
     8.3311   8.3558   8.4713   8.4990   8.5694   8.6165   8.6831   8.7186
     8.7755   8.8460   8.9127   8.9870   9.1871   9.2816  12.3747  12.8278
    13.3679  13.3754  13.4088  13.4497  13.5804  13.6241  13.6731  13.9157
    13.9325  14.0079  14.0485  14.2396  14.2515  14.2610  14.2821  14.3283
    14.3335  14.3604  14.3724  14.3875  14.4375  14.4726  14.5119  14.6096
    14.6892  14.7067  14.7595  14.8351  14.8600  14.9184  14.9436  14.9590
    14.9986  15.0375  15.0571  15.1617  15.1999  15.2429  15.2991  15.3115
    15.3169  15.3269  15.3399  15.3698  15.3801  15.3919  15.4045  15.4328
    15.4983  15.5325  15.5761  15.6111  15.7886  15.9356  15.9811  16.0528
    16.2431  16.3746  16.4028  16.4703  16.5530  16.5652  16.5781  16.5999
    16.6249  16.6446  16.6532  16.6603  16.6859  16.6986  16.7081  16.7323

     occupation numbers 
     1.0000   1.0000   1.0000   1.0000   1.0000   1.0000   1.0000   1.0000
     1.0000   1.0000   1.0000   1.0000   1.0000   1.0000   1.0000   1.0000
     1.0000   1.0000   1.0000   1.0000   1.0000   1.0000   1.0000   1.0000
     1.0000   1.0000   1.0000   1.0000   1.0000   1.0000   1.0000   1.0000
     1.0000   1.0000   1.0000   1.0000   1.0000   1.0000   1.0000   1.0000
     1.0000   1.0000   1.0000   1.0000   1.0000   1.0000   1.0000   1.0000
     1.0000   1.0000   1.0000   1.0000   1.0000   1.0000   1.0000   1.0000
     1.0000   1.0000   1.0000   1.0000   1.0000   1.0000   1.0000   1.0000
     1.0000   1.0000   1.0000   1.0000   1.0000   1.0000   1.0000   1.0000
     1.0000   1.0000   1.0000   1.0000   1.0000   1.0000   1.0000   1.0000
     1.0000   1.0000   1.0000   1.0000   1.0000   1.0000   1.0000   1.0000
     1.0000   1.0000   1.0000   1.0000   1.0000   1.0000   1.0000   1.0000
     1.0000   1.0000   1.0000   1.0000   1.0000   1.0000   1.0000   1.0000
     1.0000   1.0000   1.0000   1.0000   1.0000   1.0000   1.0000   1.0000
     1.0000   1.0000   1.0000   1.0000   1.0000   1.0000   1.0000   1.0000
     1.0000   1.0000   1.0000   1.0000   1.0000   1.0000   1.0000   1.0000
     1.0000   1.0000   1.0000   1.0000   1.0000   1.0000   1.0000   1.0000
     1.0000   1.0000   1.0000   1.0000   1.0000   1.0000   1.0000   1.0000
     1.0000   1.0000   1.0000   1.0000   1.0000   1.0000   1.0000   1.0000
     1.0000   1.0000   1.0000   1.0000   1.0000   1.0000   1.0000   1.0000
     1.0000   1.0000   1.0000   1.0000   1.0000   1.0000   1.0000   1.0000
     1.0000   1.0000   1.0000   1.0000   1.0000   1.0000   1.0000   1.0000
     1.0000   1.0000   1.0000   1.0000   1.0000   1.0000   1.0000   1.0000
     1.0000   1.0000   1.0000   1.0000   1.0000   1.0000   1.0000   1.0000
     1.0000   1.0000   1.0000   1.0000   1.0000   1.0000   1.0000   1.0000
     1.0000   1.0000   1.0000   1.0000   1.0000   1.0000   1.0000   1.0000
     1.0000   1.0000   1.0000   1.0000   1.0000   1.0000   1.0000   1.0000
     1.0000   1.0000   1.0000   1.0000   1.0000   1.0000   1.0000   1.0000
     1.0000   1.0000   1.0000   1.0000   1.0000   1.0000   1.0000   1.0000
     1.0000   1.0000   1.0000   1.0000   1.0000   1.0000   1.0000   1.0000
     1.0000   1.0000   1.0000   1.0000   1.0000   1.0000   1.0000   1.0000
     1.0000   1.0000   1.0000   1.0000   1.0000   1.0000   1.0000   1.0000
     1.0000   1.0000   1.0000   1.0000   1.0000   1.0000   1.0000   1.0000
     1.0000   1.0000   1.0000   1.0000   1.0000   1.0000   1.0000   1.0000
     1.0000   1.0000   1.0000   1.0000   1.0000   1.0000   1.0000   1.0000
     1.0000   1.0000   1.0000   1.0000   1.0000   1.0000   1.0000   1.0000
     1.0000   1.0000   1.0000   1.0000   1.0000   1.0000   1.0000   1.0000
     1.0000   1.0000   1.0000   1.0000   1.0000   1.0000   1.0000   1.0000
     1.0000   1.0000   1.0000   1.0000   1.0000   1.0000   1.0000   1.0000
     1.0000   1.0000   1.0000   1.0000   1.0000   1.0000   1.0000   1.0000
     1.0000   1.0000   1.0000   1.0000   1.0000   1.0000   1.0000   1.0000
     1.0000   1.0000   1.0000   1.0000   1.0000   1.0000   1.0000   1.0000
     1.0000   1.0000   1.0000   1.0000   1.0000   1.0000   1.0000   1.0000
     1.0000   1.0000   1.0000   1.0000   1.0000   1.0000   1.0000   1.0000
     1.0000   1.0000   1.0000   1.0000   1.0000   1.0000   1.0000   1.0000
     1.0000   1.0000   1.0000   1.0000   1.0000   1.0000   1.0000   1.0000
     1.0000   1.0000   1.0000   1.0000   1.0000   1.0000   1.0000   1.0000
     1.0000   1.0000   1.0000   1.0000   1.0000   1.0000   1.0000   1.0000
     1.0000   1.0000   1.0000   1.0000   1.0000   1.0000   1.0000   1.0000
     1.0000   1.0000   1.0000   1.0000   1.0000   1.0000   1.0000   1.0000
     1.0000   1.0000   1.0000   1.0000   1.0000   1.0000   1.0000   1.0000
     1.0000   1.0000   1.0000   1.0000   1.0000   1.0000   1.0000   1.0000
     1.0000   1.0000   1.0000   1.0000   1.0000   1.0000   1.0000   1.0000
     1.0000   1.0000   1.0000   1.0000   1.0000   1.0000   1.0000   1.0000
     1.0000   1.0000   1.0000   1.0000   1.0000   1.0000   1.0000   1.0000
     1.0000   1.0000   1.0000   1.0000   1.0000   1.0000   1.0000   1.0000
     1.0000   1.0000   1.0000   1.0000   1.0000   1.0000   1.0000   1.0000
     1.0000   1.0000   1.0000   1.0000   1.0000   1.0000   1.0000   1.0000
     1.0000   1.0000   1.0000   1.0000   1.0000   1.0000   1.0000   1.0000
     1.0000   1.0000   1.0000   1.0000   1.0000   1.0000   1.0000   1.0000
     1.0000   1.0000   1.0000   1.0000   1.0000   1.0842   0.0000   0.0000
     0.0000   0.0000   0.0000   0.0000   0.0000   0.0000   0.0000   0.0000
     0.0000   0.0000   0.0000   0.0000   0.0000   0.0000   0.0000   0.0000
     0.0000   0.0000   0.0000   0.0000   0.0000   0.0000   0.0000   0.0000
     0.0000   0.0000   0.0000   0.0000   0.0000   0.0000   0.0000   0.0000
     0.0000   0.0000   0.0000   0.0000   0.0000   0.0000   0.0000   0.0000
     0.0000   0.0000   0.0000   0.0000   0.0000   0.0000   0.0000   0.0000
     0.0000   0.0000   0.0000   0.0000   0.0000   0.0000   0.0000   0.0000
     0.0000   0.0000   0.0000   0.0000   0.0000   0.0000   0.0000   0.0000
     0.0000   0.0000   0.0000   0.0000   0.0000   0.0000   0.0000   0.0000

          k = 0.1250 0.5052 0.1533 ( 51231 PWs)   bands (ev):

    -6.2668  -6.1668  -6.1359  -6.0479  -5.9964  -5.9467  -5.9018  -5.8742
    -5.8272  -5.7765  -5.7698  -5.7589  -5.7265  -5.7071  -5.6839  -5.6785
    -5.6736  -5.6693  -5.6638  -5.6610  -5.6559  -5.6485  -5.6430  -5.6395
    -5.6350  -5.6295  -5.6162  -5.6132  -5.6078  -5.6037  -5.6022  -5.5928
    -5.5885  -5.5820  -5.5773  -5.5721  -5.5697  -5.5619  -5.5603  -5.5576
    -5.5517  -5.5495  -5.5457  -5.5437  -5.5426  -5.5416  -5.5373  -5.5357
    -5.5338  -5.5322  -5.5204  -5.4953  -5.4933  -4.2501  -4.1895  -4.1806
    -4.1798  -4.1766  -4.1749  -4.1732  -4.1694  -4.1673  -4.1659  -4.1629
    -4.1617  -4.1607  -4.1576  -4.1567  -4.1542  -4.1520  -4.1511  -4.1502
    -4.1487  -4.1479  -4.1468  -4.1453  -4.1451  -4.1435  -4.1420  -4.1415
    -4.1391  -4.1384  -4.1378  -4.1373  -4.1351  -4.1335  -4.1312  -4.1303
    -4.1291  -4.1273  -4.1255  -4.1248  -4.1229  -4.1216  -4.1202  -4.1193
    -4.1184  -4.1172  -4.1164  -4.1154  -4.1143  -4.1128  -4.1119  -4.1095
    -4.1082  -4.1071  -4.1064  -4.1054  -4.1049  -4.1039  -4.1020  -4.1016
    -4.0998  -4.0980  -4.0977  -4.0945  -4.0932  -4.0900  -4.0879  -4.0863
    -4.0847  -4.0841  -4.0814  -4.0800  -4.0783  -4.0764  -4.0750  -4.0732
    -4.0713  -4.0696  -4.0673  -4.0654  -4.0643  -4.0611  -4.0596  -4.0550
    -4.0526  -4.0499  -4.0479  -4.0452  -4.0413  -4.0399  -4.0379  -4.0359
    -4.0326  -4.0301  -4.0287  -4.0261  -4.0224  -4.0216  -4.0204  -4.0180
    -4.0173  -4.0150  -4.0125  -4.0115  -4.0097  -4.0083  -4.0071  -4.0065
    -4.0050  -4.0034  -4.0012  -3.9998  -3.9985  -3.9965  -3.9954  -3.9946
    -3.9939  -3.9927  -3.9915  -3.9903  -3.9887  -3.9864  -3.9848  -3.9841
    -3.9827  -3.9808  -3.9805  -3.9793  -3.9777  -3.9766  -3.9752  -3.9743
    -3.9722  -3.9713  -3.9709  -3.9685  -3.9673  -3.9666  -3.9658  -3.9635
    -3.9627  -3.9610  -3.9600  -3.9593  -3.9573  -3.9562  -3.9539  -3.9522
    -3.9498  -3.9486  -3.9474  -3.9465  -3.9426  -3.9421  -3.9411  -3.9394
    -3.9383  -3.9368  -3.9340  -3.9318  -3.9302  -3.9289  -3.9280  -3.9250
    -3.9248  -3.9232  -3.9213  -3.9196  -3.9176  -3.9169  -3.9157  -3.9151
    -3.9139  -3.9127  -3.9108  -3.9103  -3.9089  -3.9074  -3.9068  -3.9053
    -3.9042  -3.9027  -3.9016  -3.9001  -3.8986  -3.8973  -3.8961  -3.8956
    -3.8947  -3.8944  -3.8929  -3.8907  -3.8895  -3.8877  -3.8870  -3.8864
    -3.8840  -3.8822  -3.8809  -3.8790  -3.8758  -3.8733  -3.8715  -3.8682
    -3.8664  -3.8631  -3.8617  -3.8564  -3.8479  -3.8404  -3.8391  -3.8224
    -3.8133  -3.8003  -3.7837  -3.7749  -3.7649  -3.7617  -3.7476  -3.7412
    -3.7333  -3.7232  -3.6939  -3.6740  -3.6266  -3.6213  -3.5112  -3.4870
    -3.4436  -3.4003  -3.3297  -3.1787  -3.1248  -3.0819  -2.9839  -2.9551
    -2.8801  -2.8523  -2.8310  -2.8169  -2.7950  -2.7795  -2.7437  -2.7185
    -2.6712  -2.6653  -2.6462  -2.6164  -2.5976  -2.5814  -2.5491  -2.5361
    -2.4992  -2.4667  -2.4537  -2.4198  -2.4100  -2.3870  -2.3424  -2.3107
    -2.2824  -2.2491  -2.2064  -2.1890  -2.1676  -2.1490  -2.1287  -2.0968
    -2.0699  -2.0246  -1.9935  -0.1256   2.7271   2.7424   2.8049   2.9319
     2.9525   2.9665   2.9744   2.9841   3.0189   3.0437   3.1536   3.2145
     3.2370   3.2560   3.2698   3.2760   3.3080   3.3152   3.3853   3.4626
     3.4992   3.5238   3.5500   3.5661   3.5800   3.6455   3.6800   3.7032
     3.7222   3.7640   3.8034   3.9481   3.9870   4.0338   4.1267   4.1646
     4.1921   4.2688   4.4271   4.4413   4.4901   4.6820   4.7736   4.9147
     5.0985   5.1530   5.2298   5.2503   5.2695   5.3028   5.3168   5.3542
     5.4865   5.5195   5.6005   5.6788   5.6888   5.7468   5.7949   5.8124
     5.8425   5.8866   5.9039   5.9260   5.9572   5.9766   6.0499   6.0973
     6.1196   6.1626   6.2410   6.2576   6.3136   6.3267   6.3515   6.3730
     6.4296   6.4941   6.5076   6.5372   6.5551   6.5825   6.5986   6.7346
     6.7552   6.7827   6.8031   6.8802   6.8863   6.9023   6.9060   6.9197
     6.9509   6.9755   7.0315   7.0970   7.1636   7.1829   7.1937   7.2167
     7.2311   7.2339   7.2423   7.2613   7.2730   7.2855   7.2959   7.3246
     7.3483   7.3633   7.3876   7.4174   7.4474   7.4589   7.4943   7.5179
     7.5710   7.5863   7.6155   7.6419   7.6799   7.7016   7.7169   7.7399
     7.7613   7.7840   7.8011   7.8139   7.8364   7.8441   7.8454   7.8595
     7.8694   7.8878   7.9111   7.9383   7.9535   7.9625   7.9747   8.0183
     8.0474   8.1056   8.1386   8.1701   8.2197   8.2386   8.3133   8.3362
     8.3567   8.4464   8.4816   8.5320   8.5924   8.6212   8.7041   8.7515
     8.7757   8.8780   8.9261   8.9713   9.1602   9.2762  12.4583  12.8799
    13.0321  13.3012  13.4285  13.5507  13.6052  13.7927  13.8211  13.9749
    13.9952  14.0162  14.0718  14.2748  14.2894  14.3179  14.3411  14.3689
    14.3824  14.3955  14.4087  14.4350  14.4427  14.4589  14.4885  14.5169
    14.5754  14.6369  14.6830  14.7114  14.7648  14.8024  14.8128  14.8641
    14.8967  14.9367  14.9681  15.0132  15.0437  15.0854  15.1195  15.1965
    15.2498  15.3593  15.4895  15.5529  15.5593  15.5740  15.5892  15.6174
    15.6261  15.6378  15.6758  15.7126  15.8362  15.9203  15.9846  16.0820
    16.2729  16.3231  16.4153  16.4278  16.4537  16.4825  16.5002  16.5128
    16.6202  16.6394  16.6609  16.6873  16.7141  16.7429  16.8112  16.8253

     occupation numbers 
     1.0000   1.0000   1.0000   1.0000   1.0000   1.0000   1.0000   1.0000
     1.0000   1.0000   1.0000   1.0000   1.0000   1.0000   1.0000   1.0000
     1.0000   1.0000   1.0000   1.0000   1.0000   1.0000   1.0000   1.0000
     1.0000   1.0000   1.0000   1.0000   1.0000   1.0000   1.0000   1.0000
     1.0000   1.0000   1.0000   1.0000   1.0000   1.0000   1.0000   1.0000
     1.0000   1.0000   1.0000   1.0000   1.0000   1.0000   1.0000   1.0000
     1.0000   1.0000   1.0000   1.0000   1.0000   1.0000   1.0000   1.0000
     1.0000   1.0000   1.0000   1.0000   1.0000   1.0000   1.0000   1.0000
     1.0000   1.0000   1.0000   1.0000   1.0000   1.0000   1.0000   1.0000
     1.0000   1.0000   1.0000   1.0000   1.0000   1.0000   1.0000   1.0000
     1.0000   1.0000   1.0000   1.0000   1.0000   1.0000   1.0000   1.0000
     1.0000   1.0000   1.0000   1.0000   1.0000   1.0000   1.0000   1.0000
     1.0000   1.0000   1.0000   1.0000   1.0000   1.0000   1.0000   1.0000
     1.0000   1.0000   1.0000   1.0000   1.0000   1.0000   1.0000   1.0000
     1.0000   1.0000   1.0000   1.0000   1.0000   1.0000   1.0000   1.0000
     1.0000   1.0000   1.0000   1.0000   1.0000   1.0000   1.0000   1.0000
     1.0000   1.0000   1.0000   1.0000   1.0000   1.0000   1.0000   1.0000
     1.0000   1.0000   1.0000   1.0000   1.0000   1.0000   1.0000   1.0000
     1.0000   1.0000   1.0000   1.0000   1.0000   1.0000   1.0000   1.0000
     1.0000   1.0000   1.0000   1.0000   1.0000   1.0000   1.0000   1.0000
     1.0000   1.0000   1.0000   1.0000   1.0000   1.0000   1.0000   1.0000
     1.0000   1.0000   1.0000   1.0000   1.0000   1.0000   1.0000   1.0000
     1.0000   1.0000   1.0000   1.0000   1.0000   1.0000   1.0000   1.0000
     1.0000   1.0000   1.0000   1.0000   1.0000   1.0000   1.0000   1.0000
     1.0000   1.0000   1.0000   1.0000   1.0000   1.0000   1.0000   1.0000
     1.0000   1.0000   1.0000   1.0000   1.0000   1.0000   1.0000   1.0000
     1.0000   1.0000   1.0000   1.0000   1.0000   1.0000   1.0000   1.0000
     1.0000   1.0000   1.0000   1.0000   1.0000   1.0000   1.0000   1.0000
     1.0000   1.0000   1.0000   1.0000   1.0000   1.0000   1.0000   1.0000
     1.0000   1.0000   1.0000   1.0000   1.0000   1.0000   1.0000   1.0000
     1.0000   1.0000   1.0000   1.0000   1.0000   1.0000   1.0000   1.0000
     1.0000   1.0000   1.0000   1.0000   1.0000   1.0000   1.0000   1.0000
     1.0000   1.0000   1.0000   1.0000   1.0000   1.0000   1.0000   1.0000
     1.0000   1.0000   1.0000   1.0000   1.0000   1.0000   1.0000   1.0000
     1.0000   1.0000   1.0000   1.0000   1.0000   1.0000   1.0000   1.0000
     1.0000   1.0000   1.0000   1.0000   1.0000   1.0000   1.0000   1.0000
     1.0000   1.0000   1.0000   1.0000   1.0000   1.0000   1.0000   1.0000
     1.0000   1.0000   1.0000   1.0000   1.0000   1.0000   1.0000   1.0000
     1.0000   1.0000   1.0000   1.0000   1.0000   1.0000   1.0000   1.0000
     1.0000   1.0000   1.0000   1.0000   1.0000   1.0000   1.0000   1.0000
     1.0000   1.0000   1.0000   1.0000   1.0000   1.0000   1.0000   1.0000
     1.0000   1.0000   1.0000   1.0000   1.0000   1.0000   1.0000   1.0000
     1.0000   1.0000   1.0000   1.0000   1.0000   1.0000   1.0000   1.0000
     1.0000   1.0000   1.0000   1.0000   1.0000   1.0000   1.0000   1.0000
     1.0000   1.0000   1.0000   1.0000   1.0000   1.0000   1.0000   1.0000
     1.0000   1.0000   1.0000   1.0000   1.0000   1.0000   1.0000   1.0000
     1.0000   1.0000   1.0000   1.0000   1.0000   1.0000   1.0000   1.0000
     1.0000   1.0000   1.0000   1.0000   1.0000   1.0000   1.0000   1.0000
     1.0000   1.0000   1.0000   1.0000   1.0000   1.0000   1.0000   1.0000
     1.0000   1.0000   1.0000   1.0000   1.0000   1.0000   1.0000   1.0000
     1.0000   1.0000   1.0000   1.0000   1.0000   1.0000   1.0000   1.0000
     1.0000   1.0000   1.0000   1.0000   1.0000   1.0000   1.0000   1.0000
     1.0000   1.0000   1.0000   1.0000   1.0000   1.0000   1.0000   1.0000
     1.0000   1.0000   1.0000   1.0000   1.0000   1.0000   1.0000   1.0000
     1.0000   1.0000   1.0000   1.0000   1.0000   1.0000   1.0000   1.0000
     1.0000   1.0000   1.0000   1.0000   1.0000   1.0000   1.0000   1.0000
     1.0000   1.0000   1.0000   1.0000   1.0000   1.0000   1.0000   1.0000
     1.0000   1.0000   1.0000   1.0000   1.0000   1.0000   1.0000   1.0000
     1.0000   1.0000   1.0000   1.0000   1.0000   1.0000   1.0000   1.0000
     1.0000   1.0000   1.0000   1.0000   1.0000   1.0000   1.0000   1.0000
     1.0000   1.0000   1.0000   1.0000   1.0000   1.0641   0.0000   0.0000
     0.0000   0.0000   0.0000   0.0000   0.0000   0.0000   0.0000   0.0000
     0.0000   0.0000   0.0000   0.0000   0.0000   0.0000   0.0000   0.0000
     0.0000   0.0000   0.0000   0.0000   0.0000   0.0000   0.0000   0.0000
     0.0000   0.0000   0.0000   0.0000   0.0000   0.0000   0.0000   0.0000
     0.0000   0.0000   0.0000   0.0000   0.0000   0.0000   0.0000   0.0000
     0.0000   0.0000   0.0000   0.0000   0.0000   0.0000   0.0000   0.0000
     0.0000   0.0000   0.0000   0.0000   0.0000   0.0000   0.0000   0.0000
     0.0000   0.0000   0.0000   0.0000   0.0000   0.0000   0.0000   0.0000
     0.0000   0.0000   0.0000   0.0000   0.0000   0.0000   0.0000   0.0000

          k = 0.1250 0.5052-0.3067 ( 51258 PWs)   bands (ev):

    -6.2312  -6.2030  -6.1323  -6.0991  -5.9733  -5.9435  -5.8556  -5.8517
    -5.8134  -5.8003  -5.7969  -5.7771  -5.7115  -5.7084  -5.6964  -5.6790
    -5.6733  -5.6646  -5.6600  -5.6574  -5.6542  -5.6464  -5.6436  -5.6388
    -5.6341  -5.6332  -5.6293  -5.6255  -5.6151  -5.6070  -5.5960  -5.5809
    -5.5794  -5.5763  -5.5730  -5.5700  -5.5658  -5.5642  -5.5586  -5.5561
    -5.5520  -5.5500  -5.5475  -5.5463  -5.5442  -5.5420  -5.5376  -5.5368
    -5.5353  -5.5339  -5.5210  -5.4955  -5.4936  -4.2501  -4.1885  -4.1819
    -4.1793  -4.1763  -4.1718  -4.1702  -4.1686  -4.1653  -4.1641  -4.1611
    -4.1606  -4.1591  -4.1586  -4.1573  -4.1553  -4.1547  -4.1522  -4.1507
    -4.1496  -4.1485  -4.1477  -4.1467  -4.1456  -4.1452  -4.1442  -4.1433
    -4.1415  -4.1405  -4.1395  -4.1374  -4.1356  -4.1335  -4.1314  -4.1311
    -4.1293  -4.1268  -4.1263  -4.1250  -4.1243  -4.1233  -4.1219  -4.1206
    -4.1192  -4.1188  -4.1171  -4.1157  -4.1144  -4.1138  -4.1121  -4.1107
    -4.1094  -4.1083  -4.1076  -4.1063  -4.1050  -4.1034  -4.1014  -4.1005
    -4.0990  -4.0985  -4.0973  -4.0955  -4.0914  -4.0901  -4.0867  -4.0849
    -4.0840  -4.0818  -4.0803  -4.0772  -4.0760  -4.0726  -4.0705  -4.0681
    -4.0663  -4.0635  -4.0629  -4.0613  -4.0585  -4.0563  -4.0535  -4.0526
    -4.0500  -4.0496  -4.0482  -4.0454  -4.0441  -4.0434  -4.0420  -4.0413
    -4.0397  -4.0370  -4.0356  -4.0323  -4.0304  -4.0248  -4.0239  -4.0215
    -4.0188  -4.0139  -4.0133  -4.0098  -4.0094  -4.0081  -4.0059  -4.0052
    -4.0038  -4.0025  -4.0001  -3.9985  -3.9982  -3.9969  -3.9953  -3.9942
    -3.9919  -3.9913  -3.9896  -3.9883  -3.9867  -3.9857  -3.9842  -3.9834
    -3.9823  -3.9814  -3.9804  -3.9791  -3.9777  -3.9763  -3.9754  -3.9741
    -3.9734  -3.9711  -3.9699  -3.9682  -3.9673  -3.9661  -3.9656  -3.9648
    -3.9633  -3.9611  -3.9605  -3.9593  -3.9587  -3.9569  -3.9556  -3.9547
    -3.9497  -3.9476  -3.9461  -3.9450  -3.9442  -3.9433  -3.9413  -3.9393
    -3.9377  -3.9367  -3.9341  -3.9330  -3.9307  -3.9295  -3.9258  -3.9246
    -3.9238  -3.9223  -3.9213  -3.9199  -3.9188  -3.9177  -3.9158  -3.9152
    -3.9142  -3.9125  -3.9119  -3.9112  -3.9094  -3.9084  -3.9068  -3.9058
    -3.9049  -3.9033  -3.9014  -3.8997  -3.8982  -3.8969  -3.8962  -3.8959
    -3.8949  -3.8943  -3.8935  -3.8915  -3.8901  -3.8893  -3.8877  -3.8871
    -3.8845  -3.8832  -3.8816  -3.8805  -3.8761  -3.8747  -3.8721  -3.8697
    -3.8674  -3.8654  -3.8624  -3.8572  -3.8483  -3.8418  -3.8392  -3.8221
    -3.8034  -3.7896  -3.7824  -3.7713  -3.7678  -3.7476  -3.7450  -3.7348
    -3.7333  -3.7210  -3.6544  -3.6286  -3.6240  -3.6055  -3.5362  -3.5250
    -3.4861  -3.4473  -3.3328  -3.3141  -3.0628  -3.0392  -3.0216  -2.9994
    -2.8583  -2.8331  -2.7992  -2.7724  -2.7250  -2.7203  -2.7142  -2.6939
    -2.6620  -2.6554  -2.6389  -2.6294  -2.6187  -2.5877  -2.5200  -2.5143
    -2.5073  -2.5004  -2.4829  -2.4695  -2.4478  -2.4217  -2.3942  -2.3147
    -2.2429  -2.2317  -2.2108  -2.1841  -2.1242  -2.1159  -2.1079  -2.0990
    -2.0857  -2.0631  -2.0433  -0.1280   2.8092   2.8256   2.8528   2.8701
     3.0315   3.0467   3.0592   3.0681   3.0855   3.0916   3.1073   3.1119
     3.1325   3.1606   3.2511   3.2645   3.3512   3.3601   3.3650   3.3733
     3.3982   3.4180   3.4637   3.4878   3.5143   3.5591   3.5739   3.6136
     3.8017   3.8417   3.9243   3.9595   3.9885   4.0245   4.1182   4.1566
     4.1799   4.2326   4.3258   4.3911   4.7905   4.8309   5.0428   5.0915
     5.1894   5.2263   5.3369   5.3487   5.3695   5.3786   5.3971   5.4273
     5.4734   5.4875   5.5048   5.5145   5.5337   5.5594   5.6140   5.6559
     5.7926   5.8373   5.8685   5.9086   5.9841   5.9893   6.0187   6.0564
     6.0816   6.1054   6.1490   6.1823   6.2045   6.2258   6.2346   6.2751
     6.3810   6.4379   6.4815   6.4924   6.5180   6.5766   6.6165   6.6354
     6.6431   6.7052   6.8895   6.9405   6.9718   6.9820   6.9939   7.0416
     7.1195   7.1516   7.1938   7.2000   7.2079   7.2121   7.2299   7.2793
     7.3146   7.3253   7.3620   7.4103   7.4238   7.4313   7.4544   7.4575
     7.4608   7.4693   7.4713   7.4802   7.4925   7.5046   7.5119   7.5309
     7.5448   7.5632   7.5905   7.6001   7.6289   7.6445   7.6609   7.6660
     7.6762   7.6788   7.6903   7.6989   7.7106   7.7166   7.7390   7.7713
     7.7824   7.7965   7.8321   7.8441   7.8602   7.8848   7.9283   7.9874
     8.0563   8.0929   8.1290   8.1641   8.2353   8.2682   8.3117   8.3484
     8.3924   8.4094   8.5062   8.5615   8.6078   8.6217   8.7596   8.7675
     8.8299   8.8738   8.9488   8.9548   9.1232   9.2704  12.6656  12.7189
    13.0157  13.0723  13.6350  13.6517  13.6537  13.7098  13.8933  13.9122
    14.1507  14.1628  14.2160  14.2436  14.3081  14.3215  14.3322  14.3471
    14.3788  14.3874  14.4134  14.4457  14.4914  14.5140  14.5303  14.5559
    14.5714  14.5937  14.6412  14.6593  14.6667  14.6905  14.7051  14.7543
    14.7945  14.8402  14.8632  14.8724  14.8984  14.9387  14.9510  15.1971
    15.2672  15.3505  15.5687  15.5810  15.6018  15.6214  15.6399  15.7228
    15.7551  15.8200  15.8518  15.8933  16.0578  16.0763  16.0959  16.1138
    16.1394  16.1515  16.1769  16.2607  16.3376  16.4168  16.5308  16.5538
    16.5818  16.5985  16.6650  16.6931  16.7578  16.7730  16.8472  16.8732

     occupation numbers 
     1.0000   1.0000   1.0000   1.0000   1.0000   1.0000   1.0000   1.0000
     1.0000   1.0000   1.0000   1.0000   1.0000   1.0000   1.0000   1.0000
     1.0000   1.0000   1.0000   1.0000   1.0000   1.0000   1.0000   1.0000
     1.0000   1.0000   1.0000   1.0000   1.0000   1.0000   1.0000   1.0000
     1.0000   1.0000   1.0000   1.0000   1.0000   1.0000   1.0000   1.0000
     1.0000   1.0000   1.0000   1.0000   1.0000   1.0000   1.0000   1.0000
     1.0000   1.0000   1.0000   1.0000   1.0000   1.0000   1.0000   1.0000
     1.0000   1.0000   1.0000   1.0000   1.0000   1.0000   1.0000   1.0000
     1.0000   1.0000   1.0000   1.0000   1.0000   1.0000   1.0000   1.0000
     1.0000   1.0000   1.0000   1.0000   1.0000   1.0000   1.0000   1.0000
     1.0000   1.0000   1.0000   1.0000   1.0000   1.0000   1.0000   1.0000
     1.0000   1.0000   1.0000   1.0000   1.0000   1.0000   1.0000   1.0000
     1.0000   1.0000   1.0000   1.0000   1.0000   1.0000   1.0000   1.0000
     1.0000   1.0000   1.0000   1.0000   1.0000   1.0000   1.0000   1.0000
     1.0000   1.0000   1.0000   1.0000   1.0000   1.0000   1.0000   1.0000
     1.0000   1.0000   1.0000   1.0000   1.0000   1.0000   1.0000   1.0000
     1.0000   1.0000   1.0000   1.0000   1.0000   1.0000   1.0000   1.0000
     1.0000   1.0000   1.0000   1.0000   1.0000   1.0000   1.0000   1.0000
     1.0000   1.0000   1.0000   1.0000   1.0000   1.0000   1.0000   1.0000
     1.0000   1.0000   1.0000   1.0000   1.0000   1.0000   1.0000   1.0000
     1.0000   1.0000   1.0000   1.0000   1.0000   1.0000   1.0000   1.0000
     1.0000   1.0000   1.0000   1.0000   1.0000   1.0000   1.0000   1.0000
     1.0000   1.0000   1.0000   1.0000   1.0000   1.0000   1.0000   1.0000
     1.0000   1.0000   1.0000   1.0000   1.0000   1.0000   1.0000   1.0000
     1.0000   1.0000   1.0000   1.0000   1.0000   1.0000   1.0000   1.0000
     1.0000   1.0000   1.0000   1.0000   1.0000   1.0000   1.0000   1.0000
     1.0000   1.0000   1.0000   1.0000   1.0000   1.0000   1.0000   1.0000
     1.0000   1.0000   1.0000   1.0000   1.0000   1.0000   1.0000   1.0000
     1.0000   1.0000   1.0000   1.0000   1.0000   1.0000   1.0000   1.0000
     1.0000   1.0000   1.0000   1.0000   1.0000   1.0000   1.0000   1.0000
     1.0000   1.0000   1.0000   1.0000   1.0000   1.0000   1.0000   1.0000
     1.0000   1.0000   1.0000   1.0000   1.0000   1.0000   1.0000   1.0000
     1.0000   1.0000   1.0000   1.0000   1.0000   1.0000   1.0000   1.0000
     1.0000   1.0000   1.0000   1.0000   1.0000   1.0000   1.0000   1.0000
     1.0000   1.0000   1.0000   1.0000   1.0000   1.0000   1.0000   1.0000
     1.0000   1.0000   1.0000   1.0000   1.0000   1.0000   1.0000   1.0000
     1.0000   1.0000   1.0000   1.0000   1.0000   1.0000   1.0000   1.0000
     1.0000   1.0000   1.0000   1.0000   1.0000   1.0000   1.0000   1.0000
     1.0000   1.0000   1.0000   1.0000   1.0000   1.0000   1.0000   1.0000
     1.0000   1.0000   1.0000   1.0000   1.0000   1.0000   1.0000   1.0000
     1.0000   1.0000   1.0000   1.0000   1.0000   1.0000   1.0000   1.0000
     1.0000   1.0000   1.0000   1.0000   1.0000   1.0000   1.0000   1.0000
     1.0000   1.0000   1.0000   1.0000   1.0000   1.0000   1.0000   1.0000
     1.0000   1.0000   1.0000   1.0000   1.0000   1.0000   1.0000   1.0000
     1.0000   1.0000   1.0000   1.0000   1.0000   1.0000   1.0000   1.0000
     1.0000   1.0000   1.0000   1.0000   1.0000   1.0000   1.0000   1.0000
     1.0000   1.0000   1.0000   1.0000   1.0000   1.0000   1.0000   1.0000
     1.0000   1.0000   1.0000   1.0000   1.0000   1.0000   1.0000   1.0000
     1.0000   1.0000   1.0000   1.0000   1.0000   1.0000   1.0000   1.0000
     1.0000   1.0000   1.0000   1.0000   1.0000   1.0000   1.0000   1.0000
     1.0000   1.0000   1.0000   1.0000   1.0000   1.0000   1.0000   1.0000
     1.0000   1.0000   1.0000   1.0000   1.0000   1.0000   1.0000   1.0000
     1.0000   1.0000   1.0000   1.0000   1.0000   1.0000   1.0000   1.0000
     1.0000   1.0000   1.0000   1.0000   1.0000   1.0000   1.0000   1.0000
     1.0000   1.0000   1.0000   1.0000   1.0000   1.0000   1.0000   1.0000
     1.0000   1.0000   1.0000   1.0000   1.0000   1.0000   1.0000   1.0000
     1.0000   1.0000   1.0000   1.0000   1.0000   1.0000   1.0000   1.0000
     1.0000   1.0000   1.0000   1.0000   1.0000   1.0000   1.0000   1.0000
     1.0000   1.0000   1.0000   1.0000   1.0000   1.0000   1.0000   1.0000
     1.0000   1.0000   1.0000   1.0000   1.0000   1.0000   1.0000   1.0000
     1.0000   1.0000   1.0000   1.0000   1.0000   1.0351   0.0000   0.0000
     0.0000   0.0000   0.0000   0.0000   0.0000   0.0000   0.0000   0.0000
     0.0000   0.0000   0.0000   0.0000   0.0000   0.0000   0.0000   0.0000
     0.0000   0.0000   0.0000   0.0000   0.0000   0.0000   0.0000   0.0000
     0.0000   0.0000   0.0000   0.0000   0.0000   0.0000   0.0000   0.0000
     0.0000   0.0000   0.0000   0.0000   0.0000   0.0000   0.0000   0.0000
     0.0000   0.0000   0.0000   0.0000   0.0000   0.0000   0.0000   0.0000
     0.0000   0.0000   0.0000   0.0000   0.0000   0.0000   0.0000   0.0000
     0.0000   0.0000   0.0000   0.0000   0.0000   0.0000   0.0000   0.0000
     0.0000   0.0000   0.0000   0.0000   0.0000   0.0000   0.0000   0.0000

          k = 0.2500 0.4330 0.0000 ( 51293 PWs)   bands (ev):

    -6.2958  -6.1130  -6.0923  -6.0630  -6.0429  -5.9193  -5.9133  -5.9032
    -5.8728  -5.7730  -5.7609  -5.7234  -5.7189  -5.6885  -5.6794  -5.6748
    -5.6719  -5.6681  -5.6649  -5.6610  -5.6591  -5.6558  -5.6483  -5.6467
    -5.6357  -5.6304  -5.6174  -5.6125  -5.6096  -5.6036  -5.6009  -5.5979
    -5.5886  -5.5847  -5.5826  -5.5733  -5.5694  -5.5633  -5.5614  -5.5565
    -5.5533  -5.5454  -5.5443  -5.5439  -5.5421  -5.5416  -5.5381  -5.5351
    -5.5337  -5.5296  -5.5197  -5.4954  -5.4929  -4.2500  -4.1910  -4.1827
    -4.1795  -4.1763  -4.1750  -4.1733  -4.1719  -4.1672  -4.1648  -4.1627
    -4.1611  -4.1592  -4.1579  -4.1566  -4.1553  -4.1545  -4.1527  -4.1523
    -4.1513  -4.1496  -4.1474  -4.1464  -4.1445  -4.1422  -4.1404  -4.1396
    -4.1372  -4.1355  -4.1348  -4.1336  -4.1323  -4.1305  -4.1291  -4.1288
    -4.1279  -4.1263  -4.1256  -4.1251  -4.1238  -4.1230  -4.1205  -4.1199
    -4.1184  -4.1168  -4.1163  -4.1153  -4.1136  -4.1132  -4.1119  -4.1096
    -4.1071  -4.1061  -4.1056  -4.1050  -4.1035  -4.1019  -4.1018  -4.0991
    -4.0975  -4.0965  -4.0959  -4.0948  -4.0941  -4.0932  -4.0911  -4.0905
    -4.0897  -4.0888  -4.0865  -4.0841  -4.0826  -4.0800  -4.0788  -4.0758
    -4.0745  -4.0723  -4.0692  -4.0681  -4.0611  -4.0601  -4.0564  -4.0520
    -4.0513  -4.0470  -4.0417  -4.0408  -4.0399  -4.0386  -4.0346  -4.0304
    -4.0296  -4.0282  -4.0245  -4.0231  -4.0207  -4.0189  -4.0156  -4.0146
    -4.0144  -4.0128  -4.0119  -4.0116  -4.0101  -4.0092  -4.0087  -4.0059
    -4.0049  -4.0041  -4.0024  -4.0009  -4.0000  -3.9982  -3.9976  -3.9962
    -3.9954  -3.9916  -3.9895  -3.9874  -3.9862  -3.9848  -3.9839  -3.9832
    -3.9819  -3.9810  -3.9796  -3.9786  -3.9777  -3.9770  -3.9751  -3.9746
    -3.9736  -3.9728  -3.9713  -3.9704  -3.9699  -3.9692  -3.9684  -3.9669
    -3.9662  -3.9652  -3.9623  -3.9612  -3.9596  -3.9586  -3.9571  -3.9504
    -3.9492  -3.9475  -3.9465  -3.9464  -3.9445  -3.9393  -3.9391  -3.9368
    -3.9359  -3.9344  -3.9323  -3.9320  -3.9314  -3.9281  -3.9277  -3.9273
    -3.9238  -3.9231  -3.9210  -3.9205  -3.9191  -3.9173  -3.9162  -3.9152
    -3.9138  -3.9127  -3.9096  -3.9092  -3.9083  -3.9057  -3.9053  -3.9049
    -3.9034  -3.9029  -3.9018  -3.9008  -3.9002  -3.8994  -3.8983  -3.8962
    -3.8959  -3.8928  -3.8926  -3.8900  -3.8880  -3.8874  -3.8865  -3.8855
    -3.8843  -3.8819  -3.8811  -3.8777  -3.8751  -3.8725  -3.8713  -3.8685
    -3.8642  -3.8608  -3.8584  -3.8557  -3.8516  -3.8485  -3.8400  -3.8395
    -3.8208  -3.8015  -3.7894  -3.7736  -3.7688  -3.7518  -3.7457  -3.7381
    -3.7349  -3.7259  -3.7112  -3.7017  -3.6837  -3.6225  -3.6195  -3.3294
    -3.3140  -3.2283  -3.2187  -3.1254  -3.1222  -3.1102  -3.0852  -3.0275
    -3.0271  -3.0024  -2.9678  -2.8913  -2.7892  -2.7645  -2.7271  -2.7096
    -2.6629  -2.6590  -2.6469  -2.5996  -2.5608  -2.4964  -2.4897  -2.4880
    -2.4819  -2.4789  -2.4613  -2.4101  -2.3385  -2.3253  -2.3231  -2.3182
    -2.3053  -2.2841  -2.2484  -2.2449  -2.2309  -2.1480  -2.1190  -2.1019
    -2.0443  -2.0139  -1.9641  -0.1232   2.6707   2.7750   2.7830   2.7907
     2.8116   2.9068   2.9236   2.9956   3.0384   3.0568   3.0765   3.2260
     3.3025   3.3135   3.3544   3.3619   3.3653   3.3725   3.3908   3.4170
     3.5321   3.5405   3.5521   3.5645   3.5841   3.6220   3.6547   3.7738
     3.8058   4.1138   4.1157   4.1290   4.1310   4.1404   4.1565   4.1759
     4.2013   4.2093   4.2597   4.2675   4.2866   4.3006   4.4241   4.7216
     4.7498   5.1315   5.1479   5.1626   5.1707   5.2095   5.3522   5.4074
     5.5469   5.5776   5.6645   5.6858   5.7854   5.7995   5.8095   5.8658
     5.8775   5.9561   6.0024   6.1928   6.2083   6.2303   6.2418   6.2532
     6.2825   6.3125   6.3232   6.3301   6.3388   6.3588   6.3856   6.5097
     6.5181   6.5263   6.5402   6.5468   6.5595   6.5726   6.5930   6.6374
     6.6438   6.6597   6.6727   6.6946   6.7063   6.7303   6.8066   6.8581
     6.8644   6.9158   6.9403   6.9418   6.9568   7.0084   7.0325   7.0615
     7.0686   7.1937   7.2327   7.2418   7.2471   7.2524   7.2695   7.3236
     7.4161   7.4218   7.4311   7.4352   7.4373   7.4618   7.4783   7.4784
     7.5204   7.5661   7.5905   7.6441   7.6567   7.6977   7.7456   7.8021
     7.8048   7.8150   7.8587   7.8605   7.8685   7.8810   7.9080   7.9320
     7.9496   7.9659   8.0025   8.0489   8.0561   8.0740   8.0760   8.0825
     8.0921   8.1296   8.1490   8.1873   8.1948   8.2110   8.2991   8.3540
     8.3691   8.4023   8.4089   8.4943   8.5451   8.6309   8.7053   8.7216
     8.7301   8.8796   8.9113   8.9326   9.1920   9.2323  12.3152  13.1600
    13.2002  13.3849  13.4098  13.5847  13.5924  13.5980  13.6427  13.7845
    13.8009  13.8266  13.8953  14.2204  14.2528  14.3717  14.3794  14.3885
    14.4018  14.4322  14.4674  14.5020  14.5452  14.5552  14.5607  14.6247
    14.6780  14.7142  14.8014  14.8694  14.8851  14.9426  14.9488  14.9634
    15.0167  15.0233  15.1270  15.1368  15.1452  15.1660  15.2019  15.2081
    15.2168  15.2345  15.2498  15.2998  15.3151  15.3217  15.3424  15.3635
    15.4172  15.5621  15.6236  15.6603  15.6662  15.7546  15.9670  16.1162
    16.1673  16.4697  16.4858  16.4902  16.5015  16.5655  16.5720  16.5892
    16.6166  16.6600  16.6770  16.6806  16.7093  16.8267  16.8490  16.8854

     occupation numbers 
     1.0000   1.0000   1.0000   1.0000   1.0000   1.0000   1.0000   1.0000
     1.0000   1.0000   1.0000   1.0000   1.0000   1.0000   1.0000   1.0000
     1.0000   1.0000   1.0000   1.0000   1.0000   1.0000   1.0000   1.0000
     1.0000   1.0000   1.0000   1.0000   1.0000   1.0000   1.0000   1.0000
     1.0000   1.0000   1.0000   1.0000   1.0000   1.0000   1.0000   1.0000
     1.0000   1.0000   1.0000   1.0000   1.0000   1.0000   1.0000   1.0000
     1.0000   1.0000   1.0000   1.0000   1.0000   1.0000   1.0000   1.0000
     1.0000   1.0000   1.0000   1.0000   1.0000   1.0000   1.0000   1.0000
     1.0000   1.0000   1.0000   1.0000   1.0000   1.0000   1.0000   1.0000
     1.0000   1.0000   1.0000   1.0000   1.0000   1.0000   1.0000   1.0000
     1.0000   1.0000   1.0000   1.0000   1.0000   1.0000   1.0000   1.0000
     1.0000   1.0000   1.0000   1.0000   1.0000   1.0000   1.0000   1.0000
     1.0000   1.0000   1.0000   1.0000   1.0000   1.0000   1.0000   1.0000
     1.0000   1.0000   1.0000   1.0000   1.0000   1.0000   1.0000   1.0000
     1.0000   1.0000   1.0000   1.0000   1.0000   1.0000   1.0000   1.0000
     1.0000   1.0000   1.0000   1.0000   1.0000   1.0000   1.0000   1.0000
     1.0000   1.0000   1.0000   1.0000   1.0000   1.0000   1.0000   1.0000
     1.0000   1.0000   1.0000   1.0000   1.0000   1.0000   1.0000   1.0000
     1.0000   1.0000   1.0000   1.0000   1.0000   1.0000   1.0000   1.0000
     1.0000   1.0000   1.0000   1.0000   1.0000   1.0000   1.0000   1.0000
     1.0000   1.0000   1.0000   1.0000   1.0000   1.0000   1.0000   1.0000
     1.0000   1.0000   1.0000   1.0000   1.0000   1.0000   1.0000   1.0000
     1.0000   1.0000   1.0000   1.0000   1.0000   1.0000   1.0000   1.0000
     1.0000   1.0000   1.0000   1.0000   1.0000   1.0000   1.0000   1.0000
     1.0000   1.0000   1.0000   1.0000   1.0000   1.0000   1.0000   1.0000
     1.0000   1.0000   1.0000   1.0000   1.0000   1.0000   1.0000   1.0000
     1.0000   1.0000   1.0000   1.0000   1.0000   1.0000   1.0000   1.0000
     1.0000   1.0000   1.0000   1.0000   1.0000   1.0000   1.0000   1.0000
     1.0000   1.0000   1.0000   1.0000   1.0000   1.0000   1.0000   1.0000
     1.0000   1.0000   1.0000   1.0000   1.0000   1.0000   1.0000   1.0000
     1.0000   1.0000   1.0000   1.0000   1.0000   1.0000   1.0000   1.0000
     1.0000   1.0000   1.0000   1.0000   1.0000   1.0000   1.0000   1.0000
     1.0000   1.0000   1.0000   1.0000   1.0000   1.0000   1.0000   1.0000
     1.0000   1.0000   1.0000   1.0000   1.0000   1.0000   1.0000   1.0000
     1.0000   1.0000   1.0000   1.0000   1.0000   1.0000   1.0000   1.0000
     1.0000   1.0000   1.0000   1.0000   1.0000   1.0000   1.0000   1.0000
     1.0000   1.0000   1.0000   1.0000   1.0000   1.0000   1.0000   1.0000
     1.0000   1.0000   1.0000   1.0000   1.0000   1.0000   1.0000   1.0000
     1.0000   1.0000   1.0000   1.0000   1.0000   1.0000   1.0000   1.0000
     1.0000   1.0000   1.0000   1.0000   1.0000   1.0000   1.0000   1.0000
     1.0000   1.0000   1.0000   1.0000   1.0000   1.0000   1.0000   1.0000
     1.0000   1.0000   1.0000   1.0000   1.0000   1.0000   1.0000   1.0000
     1.0000   1.0000   1.0000   1.0000   1.0000   1.0000   1.0000   1.0000
     1.0000   1.0000   1.0000   1.0000   1.0000   1.0000   1.0000   1.0000
     1.0000   1.0000   1.0000   1.0000   1.0000   1.0000   1.0000   1.0000
     1.0000   1.0000   1.0000   1.0000   1.0000   1.0000   1.0000   1.0000
     1.0000   1.0000   1.0000   1.0000   1.0000   1.0000   1.0000   1.0000
     1.0000   1.0000   1.0000   1.0000   1.0000   1.0000   1.0000   1.0000
     1.0000   1.0000   1.0000   1.0000   1.0000   1.0000   1.0000   1.0000
     1.0000   1.0000   1.0000   1.0000   1.0000   1.0000   1.0000   1.0000
     1.0000   1.0000   1.0000   1.0000   1.0000   1.0000   1.0000   1.0000
     1.0000   1.0000   1.0000   1.0000   1.0000   1.0000   1.0000   1.0000
     1.0000   1.0000   1.0000   1.0000   1.0000   1.0000   1.0000   1.0000
     1.0000   1.0000   1.0000   1.0000   1.0000   1.0000   1.0000   1.0000
     1.0000   1.0000   1.0000   1.0000   1.0000   1.0000   1.0000   1.0000
     1.0000   1.0000   1.0000   1.0000   1.0000   1.0000   1.0000   1.0000
     1.0000   1.0000   1.0000   1.0000   1.0000   1.0000   1.0000   1.0000
     1.0000   1.0000   1.0000   1.0000   1.0000   1.0000   1.0000   1.0000
     1.0000   1.0000   1.0000   1.0000   1.0000   1.0000   1.0000   1.0000
     1.0000   1.0000   1.0000   1.0000   1.0000   1.0000   1.0000   1.0000
     1.0000   1.0000   1.0000   1.0000   1.0000   1.0649   0.0000   0.0000
     0.0000   0.0000   0.0000   0.0000   0.0000   0.0000   0.0000   0.0000
     0.0000   0.0000   0.0000   0.0000   0.0000   0.0000   0.0000   0.0000
     0.0000   0.0000   0.0000   0.0000   0.0000   0.0000   0.0000   0.0000
     0.0000   0.0000   0.0000   0.0000   0.0000   0.0000   0.0000   0.0000
     0.0000   0.0000   0.0000   0.0000   0.0000   0.0000   0.0000   0.0000
     0.0000   0.0000   0.0000   0.0000   0.0000   0.0000   0.0000   0.0000
     0.0000   0.0000   0.0000   0.0000   0.0000   0.0000   0.0000   0.0000
     0.0000   0.0000   0.0000   0.0000   0.0000   0.0000   0.0000   0.0000
     0.0000   0.0000   0.0000   0.0000   0.0000   0.0000   0.0000   0.0000

          k = 0.2500 0.4330 0.1533 ( 51293 PWs)   bands (ev):

    -6.2795  -6.1524  -6.0986  -6.0714  -5.9925  -5.9686  -5.9463  -5.8368
    -5.8130  -5.7813  -5.7654  -5.7536  -5.7110  -5.7033  -5.6993  -5.6864
    -5.6827  -5.6798  -5.6722  -5.6591  -5.6428  -5.6408  -5.6387  -5.6343
    -5.6315  -5.6298  -5.6272  -5.6190  -5.6105  -5.6034  -5.5992  -5.5895
    -5.5866  -5.5821  -5.5803  -5.5757  -5.5655  -5.5626  -5.5596  -5.5569
    -5.5533  -5.5464  -5.5451  -5.5443  -5.5432  -5.5415  -5.5387  -5.5357
    -5.5345  -5.5316  -5.5203  -5.4955  -5.4931  -4.2500  -4.1901  -4.1811
    -4.1796  -4.1770  -4.1742  -4.1729  -4.1680  -4.1669  -4.1641  -4.1621
    -4.1608  -4.1589  -4.1586  -4.1562  -4.1546  -4.1535  -4.1518  -4.1514
    -4.1502  -4.1492  -4.1478  -4.1471  -4.1450  -4.1443  -4.1434  -4.1426
    -4.1403  -4.1387  -4.1369  -4.1363  -4.1345  -4.1326  -4.1315  -4.1305
    -4.1292  -4.1277  -4.1261  -4.1248  -4.1234  -4.1224  -4.1210  -4.1202
    -4.1201  -4.1181  -4.1167  -4.1146  -4.1135  -4.1126  -4.1113  -4.1100
    -4.1098  -4.1081  -4.1069  -4.1061  -4.1041  -4.1029  -4.1017  -4.1010
    -4.0994  -4.0973  -4.0968  -4.0953  -4.0926  -4.0917  -4.0893  -4.0874
    -4.0851  -4.0834  -4.0814  -4.0789  -4.0774  -4.0758  -4.0742  -4.0724
    -4.0697  -4.0690  -4.0674  -4.0650  -4.0616  -4.0606  -4.0573  -4.0546
    -4.0532  -4.0490  -4.0457  -4.0420  -4.0400  -4.0372  -4.0357  -4.0315
    -4.0292  -4.0273  -4.0265  -4.0252  -4.0232  -4.0216  -4.0196  -4.0181
    -4.0167  -4.0144  -4.0134  -4.0127  -4.0107  -4.0096  -4.0088  -4.0059
    -4.0052  -4.0029  -4.0011  -4.0001  -3.9987  -3.9974  -3.9966  -3.9956
    -3.9938  -3.9931  -3.9913  -3.9892  -3.9881  -3.9860  -3.9855  -3.9834
    -3.9822  -3.9801  -3.9791  -3.9781  -3.9772  -3.9764  -3.9759  -3.9737
    -3.9729  -3.9717  -3.9712  -3.9696  -3.9690  -3.9673  -3.9666  -3.9648
    -3.9639  -3.9620  -3.9615  -3.9606  -3.9590  -3.9579  -3.9549  -3.9511
    -3.9495  -3.9483  -3.9465  -3.9449  -3.9434  -3.9418  -3.9399  -3.9374
    -3.9362  -3.9345  -3.9343  -3.9317  -3.9311  -3.9291  -3.9278  -3.9267
    -3.9252  -3.9232  -3.9209  -3.9199  -3.9192  -3.9186  -3.9165  -3.9150
    -3.9140  -3.9137  -3.9112  -3.9102  -3.9091  -3.9070  -3.9056  -3.9047
    -3.9038  -3.9026  -3.9011  -3.9005  -3.8990  -3.8987  -3.8983  -3.8967
    -3.8956  -3.8931  -3.8914  -3.8903  -3.8893  -3.8885  -3.8877  -3.8873
    -3.8841  -3.8828  -3.8807  -3.8771  -3.8754  -3.8733  -3.8708  -3.8688
    -3.8630  -3.8606  -3.8579  -3.8550  -3.8493  -3.8422  -3.8400  -3.8260
    -3.8210  -3.8138  -3.7986  -3.7786  -3.7742  -3.7610  -3.7496  -3.7411
    -3.7380  -3.7319  -3.7202  -3.6382  -3.6269  -3.6011  -3.5819  -3.4542
    -3.3174  -3.3035  -3.2605  -3.2352  -3.2112  -3.1742  -2.9964  -2.9893
    -2.9551  -2.8854  -2.7994  -2.7837  -2.7791  -2.7657  -2.7424  -2.7161
    -2.6894  -2.6684  -2.6507  -2.6141  -2.5879  -2.5680  -2.5577  -2.5352
    -2.4868  -2.4237  -2.4152  -2.3979  -2.3867  -2.3837  -2.3363  -2.3094
    -2.2946  -2.2664  -2.2390  -2.1950  -2.1607  -2.1363  -2.1295  -2.1119
    -2.0731  -2.0491  -1.9858  -0.1257   2.7813   2.8106   2.8198   2.8283
     2.8473   2.9232   2.9721   3.0089   3.0280   3.0851   3.1221   3.1287
     3.1423   3.1680   3.2000   3.3405   3.3615   3.4869   3.4989   3.5327
     3.5464   3.5637   3.5857   3.6013   3.6224   3.6301   3.6498   3.6802
     3.7074   3.7215   3.7814   3.9786   4.0392   4.0483   4.0899   4.1035
     4.1380   4.2511   4.4932   4.5129   4.5784   4.6316   4.7257   4.7393
     4.8225   5.1934   5.2096   5.2339   5.2747   5.3123   5.3809   5.4136
     5.4466   5.4627   5.4876   5.5128   5.7574   5.8675   5.8887   5.9082
     5.9473   5.9543   5.9611   5.9904   6.0057   6.0326   6.0827   6.1335
     6.1908   6.2093   6.2660   6.2799   6.2975   6.3242   6.3755   6.3817
     6.4303   6.4337   6.4625   6.4806   6.5265   6.5921   6.6246   6.6396
     6.6456   6.6641   6.6819   6.7133   6.8543   6.8743   6.9044   6.9844
     7.0014   7.0220   7.0325   7.0716   7.0791   7.1443   7.1522   7.1789
     7.1990   7.2213   7.2653   7.2760   7.2769   7.2923   7.3115   7.3472
     7.4078   7.4402   7.4605   7.4896   7.5035   7.5127   7.5264   7.5439
     7.5690   7.5846   7.5958   7.6160   7.6385   7.6763   7.7109   7.7389
     7.7699   7.8055   7.8081   7.8217   7.8385   7.8432   7.8539   7.8692
     7.8793   7.9096   7.9250   7.9414   7.9616   7.9906   8.0045   8.0245
     8.0451   8.0725   8.1174   8.1306   8.1534   8.2367   8.2921   8.3224
     8.3771   8.4464   8.5442   8.5750   8.6004   8.6422   8.6882   8.7072
     8.7704   8.8464   8.9265   8.9628   9.1662   9.2260  12.4036  12.9983
    13.1938  13.2383  13.5027  13.5539  13.6436  13.6668  13.7472  13.7601
    13.8295  14.1487  14.1921  14.2318  14.2432  14.2877  14.3540  14.3679
    14.4130  14.4226  14.4459  14.4751  14.4792  14.4866  14.4960  14.6073
    14.7089  14.7225  14.7368  14.7560  14.7726  14.7880  14.8559  14.8778
    14.8907  14.9037  14.9808  15.0299  15.0589  15.1015  15.1418  15.1655
    15.2034  15.2193  15.2448  15.2724  15.4451  15.5571  15.5821  15.6030
    15.6200  15.6371  15.6556  15.6951  15.7493  15.7829  15.9837  16.1450
    16.1893  16.3850  16.4192  16.5059  16.5223  16.5391  16.5672  16.6017
    16.6159  16.6286  16.7449  16.7632  16.7847  16.8122  16.8667  16.8719

     occupation numbers 
     1.0000   1.0000   1.0000   1.0000   1.0000   1.0000   1.0000   1.0000
     1.0000   1.0000   1.0000   1.0000   1.0000   1.0000   1.0000   1.0000
     1.0000   1.0000   1.0000   1.0000   1.0000   1.0000   1.0000   1.0000
     1.0000   1.0000   1.0000   1.0000   1.0000   1.0000   1.0000   1.0000
     1.0000   1.0000   1.0000   1.0000   1.0000   1.0000   1.0000   1.0000
     1.0000   1.0000   1.0000   1.0000   1.0000   1.0000   1.0000   1.0000
     1.0000   1.0000   1.0000   1.0000   1.0000   1.0000   1.0000   1.0000
     1.0000   1.0000   1.0000   1.0000   1.0000   1.0000   1.0000   1.0000
     1.0000   1.0000   1.0000   1.0000   1.0000   1.0000   1.0000   1.0000
     1.0000   1.0000   1.0000   1.0000   1.0000   1.0000   1.0000   1.0000
     1.0000   1.0000   1.0000   1.0000   1.0000   1.0000   1.0000   1.0000
     1.0000   1.0000   1.0000   1.0000   1.0000   1.0000   1.0000   1.0000
     1.0000   1.0000   1.0000   1.0000   1.0000   1.0000   1.0000   1.0000
     1.0000   1.0000   1.0000   1.0000   1.0000   1.0000   1.0000   1.0000
     1.0000   1.0000   1.0000   1.0000   1.0000   1.0000   1.0000   1.0000
     1.0000   1.0000   1.0000   1.0000   1.0000   1.0000   1.0000   1.0000
     1.0000   1.0000   1.0000   1.0000   1.0000   1.0000   1.0000   1.0000
     1.0000   1.0000   1.0000   1.0000   1.0000   1.0000   1.0000   1.0000
     1.0000   1.0000   1.0000   1.0000   1.0000   1.0000   1.0000   1.0000
     1.0000   1.0000   1.0000   1.0000   1.0000   1.0000   1.0000   1.0000
     1.0000   1.0000   1.0000   1.0000   1.0000   1.0000   1.0000   1.0000
     1.0000   1.0000   1.0000   1.0000   1.0000   1.0000   1.0000   1.0000
     1.0000   1.0000   1.0000   1.0000   1.0000   1.0000   1.0000   1.0000
     1.0000   1.0000   1.0000   1.0000   1.0000   1.0000   1.0000   1.0000
     1.0000   1.0000   1.0000   1.0000   1.0000   1.0000   1.0000   1.0000
     1.0000   1.0000   1.0000   1.0000   1.0000   1.0000   1.0000   1.0000
     1.0000   1.0000   1.0000   1.0000   1.0000   1.0000   1.0000   1.0000
     1.0000   1.0000   1.0000   1.0000   1.0000   1.0000   1.0000   1.0000
     1.0000   1.0000   1.0000   1.0000   1.0000   1.0000   1.0000   1.0000
     1.0000   1.0000   1.0000   1.0000   1.0000   1.0000   1.0000   1.0000
     1.0000   1.0000   1.0000   1.0000   1.0000   1.0000   1.0000   1.0000
     1.0000   1.0000   1.0000   1.0000   1.0000   1.0000   1.0000   1.0000
     1.0000   1.0000   1.0000   1.0000   1.0000   1.0000   1.0000   1.0000
     1.0000   1.0000   1.0000   1.0000   1.0000   1.0000   1.0000   1.0000
     1.0000   1.0000   1.0000   1.0000   1.0000   1.0000   1.0000   1.0000
     1.0000   1.0000   1.0000   1.0000   1.0000   1.0000   1.0000   1.0000
     1.0000   1.0000   1.0000   1.0000   1.0000   1.0000   1.0000   1.0000
     1.0000   1.0000   1.0000   1.0000   1.0000   1.0000   1.0000   1.0000
     1.0000   1.0000   1.0000   1.0000   1.0000   1.0000   1.0000   1.0000
     1.0000   1.0000   1.0000   1.0000   1.0000   1.0000   1.0000   1.0000
     1.0000   1.0000   1.0000   1.0000   1.0000   1.0000   1.0000   1.0000
     1.0000   1.0000   1.0000   1.0000   1.0000   1.0000   1.0000   1.0000
     1.0000   1.0000   1.0000   1.0000   1.0000   1.0000   1.0000   1.0000
     1.0000   1.0000   1.0000   1.0000   1.0000   1.0000   1.0000   1.0000
     1.0000   1.0000   1.0000   1.0000   1.0000   1.0000   1.0000   1.0000
     1.0000   1.0000   1.0000   1.0000   1.0000   1.0000   1.0000   1.0000
     1.0000   1.0000   1.0000   1.0000   1.0000   1.0000   1.0000   1.0000
     1.0000   1.0000   1.0000   1.0000   1.0000   1.0000   1.0000   1.0000
     1.0000   1.0000   1.0000   1.0000   1.0000   1.0000   1.0000   1.0000
     1.0000   1.0000   1.0000   1.0000   1.0000   1.0000   1.0000   1.0000
     1.0000   1.0000   1.0000   1.0000   1.0000   1.0000   1.0000   1.0000
     1.0000   1.0000   1.0000   1.0000   1.0000   1.0000   1.0000   1.0000
     1.0000   1.0000   1.0000   1.0000   1.0000   1.0000   1.0000   1.0000
     1.0000   1.0000   1.0000   1.0000   1.0000   1.0000   1.0000   1.0000
     1.0000   1.0000   1.0000   1.0000   1.0000   1.0000   1.0000   1.0000
     1.0000   1.0000   1.0000   1.0000   1.0000   1.0000   1.0000   1.0000
     1.0000   1.0000   1.0000   1.0000   1.0000   1.0000   1.0000   1.0000
     1.0000   1.0000   1.0000   1.0000   1.0000   1.0000   1.0000   1.0000
     1.0000   1.0000   1.0000   1.0000   1.0000   1.0000   1.0000   1.0000
     1.0000   1.0000   1.0000   1.0000   1.0000   1.0000   1.0000   1.0000
     1.0000   1.0000   1.0000   1.0000   1.0000   1.0286   0.0000   0.0000
     0.0000   0.0000   0.0000   0.0000   0.0000   0.0000   0.0000   0.0000
     0.0000   0.0000   0.0000   0.0000   0.0000   0.0000   0.0000   0.0000
     0.0000   0.0000   0.0000   0.0000   0.0000   0.0000   0.0000   0.0000
     0.0000   0.0000   0.0000   0.0000   0.0000   0.0000   0.0000   0.0000
     0.0000   0.0000   0.0000   0.0000   0.0000   0.0000   0.0000   0.0000
     0.0000   0.0000   0.0000   0.0000   0.0000   0.0000   0.0000   0.0000
     0.0000   0.0000   0.0000   0.0000   0.0000   0.0000   0.0000   0.0000
     0.0000   0.0000   0.0000   0.0000   0.0000   0.0000   0.0000   0.0000
     0.0000   0.0000   0.0000   0.0000   0.0000   0.0000   0.0000   0.0000

          k = 0.2500 0.4330-0.3067 ( 51274 PWs)   bands (ev):

    -6.2439  -6.2137  -6.0661  -6.0516  -6.0467  -6.0014  -5.8629  -5.8574
    -5.7651  -5.7637  -5.7522  -5.7491  -5.7443  -5.7412  -5.7327  -5.7120
    -5.6739  -5.6655  -5.6623  -5.6577  -5.6541  -5.6460  -5.6447  -5.6330
    -5.6256  -5.6215  -5.6139  -5.6102  -5.6084  -5.6041  -5.6016  -5.5953
    -5.5892  -5.5851  -5.5739  -5.5692  -5.5649  -5.5598  -5.5594  -5.5560
    -5.5515  -5.5489  -5.5463  -5.5456  -5.5440  -5.5403  -5.5392  -5.5370
    -5.5354  -5.5343  -5.5210  -5.4957  -5.4933  -4.2500  -4.1889  -4.1821
    -4.1799  -4.1736  -4.1728  -4.1706  -4.1669  -4.1641  -4.1634  -4.1616
    -4.1608  -4.1595  -4.1591  -4.1581  -4.1566  -4.1534  -4.1531  -4.1506
    -4.1503  -4.1485  -4.1472  -4.1472  -4.1465  -4.1453  -4.1448  -4.1432
    -4.1412  -4.1402  -4.1394  -4.1374  -4.1363  -4.1344  -4.1334  -4.1319
    -4.1310  -4.1291  -4.1269  -4.1257  -4.1249  -4.1231  -4.1218  -4.1207
    -4.1194  -4.1173  -4.1168  -4.1158  -4.1144  -4.1140  -4.1122  -4.1115
    -4.1105  -4.1094  -4.1081  -4.1065  -4.1047  -4.1036  -4.1032  -4.0998
    -4.0989  -4.0977  -4.0960  -4.0938  -4.0915  -4.0906  -4.0898  -4.0868
    -4.0815  -4.0800  -4.0789  -4.0763  -4.0750  -4.0742  -4.0708  -4.0679
    -4.0652  -4.0641  -4.0626  -4.0594  -4.0577  -4.0556  -4.0516  -4.0512
    -4.0501  -4.0486  -4.0468  -4.0450  -4.0442  -4.0430  -4.0407  -4.0374
    -4.0350  -4.0326  -4.0298  -4.0289  -4.0263  -4.0241  -4.0231  -4.0216
    -4.0181  -4.0170  -4.0153  -4.0126  -4.0106  -4.0090  -4.0087  -4.0060
    -4.0036  -4.0018  -4.0002  -3.9997  -3.9987  -3.9959  -3.9951  -3.9948
    -3.9926  -3.9909  -3.9901  -3.9887  -3.9875  -3.9868  -3.9846  -3.9839
    -3.9822  -3.9809  -3.9798  -3.9788  -3.9769  -3.9765  -3.9749  -3.9734
    -3.9730  -3.9717  -3.9704  -3.9692  -3.9682  -3.9672  -3.9654  -3.9643
    -3.9639  -3.9620  -3.9605  -3.9595  -3.9566  -3.9557  -3.9534  -3.9527
    -3.9497  -3.9481  -3.9462  -3.9450  -3.9422  -3.9404  -3.9398  -3.9385
    -3.9370  -3.9357  -3.9339  -3.9328  -3.9312  -3.9272  -3.9270  -3.9256
    -3.9243  -3.9236  -3.9211  -3.9197  -3.9185  -3.9172  -3.9166  -3.9160
    -3.9147  -3.9128  -3.9127  -3.9126  -3.9101  -3.9076  -3.9069  -3.9047
    -3.9042  -3.9029  -3.9015  -3.9002  -3.9001  -3.8979  -3.8975  -3.8962
    -3.8952  -3.8929  -3.8910  -3.8909  -3.8898  -3.8895  -3.8883  -3.8879
    -3.8842  -3.8836  -3.8810  -3.8768  -3.8754  -3.8735  -3.8701  -3.8686
    -3.8625  -3.8603  -3.8565  -3.8548  -3.8500  -3.8455  -3.8403  -3.8373
    -3.8357  -3.8211  -3.7862  -3.7785  -3.7694  -3.7552  -3.7464  -3.7384
    -3.7344  -3.7302  -3.6594  -3.6381  -3.6261  -3.6100  -3.4601  -3.4557
    -3.4386  -3.4156  -3.2899  -3.2844  -3.2658  -3.2245  -2.8681  -2.8508
    -2.8480  -2.8474  -2.8325  -2.8137  -2.7640  -2.7528  -2.7490  -2.7355
    -2.7245  -2.6795  -2.5676  -2.5542  -2.5517  -2.5452  -2.5332  -2.5242
    -2.5194  -2.5122  -2.5062  -2.4960  -2.4821  -2.4012  -2.3567  -2.2955
    -2.1849  -2.1742  -2.1713  -2.1630  -2.1591  -2.1526  -2.1460  -2.1420
    -2.1275  -2.0586  -2.0349  -0.1281   2.8920   2.8985   2.9073   2.9178
     2.9343   2.9366   2.9568   2.9795   3.0034   3.0240   3.0677   3.0908
     3.1092   3.1148   3.3307   3.3435   3.3655   3.3843   3.4221   3.4338
     3.4560   3.4747   3.4895   3.4975   3.5427   3.5628   3.8200   3.8358
     3.8367   3.8432   3.8724   3.8777   3.8884   3.9118   3.9345   3.9767
     4.1170   4.1815   4.6450   4.6491   4.6840   4.7300   5.0085   5.0174
     5.0392   5.1127   5.3005   5.3339   5.3563   5.3669   5.3887   5.4236
     5.4602   5.4688   5.4848   5.5088   5.5654   5.5757   5.5824   5.6442
     5.8218   5.8603   5.9924   6.0015   6.0685   6.0726   6.1120   6.1182
     6.1694   6.1829   6.1865   6.1958   6.2132   6.2216   6.2490   6.3107
     6.4466   6.4547   6.4577   6.4641   6.4709   6.5006   6.5393   6.5927
     6.6994   6.7050   6.7262   6.7823   6.9252   6.9336   6.9365   6.9708
     7.0429   7.0876   7.1229   7.1451   7.1602   7.1907   7.3483   7.3760
     7.3827   7.3903   7.3916   7.4040   7.4129   7.4206   7.4456   7.4593
     7.4635   7.4869   7.4976   7.5020   7.5050   7.5077   7.5238   7.5413
     7.5462   7.5733   7.5911   7.5951   7.6145   7.6308   7.6389   7.6523
     7.6620   7.6701   7.6764   7.6889   7.6928   7.7211   7.7895   7.8491
     7.8874   7.9039   7.9092   7.9250   7.9411   7.9633   7.9817   7.9922
     8.0110   8.0214   8.0577   8.0673   8.0685   8.1940   8.2789   8.2938
     8.4096   8.4956   8.6041   8.6153   8.6338   8.6697   8.6777   8.7688
     8.7754   8.7907   8.9404   9.0009   9.1287   9.2194  12.6216  12.6769
    13.2942  13.3095  13.3131  13.4012  13.8817  13.8873  13.8908  13.9247
    14.0630  14.0682  14.0785  14.0878  14.1311  14.1840  14.4446  14.4772
    14.4910  14.4990  14.5197  14.5331  14.5372  14.5431  14.5560  14.5611
    14.5731  14.5817  14.5970  14.6601  14.7145  14.7273  14.7430  14.7553
    14.7592  14.7856  14.7907  14.9410  14.9813  15.0910  15.1595  15.1706
    15.2173  15.2202  15.2623  15.3299  15.3852  15.5476  15.6494  15.6778
    15.7085  15.7240  15.7679  15.8660  16.0906  16.1214  16.1408  16.1435
    16.1542  16.2009  16.2352  16.2388  16.2546  16.3807  16.6695  16.6830
    16.6887  16.7207  16.7688  16.7782  16.7845  16.8001  16.9292  16.9454

     occupation numbers 
     1.0000   1.0000   1.0000   1.0000   1.0000   1.0000   1.0000   1.0000
     1.0000   1.0000   1.0000   1.0000   1.0000   1.0000   1.0000   1.0000
     1.0000   1.0000   1.0000   1.0000   1.0000   1.0000   1.0000   1.0000
     1.0000   1.0000   1.0000   1.0000   1.0000   1.0000   1.0000   1.0000
     1.0000   1.0000   1.0000   1.0000   1.0000   1.0000   1.0000   1.0000
     1.0000   1.0000   1.0000   1.0000   1.0000   1.0000   1.0000   1.0000
     1.0000   1.0000   1.0000   1.0000   1.0000   1.0000   1.0000   1.0000
     1.0000   1.0000   1.0000   1.0000   1.0000   1.0000   1.0000   1.0000
     1.0000   1.0000   1.0000   1.0000   1.0000   1.0000   1.0000   1.0000
     1.0000   1.0000   1.0000   1.0000   1.0000   1.0000   1.0000   1.0000
     1.0000   1.0000   1.0000   1.0000   1.0000   1.0000   1.0000   1.0000
     1.0000   1.0000   1.0000   1.0000   1.0000   1.0000   1.0000   1.0000
     1.0000   1.0000   1.0000   1.0000   1.0000   1.0000   1.0000   1.0000
     1.0000   1.0000   1.0000   1.0000   1.0000   1.0000   1.0000   1.0000
     1.0000   1.0000   1.0000   1.0000   1.0000   1.0000   1.0000   1.0000
     1.0000   1.0000   1.0000   1.0000   1.0000   1.0000   1.0000   1.0000
     1.0000   1.0000   1.0000   1.0000   1.0000   1.0000   1.0000   1.0000
     1.0000   1.0000   1.0000   1.0000   1.0000   1.0000   1.0000   1.0000
     1.0000   1.0000   1.0000   1.0000   1.0000   1.0000   1.0000   1.0000
     1.0000   1.0000   1.0000   1.0000   1.0000   1.0000   1.0000   1.0000
     1.0000   1.0000   1.0000   1.0000   1.0000   1.0000   1.0000   1.0000
     1.0000   1.0000   1.0000   1.0000   1.0000   1.0000   1.0000   1.0000
     1.0000   1.0000   1.0000   1.0000   1.0000   1.0000   1.0000   1.0000
     1.0000   1.0000   1.0000   1.0000   1.0000   1.0000   1.0000   1.0000
     1.0000   1.0000   1.0000   1.0000   1.0000   1.0000   1.0000   1.0000
     1.0000   1.0000   1.0000   1.0000   1.0000   1.0000   1.0000   1.0000
     1.0000   1.0000   1.0000   1.0000   1.0000   1.0000   1.0000   1.0000
     1.0000   1.0000   1.0000   1.0000   1.0000   1.0000   1.0000   1.0000
     1.0000   1.0000   1.0000   1.0000   1.0000   1.0000   1.0000   1.0000
     1.0000   1.0000   1.0000   1.0000   1.0000   1.0000   1.0000   1.0000
     1.0000   1.0000   1.0000   1.0000   1.0000   1.0000   1.0000   1.0000
     1.0000   1.0000   1.0000   1.0000   1.0000   1.0000   1.0000   1.0000
     1.0000   1.0000   1.0000   1.0000   1.0000   1.0000   1.0000   1.0000
     1.0000   1.0000   1.0000   1.0000   1.0000   1.0000   1.0000   1.0000
     1.0000   1.0000   1.0000   1.0000   1.0000   1.0000   1.0000   1.0000
     1.0000   1.0000   1.0000   1.0000   1.0000   1.0000   1.0000   1.0000
     1.0000   1.0000   1.0000   1.0000   1.0000   1.0000   1.0000   1.0000
     1.0000   1.0000   1.0000   1.0000   1.0000   1.0000   1.0000   1.0000
     1.0000   1.0000   1.0000   1.0000   1.0000   1.0000   1.0000   1.0000
     1.0000   1.0000   1.0000   1.0000   1.0000   1.0000   1.0000   1.0000
     1.0000   1.0000   1.0000   1.0000   1.0000   1.0000   1.0000   1.0000
     1.0000   1.0000   1.0000   1.0000   1.0000   1.0000   1.0000   1.0000
     1.0000   1.0000   1.0000   1.0000   1.0000   1.0000   1.0000   1.0000
     1.0000   1.0000   1.0000   1.0000   1.0000   1.0000   1.0000   1.0000
     1.0000   1.0000   1.0000   1.0000   1.0000   1.0000   1.0000   1.0000
     1.0000   1.0000   1.0000   1.0000   1.0000   1.0000   1.0000   1.0000
     1.0000   1.0000   1.0000   1.0000   1.0000   1.0000   1.0000   1.0000
     1.0000   1.0000   1.0000   1.0000   1.0000   1.0000   1.0000   1.0000
     1.0000   1.0000   1.0000   1.0000   1.0000   1.0000   1.0000   1.0000
     1.0000   1.0000   1.0000   1.0000   1.0000   1.0000   1.0000   1.0000
     1.0000   1.0000   1.0000   1.0000   1.0000   1.0000   1.0000   1.0000
     1.0000   1.0000   1.0000   1.0000   1.0000   1.0000   1.0000   1.0000
     1.0000   1.0000   1.0000   1.0000   1.0000   1.0000   1.0000   1.0000
     1.0000   1.0000   1.0000   1.0000   1.0000   1.0000   1.0000   1.0000
     1.0000   1.0000   1.0000   1.0000   1.0000   1.0000   1.0000   1.0000
     1.0000   1.0000   1.0000   1.0000   1.0000   1.0000   1.0000   1.0000
     1.0000   1.0000   1.0000   1.0000   1.0000   1.0000   1.0000   1.0000
     1.0000   1.0000   1.0000   1.0000   1.0000   1.0000   1.0000   1.0000
     1.0000   1.0000   1.0000   1.0000   1.0000   1.0000   1.0000   1.0000
     1.0000   1.0000   1.0000   1.0000   1.0000   1.0000   1.0000   1.0000
     1.0000   1.0000   1.0000   1.0000   1.0000   1.0000   0.0000   0.0000
     0.0000   0.0000   0.0000   0.0000   0.0000   0.0000   0.0000   0.0000
     0.0000   0.0000   0.0000   0.0000   0.0000   0.0000   0.0000   0.0000
     0.0000   0.0000   0.0000   0.0000   0.0000   0.0000   0.0000   0.0000
     0.0000   0.0000   0.0000   0.0000   0.0000   0.0000   0.0000   0.0000
     0.0000   0.0000   0.0000   0.0000   0.0000   0.0000   0.0000   0.0000
     0.0000   0.0000   0.0000   0.0000   0.0000   0.0000   0.0000   0.0000
     0.0000   0.0000   0.0000   0.0000   0.0000   0.0000   0.0000   0.0000
     0.0000   0.0000   0.0000   0.0000   0.0000   0.0000   0.0000   0.0000
     0.0000   0.0000   0.0000   0.0000   0.0000   0.0000   0.0000   0.0000

          k = 0.2500 0.5774 0.0000 ( 51248 PWs)   bands (ev):

    -6.2175  -6.1929  -6.1074  -5.9998  -5.9933  -5.9845  -5.9640  -5.9168
    -5.8897  -5.7697  -5.7170  -5.7113  -5.6982  -5.6941  -5.6878  -5.6839
    -5.6725  -5.6718  -5.6663  -5.6618  -5.6582  -5.6553  -5.6487  -5.6347
    -5.6330  -5.6280  -5.6216  -5.6209  -5.6130  -5.6055  -5.6008  -5.5972
    -5.5948  -5.5913  -5.5885  -5.5743  -5.5675  -5.5601  -5.5590  -5.5570
    -5.5497  -5.5452  -5.5443  -5.5429  -5.5411  -5.5406  -5.5381  -5.5356
    -5.5331  -5.5307  -5.5194  -5.4955  -5.4925  -4.2495  -4.1837  -4.1790
    -4.1778  -4.1750  -4.1731  -4.1695  -4.1685  -4.1674  -4.1666  -4.1639
    -4.1616  -4.1594  -4.1579  -4.1572  -4.1543  -4.1540  -4.1531  -4.1517
    -4.1508  -4.1488  -4.1483  -4.1471  -4.1453  -4.1431  -4.1424  -4.1390
    -4.1385  -4.1359  -4.1338  -4.1333  -4.1308  -4.1299  -4.1287  -4.1273
    -4.1260  -4.1258  -4.1246  -4.1237  -4.1223  -4.1209  -4.1192  -4.1182
    -4.1174  -4.1159  -4.1153  -4.1135  -4.1131  -4.1116  -4.1108  -4.1102
    -4.1091  -4.1069  -4.1062  -4.1059  -4.1043  -4.1034  -4.1016  -4.1007
    -4.0997  -4.0986  -4.0967  -4.0961  -4.0951  -4.0933  -4.0923  -4.0922
    -4.0906  -4.0892  -4.0881  -4.0850  -4.0822  -4.0813  -4.0797  -4.0778
    -4.0748  -4.0731  -4.0694  -4.0662  -4.0623  -4.0610  -4.0550  -4.0523
    -4.0503  -4.0472  -4.0434  -4.0417  -4.0401  -4.0367  -4.0360  -4.0321
    -4.0302  -4.0274  -4.0269  -4.0239  -4.0232  -4.0214  -4.0204  -4.0178
    -4.0160  -4.0148  -4.0132  -4.0128  -4.0121  -4.0112  -4.0100  -4.0091
    -4.0061  -4.0050  -4.0025  -4.0018  -4.0014  -3.9999  -3.9987  -3.9978
    -3.9969  -3.9962  -3.9905  -3.9883  -3.9880  -3.9865  -3.9844  -3.9840
    -3.9823  -3.9808  -3.9799  -3.9785  -3.9780  -3.9763  -3.9756  -3.9751
    -3.9733  -3.9725  -3.9718  -3.9707  -3.9698  -3.9692  -3.9679  -3.9659
    -3.9658  -3.9644  -3.9633  -3.9617  -3.9610  -3.9596  -3.9553  -3.9519
    -3.9498  -3.9484  -3.9483  -3.9472  -3.9454  -3.9401  -3.9379  -3.9379
    -3.9346  -3.9338  -3.9315  -3.9310  -3.9306  -3.9293  -3.9269  -3.9263
    -3.9232  -3.9213  -3.9202  -3.9191  -3.9183  -3.9169  -3.9159  -3.9146
    -3.9140  -3.9122  -3.9094  -3.9082  -3.9075  -3.9073  -3.9063  -3.9057
    -3.9038  -3.9033  -3.9012  -3.9005  -3.8994  -3.8989  -3.8974  -3.8952
    -3.8942  -3.8935  -3.8927  -3.8911  -3.8879  -3.8873  -3.8867  -3.8852
    -3.8844  -3.8811  -3.8781  -3.8775  -3.8743  -3.8732  -3.8703  -3.8665
    -3.8645  -3.8599  -3.8544  -3.8495  -3.8453  -3.8405  -3.8387  -3.8294
    -3.8196  -3.8162  -3.8010  -3.7911  -3.7751  -3.7685  -3.7523  -3.7450
    -3.7432  -3.7339  -3.7279  -3.7151  -3.6978  -3.6235  -3.6204  -3.3329
    -3.1445  -3.1433  -3.1377  -3.1328  -3.1261  -3.1222  -3.1132  -3.0801
    -3.0265  -3.0072  -2.9304  -2.9262  -2.9158  -2.8637  -2.6825  -2.6605
    -2.6472  -2.5837  -2.5760  -2.5575  -2.5562  -2.5455  -2.5165  -2.4837
    -2.4601  -2.4268  -2.4033  -2.3647  -2.3635  -2.3523  -2.3514  -2.3271
    -2.3097  -2.3009  -2.2817  -2.2798  -2.2628  -2.1771  -2.1395  -2.1152
    -2.0369  -1.9909  -1.9673  -0.1225   2.7222   2.7365   2.8057   2.8092
     2.8173   2.8202   2.8447   2.8534   3.0024   3.0221   3.1156   3.1207
     3.2740   3.2877   3.3354   3.3370   3.3513   3.3682   3.4019   3.4270
     3.4326   3.4558   3.5808   3.5978   3.6032   3.6400   3.6569   3.9948
     4.0071   4.0115   4.0349   4.1083   4.1328   4.1344   4.1398   4.1406
     4.1503   4.1600   4.2249   4.2624   4.3211   4.3947   4.5141   4.5739
     4.8711   5.0528   5.1403   5.1549   5.2241   5.2308   5.2777   5.7906
     5.7975   5.8552   5.8880   5.9084   5.9174   5.9265   5.9625   6.0251
     6.0323   6.0411   6.0420   6.0535   6.0942   6.1288   6.1673   6.1986
     6.2144   6.2233   6.2697   6.2959   6.3106   6.3230   6.3434   6.3767
     6.4554   6.4668   6.5292   6.5377   6.5726   6.5837   6.5880   6.6161
     6.6337   6.7190   6.7497   6.9139   6.9248   6.9277   6.9340   6.9416
     6.9517   6.9528   6.9627   6.9781   6.9909   7.0191   7.0362   7.0519
     7.0592   7.0808   7.0868   7.0915   7.0974   7.1052   7.1355   7.1526
     7.1739   7.1882   7.1970   7.2983   7.4144   7.4354   7.5082   7.5422
     7.5834   7.6166   7.6623   7.6715   7.7022   7.7468   7.7613   7.7891
     7.8207   7.8237   7.8295   7.8313   7.8323   7.8387   7.8586   7.8752
     7.8788   7.8944   7.9533   7.9684   7.9840   8.0209   8.0247   8.0485
     8.0626   8.0774   8.1687   8.1851   8.2753   8.2782   8.3093   8.3205
     8.3316   8.3415   8.4962   8.5290   8.5362   8.5573   8.6030   8.7376
     8.7904   8.8274   8.8893   8.9653   9.1612   9.1682  12.7275  12.7689
    13.1641  13.5700  13.5753  13.5989  13.6190  13.6403  13.6941  13.8356
    13.8402  13.8698  13.8837  13.8850  14.0015  14.5129  14.5187  14.5377
    14.5643  14.6622  14.6693  14.6843  14.7059  14.7181  14.8173  14.8233
    14.8347  14.8376  14.8548  14.8658  14.8963  14.9019  14.9129  14.9144
    14.9383  15.0132  15.0195  15.0897  15.1628  15.1800  15.1815  15.1930
    15.2098  15.2458  15.2608  15.2737  15.2763  15.2903  15.2973  15.3007
    15.3116  15.3219  15.3640  15.3938  15.4357  15.6542  15.8946  16.5040
    16.5160  16.5460  16.5541  16.5952  16.6938  16.7001  16.7079  16.7173
    16.7235  16.7347  16.7377  16.7393  16.7472  16.7692  16.7889  16.8315

     occupation numbers 
     1.0000   1.0000   1.0000   1.0000   1.0000   1.0000   1.0000   1.0000
     1.0000   1.0000   1.0000   1.0000   1.0000   1.0000   1.0000   1.0000
     1.0000   1.0000   1.0000   1.0000   1.0000   1.0000   1.0000   1.0000
     1.0000   1.0000   1.0000   1.0000   1.0000   1.0000   1.0000   1.0000
     1.0000   1.0000   1.0000   1.0000   1.0000   1.0000   1.0000   1.0000
     1.0000   1.0000   1.0000   1.0000   1.0000   1.0000   1.0000   1.0000
     1.0000   1.0000   1.0000   1.0000   1.0000   1.0000   1.0000   1.0000
     1.0000   1.0000   1.0000   1.0000   1.0000   1.0000   1.0000   1.0000
     1.0000   1.0000   1.0000   1.0000   1.0000   1.0000   1.0000   1.0000
     1.0000   1.0000   1.0000   1.0000   1.0000   1.0000   1.0000   1.0000
     1.0000   1.0000   1.0000   1.0000   1.0000   1.0000   1.0000   1.0000
     1.0000   1.0000   1.0000   1.0000   1.0000   1.0000   1.0000   1.0000
     1.0000   1.0000   1.0000   1.0000   1.0000   1.0000   1.0000   1.0000
     1.0000   1.0000   1.0000   1.0000   1.0000   1.0000   1.0000   1.0000
     1.0000   1.0000   1.0000   1.0000   1.0000   1.0000   1.0000   1.0000
     1.0000   1.0000   1.0000   1.0000   1.0000   1.0000   1.0000   1.0000
     1.0000   1.0000   1.0000   1.0000   1.0000   1.0000   1.0000   1.0000
     1.0000   1.0000   1.0000   1.0000   1.0000   1.0000   1.0000   1.0000
     1.0000   1.0000   1.0000   1.0000   1.0000   1.0000   1.0000   1.0000
     1.0000   1.0000   1.0000   1.0000   1.0000   1.0000   1.0000   1.0000
     1.0000   1.0000   1.0000   1.0000   1.0000   1.0000   1.0000   1.0000
     1.0000   1.0000   1.0000   1.0000   1.0000   1.0000   1.0000   1.0000
     1.0000   1.0000   1.0000   1.0000   1.0000   1.0000   1.0000   1.0000
     1.0000   1.0000   1.0000   1.0000   1.0000   1.0000   1.0000   1.0000
     1.0000   1.0000   1.0000   1.0000   1.0000   1.0000   1.0000   1.0000
     1.0000   1.0000   1.0000   1.0000   1.0000   1.0000   1.0000   1.0000
     1.0000   1.0000   1.0000   1.0000   1.0000   1.0000   1.0000   1.0000
     1.0000   1.0000   1.0000   1.0000   1.0000   1.0000   1.0000   1.0000
     1.0000   1.0000   1.0000   1.0000   1.0000   1.0000   1.0000   1.0000
     1.0000   1.0000   1.0000   1.0000   1.0000   1.0000   1.0000   1.0000
     1.0000   1.0000   1.0000   1.0000   1.0000   1.0000   1.0000   1.0000
     1.0000   1.0000   1.0000   1.0000   1.0000   1.0000   1.0000   1.0000
     1.0000   1.0000   1.0000   1.0000   1.0000   1.0000   1.0000   1.0000
     1.0000   1.0000   1.0000   1.0000   1.0000   1.0000   1.0000   1.0000
     1.0000   1.0000   1.0000   1.0000   1.0000   1.0000   1.0000   1.0000
     1.0000   1.0000   1.0000   1.0000   1.0000   1.0000   1.0000   1.0000
     1.0000   1.0000   1.0000   1.0000   1.0000   1.0000   1.0000   1.0000
     1.0000   1.0000   1.0000   1.0000   1.0000   1.0000   1.0000   1.0000
     1.0000   1.0000   1.0000   1.0000   1.0000   1.0000   1.0000   1.0000
     1.0000   1.0000   1.0000   1.0000   1.0000   1.0000   1.0000   1.0000
     1.0000   1.0000   1.0000   1.0000   1.0000   1.0000   1.0000   1.0000
     1.0000   1.0000   1.0000   1.0000   1.0000   1.0000   1.0000   1.0000
     1.0000   1.0000   1.0000   1.0000   1.0000   1.0000   1.0000   1.0000
     1.0000   1.0000   1.0000   1.0000   1.0000   1.0000   1.0000   1.0000
     1.0000   1.0000   1.0000   1.0000   1.0000   1.0000   1.0000   1.0000
     1.0000   1.0000   1.0000   1.0000   1.0000   1.0000   1.0000   1.0000
     1.0000   1.0000   1.0000   1.0000   1.0000   1.0000   1.0000   1.0000
     1.0000   1.0000   1.0000   1.0000   1.0000   1.0000   1.0000   1.0000
     1.0000   1.0000   1.0000   1.0000   1.0000   1.0000   1.0000   1.0000
     1.0000   1.0000   1.0000   1.0000   1.0000   1.0000   1.0000   1.0000
     1.0000   1.0000   1.0000   1.0000   1.0000   1.0000   1.0000   1.0000
     1.0000   1.0000   1.0000   1.0000   1.0000   1.0000   1.0000   1.0000
     1.0000   1.0000   1.0000   1.0000   1.0000   1.0000   1.0000   1.0000
     1.0000   1.0000   1.0000   1.0000   1.0000   1.0000   1.0000   1.0000
     1.0000   1.0000   1.0000   1.0000   1.0000   1.0000   1.0000   1.0000
     1.0000   1.0000   1.0000   1.0000   1.0000   1.0000   1.0000   1.0000
     1.0000   1.0000   1.0000   1.0000   1.0000   1.0000   1.0000   1.0000
     1.0000   1.0000   1.0000   1.0000   1.0000   1.0000   1.0000   1.0000
     1.0000   1.0000   1.0000   1.0000   1.0000   1.0000   1.0000   1.0000
     1.0000   1.0000   1.0000   1.0000   1.0000   1.0000   1.0000   1.0000
     1.0000   1.0000   1.0000   1.0000   1.0000   1.0000   0.0000   0.0000
     0.0000   0.0000   0.0000   0.0000   0.0000   0.0000   0.0000   0.0000
     0.0000   0.0000   0.0000   0.0000   0.0000   0.0000   0.0000   0.0000
     0.0000   0.0000   0.0000   0.0000   0.0000   0.0000   0.0000   0.0000
     0.0000   0.0000   0.0000   0.0000   0.0000   0.0000   0.0000   0.0000
     0.0000   0.0000   0.0000   0.0000   0.0000   0.0000   0.0000   0.0000
     0.0000   0.0000   0.0000   0.0000   0.0000   0.0000   0.0000   0.0000
     0.0000   0.0000   0.0000   0.0000   0.0000   0.0000   0.0000   0.0000
     0.0000   0.0000   0.0000   0.0000   0.0000   0.0000   0.0000   0.0000
     0.0000   0.0000   0.0000   0.0000   0.0000   0.0000   0.0000   0.0000

          k = 0.2500 0.5774 0.1533 ( 51267 PWs)   bands (ev):

    -6.2018  -6.1787  -6.0978  -6.0829  -6.0527  -5.9804  -5.9046  -5.8831
    -5.8262  -5.7629  -5.7484  -5.7347  -5.7122  -5.7071  -5.7035  -5.6954
    -5.6703  -5.6645  -5.6614  -5.6585  -5.6555  -5.6518  -5.6488  -5.6316
    -5.6298  -5.6265  -5.6232  -5.6173  -5.6128  -5.6072  -5.6018  -5.5983
    -5.5904  -5.5815  -5.5795  -5.5704  -5.5657  -5.5622  -5.5606  -5.5570
    -5.5510  -5.5467  -5.5448  -5.5440  -5.5423  -5.5409  -5.5379  -5.5356
    -5.5348  -5.5327  -5.5200  -5.4956  -5.4928  -4.2495  -4.1834  -4.1781
    -4.1774  -4.1731  -4.1717  -4.1708  -4.1693  -4.1669  -4.1660  -4.1618
    -4.1608  -4.1581  -4.1570  -4.1567  -4.1547  -4.1530  -4.1524  -4.1503
    -4.1498  -4.1489  -4.1474  -4.1467  -4.1452  -4.1445  -4.1425  -4.1420
    -4.1400  -4.1392  -4.1385  -4.1377  -4.1352  -4.1332  -4.1312  -4.1292
    -4.1277  -4.1261  -4.1249  -4.1237  -4.1229  -4.1206  -4.1199  -4.1188
    -4.1175  -4.1168  -4.1159  -4.1149  -4.1138  -4.1132  -4.1114  -4.1104
    -4.1098  -4.1080  -4.1073  -4.1069  -4.1053  -4.1049  -4.1026  -4.1008
    -4.1005  -4.0996  -4.0979  -4.0957  -4.0941  -4.0938  -4.0908  -4.0897
    -4.0874  -4.0836  -4.0830  -4.0812  -4.0762  -4.0750  -4.0734  -4.0709
    -4.0703  -4.0680  -4.0645  -4.0626  -4.0616  -4.0594  -4.0565  -4.0536
    -4.0491  -4.0466  -4.0447  -4.0419  -4.0412  -4.0400  -4.0375  -4.0349
    -4.0323  -4.0310  -4.0291  -4.0260  -4.0249  -4.0239  -4.0223  -4.0206
    -4.0190  -4.0173  -4.0162  -4.0143  -4.0136  -4.0113  -4.0103  -4.0085
    -4.0070  -4.0056  -4.0025  -4.0007  -3.9991  -3.9978  -3.9964  -3.9957
    -3.9947  -3.9936  -3.9923  -3.9911  -3.9892  -3.9874  -3.9860  -3.9839
    -3.9819  -3.9812  -3.9805  -3.9801  -3.9779  -3.9768  -3.9762  -3.9746
    -3.9743  -3.9727  -3.9722  -3.9701  -3.9690  -3.9678  -3.9668  -3.9653
    -3.9643  -3.9625  -3.9619  -3.9602  -3.9592  -3.9579  -3.9545  -3.9515
    -3.9504  -3.9472  -3.9460  -3.9450  -3.9428  -3.9410  -3.9389  -3.9364
    -3.9350  -3.9347  -3.9333  -3.9313  -3.9305  -3.9287  -3.9276  -3.9263
    -3.9251  -3.9231  -3.9216  -3.9198  -3.9192  -3.9181  -3.9168  -3.9164
    -3.9148  -3.9141  -3.9118  -3.9112  -3.9102  -3.9072  -3.9070  -3.9054
    -3.9043  -3.9032  -3.9007  -3.9002  -3.8993  -3.8980  -3.8967  -3.8953
    -3.8941  -3.8938  -3.8924  -3.8907  -3.8888  -3.8883  -3.8874  -3.8864
    -3.8847  -3.8813  -3.8796  -3.8785  -3.8747  -3.8735  -3.8711  -3.8677
    -3.8662  -3.8642  -3.8592  -3.8556  -3.8537  -3.8494  -3.8408  -3.8391
    -3.8223  -3.8195  -3.7908  -3.7784  -3.7711  -3.7588  -3.7473  -3.7390
    -3.7374  -3.7306  -3.7043  -3.6873  -3.6305  -3.6210  -3.5993  -3.3754
    -3.3524  -3.3203  -3.2531  -3.2091  -3.1127  -3.0963  -3.0136  -3.0065
    -2.9756  -2.8932  -2.8655  -2.8118  -2.8044  -2.7580  -2.6779  -2.6722
    -2.6545  -2.6437  -2.6212  -2.5966  -2.5741  -2.5305  -2.5148  -2.5106
    -2.4914  -2.4870  -2.4760  -2.4406  -2.3917  -2.3727  -2.3468  -2.3183
    -2.2846  -2.2466  -2.2176  -2.2098  -2.2003  -2.1778  -2.1463  -2.1255
    -2.0663  -2.0196  -1.9963  -0.1250   2.7566   2.7738   2.8401   2.8447
     2.8663   2.8808   2.9116   2.9501   2.9754   3.0428   3.0674   3.0785
     3.0959   3.1262   3.1410   3.4058   3.4221   3.4809   3.4952   3.5371
     3.5445   3.5550   3.5721   3.6000   3.6167   3.6246   3.6334   3.6695
     3.7384   3.7532   3.8051   3.8471   4.0298   4.0599   4.0772   4.1346
     4.2162   4.2442   4.4836   4.5063   4.5517   4.6218   4.6865   4.7700
     4.8609   5.1739   5.2659   5.2791   5.3194   5.3284   5.3792   5.4962
     5.7402   5.7659   5.7690   5.7742   5.7860   5.8000   5.8226   5.8454
     5.9573   5.9898   6.0938   6.0981   6.1028   6.1132   6.1178   6.1332
     6.1521   6.1630   6.1943   6.2162   6.3002   6.3157   6.3741   6.4485
     6.4581   6.5436   6.5474   6.5589   6.5692   6.5718   6.5879   6.6067
     6.6341   6.6386   6.6712   6.6942   6.8158   6.8263   6.8435   6.8556
     6.8962   7.0574   7.0711   7.0942   7.1198   7.1303   7.1528   7.1579
     7.1635   7.1712   7.1845   7.2073   7.2301   7.2850   7.2950   7.3113
     7.3258   7.3474   7.3691   7.4041   7.4304   7.4609   7.5054   7.5347
     7.5462   7.5984   7.6835   7.6959   7.7020   7.7098   7.7280   7.7348
     7.7578   7.7618   7.7826   7.7941   7.8011   7.8108   7.8231   7.8364
     7.8451   7.8666   7.8758   7.8858   7.9122   7.9428   7.9645   7.9884
     8.0015   8.0363   8.0498   8.1160   8.1329   8.2102   8.2727   8.3062
     8.3845   8.4654   8.5162   8.5452   8.6244   8.6609   8.6762   8.7582
     8.7823   8.8058   8.8691   8.9727   9.1479   9.1590  12.7886  12.8302
    13.1983  13.2519  13.3084  13.5492  13.6322  13.7502  13.9250  13.9369
    14.0008  14.0154  14.0287  14.0852  14.2091  14.2486  14.5098  14.5334
    14.5492  14.5755  14.6330  14.6691  14.6734  14.6820  14.6894  14.7004
    14.7130  14.7229  14.7429  14.7805  14.7997  14.8173  14.8513  14.8681
    14.9035  14.9523  15.0332  15.0897  15.0967  15.1229  15.1353  15.1470
    15.1739  15.2032  15.2371  15.2426  15.2724  15.3653  15.3775  15.4166
    15.4366  15.5241  15.5601  15.6193  15.6474  15.6610  15.9173  16.5219
    16.5615  16.5731  16.5918  16.6011  16.6289  16.6553  16.6599  16.6698
    16.6901  16.7382  16.7475  16.7657  16.7783  16.8207  16.8460  16.8667

     occupation numbers 
     1.0000   1.0000   1.0000   1.0000   1.0000   1.0000   1.0000   1.0000
     1.0000   1.0000   1.0000   1.0000   1.0000   1.0000   1.0000   1.0000
     1.0000   1.0000   1.0000   1.0000   1.0000   1.0000   1.0000   1.0000
     1.0000   1.0000   1.0000   1.0000   1.0000   1.0000   1.0000   1.0000
     1.0000   1.0000   1.0000   1.0000   1.0000   1.0000   1.0000   1.0000
     1.0000   1.0000   1.0000   1.0000   1.0000   1.0000   1.0000   1.0000
     1.0000   1.0000   1.0000   1.0000   1.0000   1.0000   1.0000   1.0000
     1.0000   1.0000   1.0000   1.0000   1.0000   1.0000   1.0000   1.0000
     1.0000   1.0000   1.0000   1.0000   1.0000   1.0000   1.0000   1.0000
     1.0000   1.0000   1.0000   1.0000   1.0000   1.0000   1.0000   1.0000
     1.0000   1.0000   1.0000   1.0000   1.0000   1.0000   1.0000   1.0000
     1.0000   1.0000   1.0000   1.0000   1.0000   1.0000   1.0000   1.0000
     1.0000   1.0000   1.0000   1.0000   1.0000   1.0000   1.0000   1.0000
     1.0000   1.0000   1.0000   1.0000   1.0000   1.0000   1.0000   1.0000
     1.0000   1.0000   1.0000   1.0000   1.0000   1.0000   1.0000   1.0000
     1.0000   1.0000   1.0000   1.0000   1.0000   1.0000   1.0000   1.0000
     1.0000   1.0000   1.0000   1.0000   1.0000   1.0000   1.0000   1.0000
     1.0000   1.0000   1.0000   1.0000   1.0000   1.0000   1.0000   1.0000
     1.0000   1.0000   1.0000   1.0000   1.0000   1.0000   1.0000   1.0000
     1.0000   1.0000   1.0000   1.0000   1.0000   1.0000   1.0000   1.0000
     1.0000   1.0000   1.0000   1.0000   1.0000   1.0000   1.0000   1.0000
     1.0000   1.0000   1.0000   1.0000   1.0000   1.0000   1.0000   1.0000
     1.0000   1.0000   1.0000   1.0000   1.0000   1.0000   1.0000   1.0000
     1.0000   1.0000   1.0000   1.0000   1.0000   1.0000   1.0000   1.0000
     1.0000   1.0000   1.0000   1.0000   1.0000   1.0000   1.0000   1.0000
     1.0000   1.0000   1.0000   1.0000   1.0000   1.0000   1.0000   1.0000
     1.0000   1.0000   1.0000   1.0000   1.0000   1.0000   1.0000   1.0000
     1.0000   1.0000   1.0000   1.0000   1.0000   1.0000   1.0000   1.0000
     1.0000   1.0000   1.0000   1.0000   1.0000   1.0000   1.0000   1.0000
     1.0000   1.0000   1.0000   1.0000   1.0000   1.0000   1.0000   1.0000
     1.0000   1.0000   1.0000   1.0000   1.0000   1.0000   1.0000   1.0000
     1.0000   1.0000   1.0000   1.0000   1.0000   1.0000   1.0000   1.0000
     1.0000   1.0000   1.0000   1.0000   1.0000   1.0000   1.0000   1.0000
     1.0000   1.0000   1.0000   1.0000   1.0000   1.0000   1.0000   1.0000
     1.0000   1.0000   1.0000   1.0000   1.0000   1.0000   1.0000   1.0000
     1.0000   1.0000   1.0000   1.0000   1.0000   1.0000   1.0000   1.0000
     1.0000   1.0000   1.0000   1.0000   1.0000   1.0000   1.0000   1.0000
     1.0000   1.0000   1.0000   1.0000   1.0000   1.0000   1.0000   1.0000
     1.0000   1.0000   1.0000   1.0000   1.0000   1.0000   1.0000   1.0000
     1.0000   1.0000   1.0000   1.0000   1.0000   1.0000   1.0000   1.0000
     1.0000   1.0000   1.0000   1.0000   1.0000   1.0000   1.0000   1.0000
     1.0000   1.0000   1.0000   1.0000   1.0000   1.0000   1.0000   1.0000
     1.0000   1.0000   1.0000   1.0000   1.0000   1.0000   1.0000   1.0000
     1.0000   1.0000   1.0000   1.0000   1.0000   1.0000   1.0000   1.0000
     1.0000   1.0000   1.0000   1.0000   1.0000   1.0000   1.0000   1.0000
     1.0000   1.0000   1.0000   1.0000   1.0000   1.0000   1.0000   1.0000
     1.0000   1.0000   1.0000   1.0000   1.0000   1.0000   1.0000   1.0000
     1.0000   1.0000   1.0000   1.0000   1.0000   1.0000   1.0000   1.0000
     1.0000   1.0000   1.0000   1.0000   1.0000   1.0000   1.0000   1.0000
     1.0000   1.0000   1.0000   1.0000   1.0000   1.0000   1.0000   1.0000
     1.0000   1.0000   1.0000   1.0000   1.0000   1.0000   1.0000   1.0000
     1.0000   1.0000   1.0000   1.0000   1.0000   1.0000   1.0000   1.0000
     1.0000   1.0000   1.0000   1.0000   1.0000   1.0000   1.0000   1.0000
     1.0000   1.0000   1.0000   1.0000   1.0000   1.0000   1.0000   1.0000
     1.0000   1.0000   1.0000   1.0000   1.0000   1.0000   1.0000   1.0000
     1.0000   1.0000   1.0000   1.0000   1.0000   1.0000   1.0000   1.0000
     1.0000   1.0000   1.0000   1.0000   1.0000   1.0000   1.0000   1.0000
     1.0000   1.0000   1.0000   1.0000   1.0000   1.0000   1.0000   1.0000
     1.0000   1.0000   1.0000   1.0000   1.0000   1.0000   1.0000   1.0000
     1.0000   1.0000   1.0000   1.0000   1.0000   1.0000   1.0000   1.0000
     1.0000   1.0000   1.0000   1.0000   1.0000   1.0000   0.0000   0.0000
     0.0000   0.0000   0.0000   0.0000   0.0000   0.0000   0.0000   0.0000
     0.0000   0.0000   0.0000   0.0000   0.0000   0.0000   0.0000   0.0000
     0.0000   0.0000   0.0000   0.0000   0.0000   0.0000   0.0000   0.0000
     0.0000   0.0000   0.0000   0.0000   0.0000   0.0000   0.0000   0.0000
     0.0000   0.0000   0.0000   0.0000   0.0000   0.0000   0.0000   0.0000
     0.0000   0.0000   0.0000   0.0000   0.0000   0.0000   0.0000   0.0000
     0.0000   0.0000   0.0000   0.0000   0.0000   0.0000   0.0000   0.0000
     0.0000   0.0000   0.0000   0.0000   0.0000   0.0000   0.0000   0.0000
     0.0000   0.0000   0.0000   0.0000   0.0000   0.0000   0.0000   0.0000

          k = 0.2500 0.5774-0.3067 ( 51266 PWs)   bands (ev):

    -6.1648  -6.1510  -6.1450  -6.1135  -6.0654  -6.0227  -5.8201  -5.8184
    -5.8055  -5.7996  -5.7592  -5.7535  -5.7481  -5.7276  -5.6993  -5.6959
    -5.6821  -5.6754  -5.6608  -5.6500  -5.6478  -5.6455  -5.6426  -5.6360
    -5.6322  -5.6288  -5.6209  -5.6173  -5.6125  -5.6023  -5.5975  -5.5920
    -5.5828  -5.5818  -5.5776  -5.5712  -5.5631  -5.5599  -5.5584  -5.5553
    -5.5521  -5.5488  -5.5476  -5.5453  -5.5446  -5.5408  -5.5377  -5.5366
    -5.5356  -5.5349  -5.5206  -5.4958  -5.4930  -4.2495  -4.1830  -4.1780
    -4.1761  -4.1737  -4.1705  -4.1693  -4.1677  -4.1654  -4.1633  -4.1611
    -4.1600  -4.1585  -4.1570  -4.1554  -4.1540  -4.1533  -4.1525  -4.1517
    -4.1506  -4.1493  -4.1491  -4.1476  -4.1467  -4.1451  -4.1436  -4.1419
    -4.1417  -4.1398  -4.1381  -4.1372  -4.1363  -4.1351  -4.1333  -4.1321
    -4.1306  -4.1292  -4.1275  -4.1264  -4.1249  -4.1227  -4.1212  -4.1195
    -4.1180  -4.1175  -4.1167  -4.1149  -4.1145  -4.1132  -4.1123  -4.1109
    -4.1093  -4.1083  -4.1079  -4.1059  -4.1052  -4.1035  -4.1025  -4.1012
    -4.1004  -4.0997  -4.0974  -4.0957  -4.0938  -4.0932  -4.0904  -4.0878
    -4.0875  -4.0838  -4.0805  -4.0777  -4.0718  -4.0680  -4.0673  -4.0654
    -4.0623  -4.0620  -4.0608  -4.0573  -4.0550  -4.0531  -4.0512  -4.0501
    -4.0492  -4.0467  -4.0452  -4.0447  -4.0424  -4.0414  -4.0403  -4.0400
    -4.0389  -4.0362  -4.0349  -4.0334  -4.0329  -4.0285  -4.0262  -4.0243
    -4.0229  -4.0201  -4.0166  -4.0138  -4.0136  -4.0104  -4.0081  -4.0069
    -4.0061  -4.0035  -4.0024  -4.0011  -3.9994  -3.9962  -3.9955  -3.9949
    -3.9937  -3.9921  -3.9917  -3.9904  -3.9886  -3.9869  -3.9851  -3.9843
    -3.9829  -3.9811  -3.9807  -3.9801  -3.9787  -3.9770  -3.9759  -3.9748
    -3.9736  -3.9733  -3.9716  -3.9698  -3.9686  -3.9676  -3.9670  -3.9654
    -3.9626  -3.9623  -3.9597  -3.9588  -3.9572  -3.9554  -3.9551  -3.9526
    -3.9485  -3.9465  -3.9459  -3.9440  -3.9425  -3.9418  -3.9387  -3.9370
    -3.9364  -3.9352  -3.9338  -3.9324  -3.9313  -3.9300  -3.9290  -3.9272
    -3.9259  -3.9235  -3.9231  -3.9207  -3.9195  -3.9189  -3.9177  -3.9171
    -3.9162  -3.9149  -3.9134  -3.9121  -3.9116  -3.9085  -3.9071  -3.9059
    -3.9048  -3.9039  -3.9008  -3.8996  -3.8992  -3.8968  -3.8961  -3.8955
    -3.8940  -3.8937  -3.8925  -3.8911  -3.8897  -3.8893  -3.8881  -3.8859
    -3.8857  -3.8824  -3.8809  -3.8796  -3.8757  -3.8736  -3.8723  -3.8711
    -3.8671  -3.8661  -3.8594  -3.8558  -3.8534  -3.8494  -3.8469  -3.8403
    -3.8366  -3.8205  -3.7876  -3.7786  -3.7699  -3.7555  -3.7469  -3.7383
    -3.7342  -3.7292  -3.6389  -3.6293  -3.5656  -3.5592  -3.5515  -3.5366
    -3.4592  -3.4403  -3.2970  -3.2606  -3.0861  -3.0805  -3.0641  -3.0276
    -2.8500  -2.8384  -2.6816  -2.6812  -2.6737  -2.6702  -2.6662  -2.6600
    -2.6554  -2.6481  -2.6430  -2.6408  -2.6383  -2.6297  -2.6191  -2.5837
    -2.5535  -2.5107  -2.4581  -2.4523  -2.4310  -2.4301  -2.4082  -2.3079
    -2.2052  -2.1902  -2.1725  -2.1684  -2.1636  -2.1507  -2.1445  -2.1115
    -2.0887  -2.0811  -2.0689  -0.1274   2.8456   2.8547   2.8726   2.8894
     2.9284   2.9379   2.9407   2.9425   2.9586   2.9610   2.9957   3.0338
     3.1954   3.2083   3.2307   3.2464   3.3442   3.3615   3.4560   3.4644
     3.4770   3.5029   3.5376   3.5614   3.6075   3.6298   3.6457   3.6742
     3.8043   3.8431   3.8473   3.8555   3.8638   3.8910   3.9128   3.9647
     4.3650   4.3692   4.4016   4.4555   4.6923   4.7576   5.0583   5.0868
     5.2262   5.2338   5.2624   5.3568   5.4837   5.4967   5.5234   5.5320
     5.5421   5.5628   5.5806   5.5883   5.5964   5.6073   5.6410   5.7075
     5.7777   5.7888   5.8178   5.8381   6.1201   6.1552   6.2344   6.2550
     6.2676   6.2696   6.2998   6.3067   6.3285   6.3425   6.3431   6.3844
     6.4102   6.4496   6.4682   6.5084   6.5581   6.5637   6.5671   6.6181
     6.6201   6.6322   6.6410   6.6544   6.6655   6.7697   6.8990   6.9017
     6.9133   6.9213   6.9670   7.0396   7.3155   7.3265   7.3284   7.3308
     7.3352   7.3462   7.3549   7.3712   7.3855   7.4036   7.4348   7.4534
     7.5063   7.5108   7.5144   7.5380   7.5737   7.5748   7.5795   7.5866
     7.5876   7.5950   7.5966   7.6000   7.6031   7.6118   7.6187   7.6236
     7.6343   7.6369   7.6513   7.6602   7.6673   7.6886   7.7493   7.7604
     7.7658   7.7959   7.8292   7.8632   7.8741   7.8810   7.8919   7.9021
     7.9831   7.9989   8.0167   8.0865   8.1448   8.2130   8.2292   8.2780
     8.2971   8.4231   8.5993   8.6626   8.6956   8.6972   8.7480   8.7733
     8.7897   8.7982   8.8011   8.9808   9.1287   9.1512  12.9568  12.9747
    12.9807  13.0548  13.3019  13.3665  13.8562  13.8787  14.0713  14.0841
    14.1583  14.1656  14.1684  14.2026  14.3047  14.3144  14.3190  14.3304
    14.3671  14.3873  14.4130  14.4567  14.5972  14.6276  14.6760  14.6929
    14.7211  14.7574  14.8320  14.8390  14.8473  14.8571  14.8596  14.8685
    14.8699  14.8986  14.9036  14.9531  14.9675  14.9709  15.0038  15.1733
    15.2017  15.2123  15.2443  15.2513  15.2727  15.4078  15.4145  15.4287
    15.4556  15.5929  15.6228  15.7205  16.0990  16.1247  16.1455  16.1575
    16.1622  16.2578  16.6301  16.6360  16.6535  16.6588  16.6767  16.6875
    16.6963  16.7436  16.7684  16.7786  16.7895  16.8036  16.8142  16.8455

     occupation numbers 
     1.0000   1.0000   1.0000   1.0000   1.0000   1.0000   1.0000   1.0000
     1.0000   1.0000   1.0000   1.0000   1.0000   1.0000   1.0000   1.0000
     1.0000   1.0000   1.0000   1.0000   1.0000   1.0000   1.0000   1.0000
     1.0000   1.0000   1.0000   1.0000   1.0000   1.0000   1.0000   1.0000
     1.0000   1.0000   1.0000   1.0000   1.0000   1.0000   1.0000   1.0000
     1.0000   1.0000   1.0000   1.0000   1.0000   1.0000   1.0000   1.0000
     1.0000   1.0000   1.0000   1.0000   1.0000   1.0000   1.0000   1.0000
     1.0000   1.0000   1.0000   1.0000   1.0000   1.0000   1.0000   1.0000
     1.0000   1.0000   1.0000   1.0000   1.0000   1.0000   1.0000   1.0000
     1.0000   1.0000   1.0000   1.0000   1.0000   1.0000   1.0000   1.0000
     1.0000   1.0000   1.0000   1.0000   1.0000   1.0000   1.0000   1.0000
     1.0000   1.0000   1.0000   1.0000   1.0000   1.0000   1.0000   1.0000
     1.0000   1.0000   1.0000   1.0000   1.0000   1.0000   1.0000   1.0000
     1.0000   1.0000   1.0000   1.0000   1.0000   1.0000   1.0000   1.0000
     1.0000   1.0000   1.0000   1.0000   1.0000   1.0000   1.0000   1.0000
     1.0000   1.0000   1.0000   1.0000   1.0000   1.0000   1.0000   1.0000
     1.0000   1.0000   1.0000   1.0000   1.0000   1.0000   1.0000   1.0000
     1.0000   1.0000   1.0000   1.0000   1.0000   1.0000   1.0000   1.0000
     1.0000   1.0000   1.0000   1.0000   1.0000   1.0000   1.0000   1.0000
     1.0000   1.0000   1.0000   1.0000   1.0000   1.0000   1.0000   1.0000
     1.0000   1.0000   1.0000   1.0000   1.0000   1.0000   1.0000   1.0000
     1.0000   1.0000   1.0000   1.0000   1.0000   1.0000   1.0000   1.0000
     1.0000   1.0000   1.0000   1.0000   1.0000   1.0000   1.0000   1.0000
     1.0000   1.0000   1.0000   1.0000   1.0000   1.0000   1.0000   1.0000
     1.0000   1.0000   1.0000   1.0000   1.0000   1.0000   1.0000   1.0000
     1.0000   1.0000   1.0000   1.0000   1.0000   1.0000   1.0000   1.0000
     1.0000   1.0000   1.0000   1.0000   1.0000   1.0000   1.0000   1.0000
     1.0000   1.0000   1.0000   1.0000   1.0000   1.0000   1.0000   1.0000
     1.0000   1.0000   1.0000   1.0000   1.0000   1.0000   1.0000   1.0000
     1.0000   1.0000   1.0000   1.0000   1.0000   1.0000   1.0000   1.0000
     1.0000   1.0000   1.0000   1.0000   1.0000   1.0000   1.0000   1.0000
     1.0000   1.0000   1.0000   1.0000   1.0000   1.0000   1.0000   1.0000
     1.0000   1.0000   1.0000   1.0000   1.0000   1.0000   1.0000   1.0000
     1.0000   1.0000   1.0000   1.0000   1.0000   1.0000   1.0000   1.0000
     1.0000   1.0000   1.0000   1.0000   1.0000   1.0000   1.0000   1.0000
     1.0000   1.0000   1.0000   1.0000   1.0000   1.0000   1.0000   1.0000
     1.0000   1.0000   1.0000   1.0000   1.0000   1.0000   1.0000   1.0000
     1.0000   1.0000   1.0000   1.0000   1.0000   1.0000   1.0000   1.0000
     1.0000   1.0000   1.0000   1.0000   1.0000   1.0000   1.0000   1.0000
     1.0000   1.0000   1.0000   1.0000   1.0000   1.0000   1.0000   1.0000
     1.0000   1.0000   1.0000   1.0000   1.0000   1.0000   1.0000   1.0000
     1.0000   1.0000   1.0000   1.0000   1.0000   1.0000   1.0000   1.0000
     1.0000   1.0000   1.0000   1.0000   1.0000   1.0000   1.0000   1.0000
     1.0000   1.0000   1.0000   1.0000   1.0000   1.0000   1.0000   1.0000
     1.0000   1.0000   1.0000   1.0000   1.0000   1.0000   1.0000   1.0000
     1.0000   1.0000   1.0000   1.0000   1.0000   1.0000   1.0000   1.0000
     1.0000   1.0000   1.0000   1.0000   1.0000   1.0000   1.0000   1.0000
     1.0000   1.0000   1.0000   1.0000   1.0000   1.0000   1.0000   1.0000
     1.0000   1.0000   1.0000   1.0000   1.0000   1.0000   1.0000   1.0000
     1.0000   1.0000   1.0000   1.0000   1.0000   1.0000   1.0000   1.0000
     1.0000   1.0000   1.0000   1.0000   1.0000   1.0000   1.0000   1.0000
     1.0000   1.0000   1.0000   1.0000   1.0000   1.0000   1.0000   1.0000
     1.0000   1.0000   1.0000   1.0000   1.0000   1.0000   1.0000   1.0000
     1.0000   1.0000   1.0000   1.0000   1.0000   1.0000   1.0000   1.0000
     1.0000   1.0000   1.0000   1.0000   1.0000   1.0000   1.0000   1.0000
     1.0000   1.0000   1.0000   1.0000   1.0000   1.0000   1.0000   1.0000
     1.0000   1.0000   1.0000   1.0000   1.0000   1.0000   1.0000   1.0000
     1.0000   1.0000   1.0000   1.0000   1.0000   1.0000   1.0000   1.0000
     1.0000   1.0000   1.0000   1.0000   1.0000   1.0000   1.0000   1.0000
     1.0000   1.0000   1.0000   1.0000   1.0000   1.0000   1.0000   1.0000
     1.0000   1.0000   1.0000   1.0000   1.0000   1.0000   0.0000   0.0000
     0.0000   0.0000   0.0000   0.0000   0.0000   0.0000   0.0000   0.0000
     0.0000   0.0000   0.0000   0.0000   0.0000   0.0000   0.0000   0.0000
     0.0000   0.0000   0.0000   0.0000   0.0000   0.0000   0.0000   0.0000
     0.0000   0.0000   0.0000   0.0000   0.0000   0.0000   0.0000   0.0000
     0.0000   0.0000   0.0000   0.0000   0.0000   0.0000   0.0000   0.0000
     0.0000   0.0000   0.0000   0.0000   0.0000   0.0000   0.0000   0.0000
     0.0000   0.0000   0.0000   0.0000   0.0000   0.0000   0.0000   0.0000
     0.0000   0.0000   0.0000   0.0000   0.0000   0.0000   0.0000   0.0000
     0.0000   0.0000   0.0000   0.0000   0.0000   0.0000   0.0000   0.0000

          k = 0.0000-0.1443 0.1533 ( 51348 PWs)   bands (ev):

    -6.4397  -6.2945  -6.0707  -5.9122  -5.8632  -5.8629  -5.8538  -5.8292
    -5.7915  -5.7908  -5.7854  -5.7731  -5.7532  -5.7322  -5.7253  -5.7222
    -5.7187  -5.6935  -5.6896  -5.6798  -5.6727  -5.6455  -5.6444  -5.6322
    -5.6211  -5.6113  -5.6073  -5.5918  -5.5901  -5.5885  -5.5853  -5.5842
    -5.5776  -5.5764  -5.5725  -5.5691  -5.5668  -5.5652  -5.5618  -5.5603
    -5.5583  -5.5549  -5.5517  -5.5513  -5.5460  -5.5444  -5.5423  -5.5364
    -5.5354  -5.5262  -5.5243  -5.4957  -5.4955  -4.2542  -4.2057  -4.1993
    -4.1962  -4.1907  -4.1906  -4.1847  -4.1845  -4.1762  -4.1761  -4.1685
    -4.1664  -4.1656  -4.1648  -4.1631  -4.1607  -4.1587  -4.1585  -4.1556
    -4.1541  -4.1528  -4.1507  -4.1502  -4.1485  -4.1471  -4.1471  -4.1451
    -4.1437  -4.1435  -4.1414  -4.1402  -4.1384  -4.1370  -4.1360  -4.1345
    -4.1336  -4.1316  -4.1280  -4.1272  -4.1261  -4.1249  -4.1242  -4.1218
    -4.1184  -4.1180  -4.1168  -4.1161  -4.1144  -4.1140  -4.1120  -4.1107
    -4.1083  -4.1030  -4.1028  -4.1000  -4.0945  -4.0936  -4.0891  -4.0890
    -4.0867  -4.0859  -4.0851  -4.0848  -4.0827  -4.0811  -4.0791  -4.0786
    -4.0753  -4.0729  -4.0709  -4.0702  -4.0655  -4.0647  -4.0606  -4.0591
    -4.0582  -4.0563  -4.0556  -4.0534  -4.0514  -4.0477  -4.0465  -4.0452
    -4.0423  -4.0400  -4.0389  -4.0359  -4.0342  -4.0333  -4.0312  -4.0284
    -4.0273  -4.0240  -4.0194  -4.0193  -4.0184  -4.0163  -4.0133  -4.0130
    -4.0111  -4.0102  -4.0091  -4.0079  -4.0067  -4.0059  -4.0031  -4.0026
    -4.0000  -3.9994  -3.9994  -3.9979  -3.9967  -3.9954  -3.9953  -3.9934
    -3.9912  -3.9894  -3.9894  -3.9890  -3.9852  -3.9835  -3.9830  -3.9815
    -3.9805  -3.9799  -3.9772  -3.9771  -3.9754  -3.9732  -3.9713  -3.9712
    -3.9689  -3.9682  -3.9660  -3.9656  -3.9642  -3.9639  -3.9627  -3.9620
    -3.9593  -3.9586  -3.9583  -3.9564  -3.9548  -3.9538  -3.9533  -3.9525
    -3.9523  -3.9497  -3.9488  -3.9465  -3.9459  -3.9453  -3.9419  -3.9417
    -3.9391  -3.9375  -3.9367  -3.9355  -3.9353  -3.9323  -3.9305  -3.9293
    -3.9272  -3.9267  -3.9248  -3.9245  -3.9226  -3.9220  -3.9197  -3.9191
    -3.9186  -3.9185  -3.9157  -3.9140  -3.9131  -3.9114  -3.9092  -3.9075
    -3.9066  -3.9049  -3.9022  -3.9022  -3.9009  -3.8990  -3.8979  -3.8978
    -3.8960  -3.8941  -3.8934  -3.8891  -3.8888  -3.8852  -3.8836  -3.8829
    -3.8820  -3.8808  -3.8782  -3.8773  -3.8754  -3.8691  -3.8669  -3.8657
    -3.8632  -3.8629  -3.8609  -3.8502  -3.8496  -3.8442  -3.8290  -3.7930
    -3.7904  -3.7720  -3.7699  -3.7424  -3.7406  -3.7327  -3.7321  -3.6858
    -3.6277  -3.6265  -3.6102  -3.5851  -3.5805  -3.5640  -3.4749  -3.4635
    -3.3719  -3.3670  -3.3500  -3.2762  -3.2703  -3.2602  -3.2494  -3.2155
    -3.1465  -3.1135  -3.0531  -3.0296  -2.9902  -2.9356  -2.8955  -2.8525
    -2.7262  -2.7153  -2.6797  -2.6184  -2.5444  -2.4765  -2.4523  -2.3590
    -2.3574  -2.3307  -2.3273  -2.3161  -2.2955  -2.2663  -2.2455  -2.2237
    -2.2164  -2.1861  -2.1782  -2.1672  -2.1532  -2.1368  -2.1231  -2.1116
    -2.1079  -2.0899  -2.0856  -0.1326   2.5404   3.1539   3.2079   3.2207
     3.2620   3.2802   3.2818   3.3056   3.3082   3.3255   3.3615   3.3707
     3.3830   3.4018   3.4139   3.4281   3.4373   3.4566   3.4958   3.5349
     3.5627   3.5808   3.6343   3.6485   3.6694   3.6983   3.7433   3.7757
     3.8802   3.9045   3.9230   3.9429   3.9984   4.0193   4.1065   4.2222
     4.3633   4.3772   4.3965   4.4025   4.4232   4.4337   4.4927   4.5469
     4.5673   4.5925   4.6047   4.6539   4.7331   4.7663   4.7850   4.8746
     4.9159   4.9446   5.0328   5.0379   5.1142   5.1495   5.2111   5.2582
     5.5742   5.5981   5.6339   5.6352   5.7083   5.7091   5.7383   5.7480
     5.7771   5.8185   5.8865   6.2274   6.2354   6.2423   6.2429   6.2720
     6.6455   6.6493   6.6781   6.6928   6.7152   6.7370   6.7522   6.7665
     6.7756   6.8293   6.8473   6.8577   6.8660   6.9316   6.9779   6.9970
     7.0056   7.0185   7.0488   7.0633   7.1718   7.1990   7.2167   7.3282
     7.3432   7.3550   7.3569   7.3907   7.4009   7.4997   7.5280   7.6220
     7.6262   7.6360   7.6442   7.6600   7.6634   7.6829   7.6956   7.7051
     7.7326   7.7926   7.7943   7.8091   7.8338   7.8427   7.8699   7.9283
     7.9418   7.9481   7.9734   7.9977   8.0223   8.0640   8.0796   8.1468
     8.1610   8.1687   8.1824   8.1841   8.2043   8.2092   8.2380   8.2589
     8.2833   8.3101   8.3181   8.3373   8.3751   8.3861   8.3946   8.4228
     8.4734   8.5055   8.5302   8.6050   8.6641   8.6865   8.7507   8.8904
     8.9507   8.9543   9.1544   9.1808   9.3658   9.4401  11.4000  12.3231
    13.1636  13.4601  13.5231  13.5443  13.5588  13.5688  13.5817  13.6134
    13.6202  13.6377  13.6672  13.6984  13.7122  13.7673  13.8634  13.8669
    13.8745  13.8781  13.9742  14.0199  14.0403  14.1555  14.2421  14.3523
    14.4050  14.5453  14.5655  14.5799  14.5826  14.6372  14.6586  14.7414
    14.8361  14.8626  14.8838  14.9288  15.0036  15.0295  15.0386  15.0537
    15.0561  15.1215  15.1248  15.2231  15.3361  15.4328  15.5501  15.6768
    15.8112  15.8674  15.9012  16.0163  16.0774  16.0776  16.1147  16.2333
    16.2529  16.2671  16.2866  16.2906  16.3195  16.3424  16.3430  16.4033
    16.4401  16.4963  16.4998  16.5341  16.5568  16.5882  16.6194  16.6492

     occupation numbers 
     1.0000   1.0000   1.0000   1.0000   1.0000   1.0000   1.0000   1.0000
     1.0000   1.0000   1.0000   1.0000   1.0000   1.0000   1.0000   1.0000
     1.0000   1.0000   1.0000   1.0000   1.0000   1.0000   1.0000   1.0000
     1.0000   1.0000   1.0000   1.0000   1.0000   1.0000   1.0000   1.0000
     1.0000   1.0000   1.0000   1.0000   1.0000   1.0000   1.0000   1.0000
     1.0000   1.0000   1.0000   1.0000   1.0000   1.0000   1.0000   1.0000
     1.0000   1.0000   1.0000   1.0000   1.0000   1.0000   1.0000   1.0000
     1.0000   1.0000   1.0000   1.0000   1.0000   1.0000   1.0000   1.0000
     1.0000   1.0000   1.0000   1.0000   1.0000   1.0000   1.0000   1.0000
     1.0000   1.0000   1.0000   1.0000   1.0000   1.0000   1.0000   1.0000
     1.0000   1.0000   1.0000   1.0000   1.0000   1.0000   1.0000   1.0000
     1.0000   1.0000   1.0000   1.0000   1.0000   1.0000   1.0000   1.0000
     1.0000   1.0000   1.0000   1.0000   1.0000   1.0000   1.0000   1.0000
     1.0000   1.0000   1.0000   1.0000   1.0000   1.0000   1.0000   1.0000
     1.0000   1.0000   1.0000   1.0000   1.0000   1.0000   1.0000   1.0000
     1.0000   1.0000   1.0000   1.0000   1.0000   1.0000   1.0000   1.0000
     1.0000   1.0000   1.0000   1.0000   1.0000   1.0000   1.0000   1.0000
     1.0000   1.0000   1.0000   1.0000   1.0000   1.0000   1.0000   1.0000
     1.0000   1.0000   1.0000   1.0000   1.0000   1.0000   1.0000   1.0000
     1.0000   1.0000   1.0000   1.0000   1.0000   1.0000   1.0000   1.0000
     1.0000   1.0000   1.0000   1.0000   1.0000   1.0000   1.0000   1.0000
     1.0000   1.0000   1.0000   1.0000   1.0000   1.0000   1.0000   1.0000
     1.0000   1.0000   1.0000   1.0000   1.0000   1.0000   1.0000   1.0000
     1.0000   1.0000   1.0000   1.0000   1.0000   1.0000   1.0000   1.0000
     1.0000   1.0000   1.0000   1.0000   1.0000   1.0000   1.0000   1.0000
     1.0000   1.0000   1.0000   1.0000   1.0000   1.0000   1.0000   1.0000
     1.0000   1.0000   1.0000   1.0000   1.0000   1.0000   1.0000   1.0000
     1.0000   1.0000   1.0000   1.0000   1.0000   1.0000   1.0000   1.0000
     1.0000   1.0000   1.0000   1.0000   1.0000   1.0000   1.0000   1.0000
     1.0000   1.0000   1.0000   1.0000   1.0000   1.0000   1.0000   1.0000
     1.0000   1.0000   1.0000   1.0000   1.0000   1.0000   1.0000   1.0000
     1.0000   1.0000   1.0000   1.0000   1.0000   1.0000   1.0000   1.0000
     1.0000   1.0000   1.0000   1.0000   1.0000   1.0000   1.0000   1.0000
     1.0000   1.0000   1.0000   1.0000   1.0000   1.0000   1.0000   1.0000
     1.0000   1.0000   1.0000   1.0000   1.0000   1.0000   1.0000   1.0000
     1.0000   1.0000   1.0000   1.0000   1.0000   1.0000   1.0000   1.0000
     1.0000   1.0000   1.0000   1.0000   1.0000   1.0000   1.0000   1.0000
     1.0000   1.0000   1.0000   1.0000   1.0000   1.0000   1.0000   1.0000
     1.0000   1.0000   1.0000   1.0000   1.0000   1.0000   1.0000   1.0000
     1.0000   1.0000   1.0000   1.0000   1.0000   1.0000   1.0000   1.0000
     1.0000   1.0000   1.0000   1.0000   1.0000   1.0000   1.0000   1.0000
     1.0000   1.0000   1.0000   1.0000   1.0000   1.0000   1.0000   1.0000
     1.0000   1.0000   1.0000   1.0000   1.0000   1.0000   1.0000   1.0000
     1.0000   1.0000   1.0000   1.0000   1.0000   1.0000   1.0000   1.0000
     1.0000   1.0000   1.0000   1.0000   1.0000   1.0000   1.0000   1.0000
     1.0000   1.0000   1.0000   1.0000   1.0000   1.0000   1.0000   1.0000
     1.0000   1.0000   1.0000   1.0000   1.0000   1.0000   1.0000   1.0000
     1.0000   1.0000   1.0000   1.0000   1.0000   1.0000   1.0000   1.0000
     1.0000   1.0000   1.0000   1.0000   1.0000   1.0000   1.0000   1.0000
     1.0000   1.0000   1.0000   1.0000   1.0000   1.0000   1.0000   1.0000
     1.0000   1.0000   1.0000   1.0000   1.0000   1.0000   1.0000   1.0000
     1.0000   1.0000   1.0000   1.0000   1.0000   1.0000   1.0000   1.0000
     1.0000   1.0000   1.0000   1.0000   1.0000   1.0000   1.0000   1.0000
     1.0000   1.0000   1.0000   1.0000   1.0000   1.0000   1.0000   1.0000
     1.0000   1.0000   1.0000   1.0000   1.0000   1.0000   1.0000   1.0000
     1.0000   1.0000   1.0000   1.0000   1.0000   1.0000   1.0000   1.0000
     1.0000   1.0000   1.0000   1.0000   1.0000   1.0000   1.0000   1.0000
     1.0000   1.0000   1.0000   1.0000   1.0000   1.0000   1.0000   1.0000
     1.0000   1.0000   1.0000   1.0000   1.0000   1.0000   1.0000   1.0000
     1.0000   1.0000   1.0000   1.0000   1.0000   1.0000   1.0000   1.0000
     1.0000   1.0000   1.0000   1.0000   0.2886   0.0000   0.0000   0.0000
     0.0000   0.0000   0.0000   0.0000   0.0000   0.0000   0.0000   0.0000
     0.0000   0.0000   0.0000   0.0000   0.0000   0.0000   0.0000   0.0000
     0.0000   0.0000   0.0000   0.0000   0.0000   0.0000   0.0000   0.0000
     0.0000   0.0000   0.0000   0.0000   0.0000   0.0000   0.0000   0.0000
     0.0000   0.0000   0.0000   0.0000   0.0000   0.0000   0.0000   0.0000
     0.0000   0.0000   0.0000   0.0000   0.0000   0.0000   0.0000   0.0000
     0.0000   0.0000   0.0000   0.0000   0.0000   0.0000   0.0000   0.0000
     0.0000   0.0000   0.0000   0.0000   0.0000   0.0000   0.0000   0.0000
     0.0000   0.0000   0.0000   0.0000   0.0000   0.0000   0.0000   0.0000

          k = 0.0000-0.2887 0.1533 ( 51308 PWs)   bands (ev):

    -6.3934  -6.2528  -6.0395  -6.0085  -5.9170  -5.8912  -5.8792  -5.8373
    -5.8126  -5.8020  -5.7769  -5.7461  -5.7425  -5.7176  -5.7117  -5.7061
    -5.7002  -5.6908  -5.6835  -5.6698  -5.6643  -5.6557  -5.6274  -5.6243
    -5.6181  -5.6168  -5.6105  -5.6093  -5.6073  -5.5976  -5.5884  -5.5849
    -5.5796  -5.5779  -5.5756  -5.5726  -5.5712  -5.5626  -5.5595  -5.5588
    -5.5559  -5.5545  -5.5482  -5.5472  -5.5436  -5.5426  -5.5413  -5.5362
    -5.5355  -5.5277  -5.5224  -5.4953  -5.4947  -4.2525  -4.2026  -4.1928
    -4.1900  -4.1860  -4.1860  -4.1787  -4.1782  -4.1701  -4.1695  -4.1664
    -4.1631  -4.1624  -4.1605  -4.1598  -4.1572  -4.1566  -4.1554  -4.1549
    -4.1513  -4.1498  -4.1497  -4.1474  -4.1468  -4.1449  -4.1447  -4.1431
    -4.1419  -4.1416  -4.1403  -4.1376  -4.1365  -4.1362  -4.1347  -4.1341
    -4.1320  -4.1305  -4.1280  -4.1275  -4.1268  -4.1258  -4.1240  -4.1225
    -4.1214  -4.1199  -4.1175  -4.1173  -4.1139  -4.1136  -4.1122  -4.1118
    -4.1084  -4.1072  -4.1058  -4.1043  -4.1006  -4.1002  -4.0940  -4.0934
    -4.0911  -4.0897  -4.0895  -4.0874  -4.0840  -4.0840  -4.0816  -4.0815
    -4.0782  -4.0772  -4.0750  -4.0718  -4.0711  -4.0710  -4.0684  -4.0635
    -4.0630  -4.0599  -4.0599  -4.0585  -4.0551  -4.0522  -4.0508  -4.0481
    -4.0468  -4.0451  -4.0430  -4.0416  -4.0398  -4.0338  -4.0335  -4.0331
    -4.0313  -4.0302  -4.0263  -4.0228  -4.0192  -4.0152  -4.0150  -4.0138
    -4.0114  -4.0109  -4.0081  -4.0080  -4.0058  -4.0058  -4.0035  -4.0031
    -4.0010  -4.0002  -3.9997  -3.9973  -3.9970  -3.9949  -3.9948  -3.9937
    -3.9920  -3.9916  -3.9899  -3.9868  -3.9858  -3.9843  -3.9834  -3.9811
    -3.9811  -3.9800  -3.9787  -3.9777  -3.9773  -3.9758  -3.9756  -3.9730
    -3.9716  -3.9703  -3.9695  -3.9680  -3.9667  -3.9663  -3.9641  -3.9637
    -3.9610  -3.9595  -3.9589  -3.9577  -3.9546  -3.9536  -3.9523  -3.9520
    -3.9511  -3.9507  -3.9471  -3.9462  -3.9453  -3.9447  -3.9416  -3.9388
    -3.9371  -3.9358  -3.9355  -3.9334  -3.9323  -3.9308  -3.9290  -3.9283
    -3.9265  -3.9245  -3.9236  -3.9221  -3.9207  -3.9187  -3.9173  -3.9153
    -3.9146  -3.9145  -3.9121  -3.9119  -3.9111  -3.9106  -3.9070  -3.9060
    -3.9043  -3.9042  -3.9021  -3.9011  -3.8992  -3.8979  -3.8972  -3.8963
    -3.8939  -3.8935  -3.8919  -3.8894  -3.8884  -3.8874  -3.8865  -3.8835
    -3.8803  -3.8798  -3.8770  -3.8766  -3.8741  -3.8709  -3.8673  -3.8658
    -3.8640  -3.8628  -3.8589  -3.8508  -3.8487  -3.8417  -3.8306  -3.8218
    -3.7953  -3.7892  -3.7750  -3.7693  -3.7463  -3.7419  -3.7332  -3.7298
    -3.7074  -3.6442  -3.6383  -3.6253  -3.6219  -3.5666  -3.5306  -3.5248
    -3.4984  -3.3106  -3.2992  -3.2212  -3.2085  -3.1474  -3.1215  -3.1073
    -3.0712  -3.0186  -2.9510  -2.9449  -2.9322  -2.9166  -2.8654  -2.7510
    -2.6776  -2.6477  -2.6185  -2.5987  -2.5183  -2.5161  -2.5024  -2.4877
    -2.4630  -2.4334  -2.4037  -2.3395  -2.3232  -2.3098  -2.2887  -2.2836
    -2.2459  -2.2200  -2.2042  -2.1907  -2.1464  -2.1132  -2.1024  -2.0885
    -2.0688  -2.0525  -2.0447  -0.1296   2.6086   2.9136   2.9834   3.0797
     3.1482   3.1589   3.1981   3.2080   3.2368   3.2724   3.2785   3.2963
     3.3038   3.3106   3.3156   3.3371   3.3575   3.3843   3.4263   3.4409
     3.4698   3.5515   3.5642   3.6543   3.6650   3.6824   3.6993   3.7256
     3.7295   3.7905   3.8642   4.0432   4.0574   4.0654   4.0988   4.2074
     4.2227   4.2874   4.4291   4.4796   4.5003   4.5774   4.6289   4.7448
     4.7465   4.7635   4.8768   4.8845   4.9849   4.9849   5.0773   5.0824
     5.1100   5.1384   5.1465   5.2052   5.2933   5.2950   5.4374   5.6203
     5.7136   5.7401   5.7831   5.7866   5.8200   5.8406   5.8650   5.8744
     5.9046   5.9763   6.0137   6.1390   6.1946   6.3770   6.4337   6.4450
     6.5419   6.5558   6.6994   6.7045   6.7199   6.7286   6.7331   6.7338
     6.7480   6.7663   6.7680   6.8190   6.8392   6.8478   6.9165   6.9333
     6.9516   6.9783   7.0064   7.0434   7.0858   7.1123   7.1634   7.2059
     7.2684   7.3688   7.3737   7.3749   7.4264   7.4531   7.5079   7.5082
     7.5213   7.5295   7.5302   7.5590   7.5830   7.6472   7.6595   7.6883
     7.7055   7.7225   7.7733   7.7811   7.7920   7.8107   7.8166   7.8294
     7.8317   7.8479   7.8553   7.8666   7.9085   7.9193   7.9782   8.0041
     8.0572   8.0861   8.1137   8.1161   8.1461   8.1512   8.1700   8.1913
     8.2220   8.2888   8.2892   8.3061   8.3204   8.3232   8.3634   8.3832
     8.4353   8.4358   8.5049   8.5168   8.5258   8.6349   8.7447   8.7622
     8.8028   8.9049   9.0822   9.1043   9.2337   9.3947  11.7568  12.5522
    13.3700  13.3905  13.4535  13.4908  13.5327  13.7697  13.7973  13.7974
    13.8085  13.8136  13.8353  13.8388  13.8477  13.8858  13.9187  13.9663
    14.0151  14.0588  14.1112  14.1144  14.2113  14.3168  14.3878  14.4611
    14.4651  14.5115  14.6090  14.6905  14.6945  14.7419  14.8047  14.8793
    14.9684  14.9722  14.9928  15.0047  15.0167  15.0332  15.0694  15.0812
    15.1076  15.2168  15.3564  15.3643  15.3769  15.4013  15.4058  15.5937
    15.7025  15.7361  15.7873  15.8916  15.9791  16.1596  16.1828  16.1839
    16.2123  16.2148  16.2548  16.3041  16.3411  16.4283  16.4864  16.5103
    16.5351  16.5582  16.6029  16.6220  16.6502  16.6660  16.6836  16.6891

     occupation numbers 
     1.0000   1.0000   1.0000   1.0000   1.0000   1.0000   1.0000   1.0000
     1.0000   1.0000   1.0000   1.0000   1.0000   1.0000   1.0000   1.0000
     1.0000   1.0000   1.0000   1.0000   1.0000   1.0000   1.0000   1.0000
     1.0000   1.0000   1.0000   1.0000   1.0000   1.0000   1.0000   1.0000
     1.0000   1.0000   1.0000   1.0000   1.0000   1.0000   1.0000   1.0000
     1.0000   1.0000   1.0000   1.0000   1.0000   1.0000   1.0000   1.0000
     1.0000   1.0000   1.0000   1.0000   1.0000   1.0000   1.0000   1.0000
     1.0000   1.0000   1.0000   1.0000   1.0000   1.0000   1.0000   1.0000
     1.0000   1.0000   1.0000   1.0000   1.0000   1.0000   1.0000   1.0000
     1.0000   1.0000   1.0000   1.0000   1.0000   1.0000   1.0000   1.0000
     1.0000   1.0000   1.0000   1.0000   1.0000   1.0000   1.0000   1.0000
     1.0000   1.0000   1.0000   1.0000   1.0000   1.0000   1.0000   1.0000
     1.0000   1.0000   1.0000   1.0000   1.0000   1.0000   1.0000   1.0000
     1.0000   1.0000   1.0000   1.0000   1.0000   1.0000   1.0000   1.0000
     1.0000   1.0000   1.0000   1.0000   1.0000   1.0000   1.0000   1.0000
     1.0000   1.0000   1.0000   1.0000   1.0000   1.0000   1.0000   1.0000
     1.0000   1.0000   1.0000   1.0000   1.0000   1.0000   1.0000   1.0000
     1.0000   1.0000   1.0000   1.0000   1.0000   1.0000   1.0000   1.0000
     1.0000   1.0000   1.0000   1.0000   1.0000   1.0000   1.0000   1.0000
     1.0000   1.0000   1.0000   1.0000   1.0000   1.0000   1.0000   1.0000
     1.0000   1.0000   1.0000   1.0000   1.0000   1.0000   1.0000   1.0000
     1.0000   1.0000   1.0000   1.0000   1.0000   1.0000   1.0000   1.0000
     1.0000   1.0000   1.0000   1.0000   1.0000   1.0000   1.0000   1.0000
     1.0000   1.0000   1.0000   1.0000   1.0000   1.0000   1.0000   1.0000
     1.0000   1.0000   1.0000   1.0000   1.0000   1.0000   1.0000   1.0000
     1.0000   1.0000   1.0000   1.0000   1.0000   1.0000   1.0000   1.0000
     1.0000   1.0000   1.0000   1.0000   1.0000   1.0000   1.0000   1.0000
     1.0000   1.0000   1.0000   1.0000   1.0000   1.0000   1.0000   1.0000
     1.0000   1.0000   1.0000   1.0000   1.0000   1.0000   1.0000   1.0000
     1.0000   1.0000   1.0000   1.0000   1.0000   1.0000   1.0000   1.0000
     1.0000   1.0000   1.0000   1.0000   1.0000   1.0000   1.0000   1.0000
     1.0000   1.0000   1.0000   1.0000   1.0000   1.0000   1.0000   1.0000
     1.0000   1.0000   1.0000   1.0000   1.0000   1.0000   1.0000   1.0000
     1.0000   1.0000   1.0000   1.0000   1.0000   1.0000   1.0000   1.0000
     1.0000   1.0000   1.0000   1.0000   1.0000   1.0000   1.0000   1.0000
     1.0000   1.0000   1.0000   1.0000   1.0000   1.0000   1.0000   1.0000
     1.0000   1.0000   1.0000   1.0000   1.0000   1.0000   1.0000   1.0000
     1.0000   1.0000   1.0000   1.0000   1.0000   1.0000   1.0000   1.0000
     1.0000   1.0000   1.0000   1.0000   1.0000   1.0000   1.0000   1.0000
     1.0000   1.0000   1.0000   1.0000   1.0000   1.0000   1.0000   1.0000
     1.0000   1.0000   1.0000   1.0000   1.0000   1.0000   1.0000   1.0000
     1.0000   1.0000   1.0000   1.0000   1.0000   1.0000   1.0000   1.0000
     1.0000   1.0000   1.0000   1.0000   1.0000   1.0000   1.0000   1.0000
     1.0000   1.0000   1.0000   1.0000   1.0000   1.0000   1.0000   1.0000
     1.0000   1.0000   1.0000   1.0000   1.0000   1.0000   1.0000   1.0000
     1.0000   1.0000   1.0000   1.0000   1.0000   1.0000   1.0000   1.0000
     1.0000   1.0000   1.0000   1.0000   1.0000   1.0000   1.0000   1.0000
     1.0000   1.0000   1.0000   1.0000   1.0000   1.0000   1.0000   1.0000
     1.0000   1.0000   1.0000   1.0000   1.0000   1.0000   1.0000   1.0000
     1.0000   1.0000   1.0000   1.0000   1.0000   1.0000   1.0000   1.0000
     1.0000   1.0000   1.0000   1.0000   1.0000   1.0000   1.0000   1.0000
     1.0000   1.0000   1.0000   1.0000   1.0000   1.0000   1.0000   1.0000
     1.0000   1.0000   1.0000   1.0000   1.0000   1.0000   1.0000   1.0000
     1.0000   1.0000   1.0000   1.0000   1.0000   1.0000   1.0000   1.0000
     1.0000   1.0000   1.0000   1.0000   1.0000   1.0000   1.0000   1.0000
     1.0000   1.0000   1.0000   1.0000   1.0000   1.0000   1.0000   1.0000
     1.0000   1.0000   1.0000   1.0000   1.0000   1.0000   1.0000   1.0000
     1.0000   1.0000   1.0000   1.0000   1.0000   1.0000   1.0000   1.0000
     1.0000   1.0000   1.0000   1.0000   1.0000   1.0000   1.0000   1.0000
     1.0000   1.0000   1.0000   1.0000   1.0000   1.0000   1.0000   1.0000
     1.0000   1.0000   1.0000   1.0000   1.0215  -0.0333   0.0000   0.0000
     0.0000   0.0000   0.0000   0.0000   0.0000   0.0000   0.0000   0.0000
     0.0000   0.0000   0.0000   0.0000   0.0000   0.0000   0.0000   0.0000
     0.0000   0.0000   0.0000   0.0000   0.0000   0.0000   0.0000   0.0000
     0.0000   0.0000   0.0000   0.0000   0.0000   0.0000   0.0000   0.0000
     0.0000   0.0000   0.0000   0.0000   0.0000   0.0000   0.0000   0.0000
     0.0000   0.0000   0.0000   0.0000   0.0000   0.0000   0.0000   0.0000
     0.0000   0.0000   0.0000   0.0000   0.0000   0.0000   0.0000   0.0000
     0.0000   0.0000   0.0000   0.0000   0.0000   0.0000   0.0000   0.0000
     0.0000   0.0000   0.0000   0.0000   0.0000   0.0000   0.0000   0.0000

          k = 0.0000-0.4330 0.1533 ( 51269 PWs)   bands (ev):

    -6.3207  -6.1884  -6.1177  -6.0098  -5.9832  -5.9092  -5.8982  -5.8476
    -5.8277  -5.8184  -5.7941  -5.7163  -5.7155  -5.7100  -5.7065  -5.7033
    -5.6914  -5.6828  -5.6598  -5.6588  -5.6493  -5.6430  -5.6376  -5.6351
    -5.6305  -5.6280  -5.6209  -5.6055  -5.6027  -5.6018  -5.5981  -5.5968
    -5.5856  -5.5837  -5.5793  -5.5664  -5.5664  -5.5634  -5.5612  -5.5590
    -5.5563  -5.5495  -5.5462  -5.5461  -5.5418  -5.5418  -5.5386  -5.5356
    -5.5339  -5.5306  -5.5210  -5.4950  -5.4940  -4.2509  -4.1952  -4.1844
    -4.1836  -4.1795  -4.1785  -4.1747  -4.1710  -4.1698  -4.1662  -4.1635
    -4.1610  -4.1609  -4.1589  -4.1573  -4.1544  -4.1538  -4.1507  -4.1503
    -4.1494  -4.1489  -4.1453  -4.1451  -4.1440  -4.1431  -4.1430  -4.1416
    -4.1395  -4.1386  -4.1373  -4.1363  -4.1353  -4.1330  -4.1323  -4.1323
    -4.1312  -4.1297  -4.1286  -4.1263  -4.1249  -4.1244  -4.1223  -4.1212
    -4.1194  -4.1187  -4.1165  -4.1162  -4.1142  -4.1133  -4.1112  -4.1094
    -4.1092  -4.1085  -4.1082  -4.1054  -4.1047  -4.1025  -4.1018  -4.0988
    -4.0974  -4.0950  -4.0943  -4.0927  -4.0906  -4.0892  -4.0863  -4.0841
    -4.0837  -4.0803  -4.0792  -4.0763  -4.0756  -4.0733  -4.0733  -4.0717
    -4.0695  -4.0690  -4.0670  -4.0662  -4.0624  -4.0622  -4.0566  -4.0548
    -4.0540  -4.0469  -4.0447  -4.0434  -4.0395  -4.0390  -4.0380  -4.0326
    -4.0313  -4.0298  -4.0280  -4.0238  -4.0234  -4.0211  -4.0179  -4.0169
    -4.0141  -4.0116  -4.0109  -4.0077  -4.0066  -4.0064  -4.0061  -4.0044
    -4.0034  -4.0020  -4.0008  -3.9999  -3.9970  -3.9969  -3.9944  -3.9942
    -3.9926  -3.9909  -3.9899  -3.9892  -3.9876  -3.9848  -3.9847  -3.9842
    -3.9827  -3.9824  -3.9812  -3.9796  -3.9780  -3.9765  -3.9741  -3.9740
    -3.9726  -3.9714  -3.9697  -3.9687  -3.9687  -3.9666  -3.9648  -3.9633
    -3.9597  -3.9588  -3.9586  -3.9569  -3.9556  -3.9555  -3.9540  -3.9534
    -3.9508  -3.9503  -3.9497  -3.9480  -3.9447  -3.9430  -3.9421  -3.9385
    -3.9384  -3.9369  -3.9366  -3.9326  -3.9311  -3.9308  -3.9271  -3.9262
    -3.9233  -3.9226  -3.9211  -3.9194  -3.9186  -3.9184  -3.9168  -3.9167
    -3.9127  -3.9120  -3.9100  -3.9099  -3.9083  -3.9072  -3.9063  -3.9061
    -3.9038  -3.9011  -3.9001  -3.8998  -3.8985  -3.8975  -3.8968  -3.8963
    -3.8954  -3.8941  -3.8933  -3.8914  -3.8900  -3.8894  -3.8884  -3.8850
    -3.8827  -3.8816  -3.8815  -3.8784  -3.8767  -3.8732  -3.8680  -3.8675
    -3.8666  -3.8639  -3.8580  -3.8497  -3.8475  -3.8421  -3.8389  -3.8292
    -3.8174  -3.7881  -3.7834  -3.7685  -3.7560  -3.7445  -3.7433  -3.7329
    -3.7240  -3.6781  -3.6648  -3.6416  -3.6273  -3.6146  -3.5608  -3.5545
    -3.4896  -3.3438  -3.3292  -3.2812  -3.0476  -3.0394  -3.0062  -2.9826
    -2.9768  -2.9529  -2.9219  -2.8148  -2.8037  -2.7688  -2.7619  -2.7255
    -2.6678  -2.6555  -2.6188  -2.5983  -2.5914  -2.5696  -2.5404  -2.5214
    -2.5031  -2.4950  -2.4634  -2.4550  -2.4222  -2.3594  -2.2920  -2.2801
    -2.2564  -2.2214  -2.2136  -2.2060  -2.1651  -2.1425  -2.1242  -2.0729
    -2.0413  -2.0285  -2.0181  -0.1266   2.7180   2.7556   2.7790   2.9492
     3.0464   3.0819   3.1105   3.1238   3.1341   3.1616   3.1718   3.1780
     3.2149   3.2201   3.2924   3.3024   3.3457   3.3664   3.3961   3.4087
     3.4324   3.4529   3.5188   3.5523   3.5636   3.6199   3.6862   3.7168
     3.7680   3.7804   3.7932   4.0202   4.0276   4.0895   4.1277   4.1480
     4.1893   4.2361   4.3725   4.4079   4.6319   4.7291   4.7447   4.8018
     5.1001   5.1072   5.1832   5.1911   5.2274   5.2286   5.2325   5.2421
     5.2722   5.2948   5.3213   5.5396   5.6453   5.6567   5.7196   5.7385
     5.7686   5.7964   5.8282   5.8381   5.9210   5.9241   6.0102   6.0223
     6.0931   6.1616   6.1635   6.1762   6.2014   6.2266   6.4388   6.4493
     6.4593   6.4872   6.4992   6.5330   6.5808   6.6743   6.7702   6.7813
     6.8035   6.8078   6.8749   6.8985   6.8994   6.9366   6.9497   6.9616
     6.9807   6.9816   7.0060   7.0407   7.1062   7.1313   7.1878   7.2034
     7.2135   7.2180   7.2297   7.2368   7.2659   7.2679   7.3106   7.3628
     7.4083   7.4409   7.4922   7.4960   7.5397   7.5825   7.6018   7.6107
     7.6140   7.6439   7.6498   7.6699   7.6752   7.6926   7.7346   7.7633
     7.8020   7.8211   7.8411   7.8475   7.8488   7.8581   7.8622   7.8946
     7.9125   7.9374   7.9481   7.9901   7.9917   8.0149   8.0233   8.0796
     8.1148   8.1623   8.1737   8.2663   8.2772   8.3022   8.3522   8.3593
     8.3691   8.3916   8.4402   8.4957   8.5241   8.6789   8.6789   8.7721
     8.7938   8.9020   8.9361   9.0336   9.1781   9.3412  12.1857  12.8430
    13.0320  13.3589  13.3776  13.4891  13.6540  13.9218  13.9606  13.9612
    13.9873  13.9947  14.0283  14.0620  14.0772  14.0903  14.1266  14.1675
    14.1836  14.2314  14.2945  14.3300  14.3433  14.3829  14.4854  14.6519
    14.6633  14.6658  14.6751  14.6781  14.7073  14.7189  14.7407  14.8318
    14.8341  14.8582  14.9414  15.0298  15.0437  15.1102  15.1708  15.2714
    15.2882  15.3544  15.3830  15.4529  15.6333  15.6457  15.6548  15.6707
    15.7141  15.7652  15.7866  15.7955  15.8330  15.8557  16.0674  16.2446
    16.2547  16.2698  16.2896  16.2977  16.3467  16.4186  16.4443  16.5200
    16.5246  16.5672  16.5724  16.5954  16.6253  16.6599  16.7003  16.7653

     occupation numbers 
     1.0000   1.0000   1.0000   1.0000   1.0000   1.0000   1.0000   1.0000
     1.0000   1.0000   1.0000   1.0000   1.0000   1.0000   1.0000   1.0000
     1.0000   1.0000   1.0000   1.0000   1.0000   1.0000   1.0000   1.0000
     1.0000   1.0000   1.0000   1.0000   1.0000   1.0000   1.0000   1.0000
     1.0000   1.0000   1.0000   1.0000   1.0000   1.0000   1.0000   1.0000
     1.0000   1.0000   1.0000   1.0000   1.0000   1.0000   1.0000   1.0000
     1.0000   1.0000   1.0000   1.0000   1.0000   1.0000   1.0000   1.0000
     1.0000   1.0000   1.0000   1.0000   1.0000   1.0000   1.0000   1.0000
     1.0000   1.0000   1.0000   1.0000   1.0000   1.0000   1.0000   1.0000
     1.0000   1.0000   1.0000   1.0000   1.0000   1.0000   1.0000   1.0000
     1.0000   1.0000   1.0000   1.0000   1.0000   1.0000   1.0000   1.0000
     1.0000   1.0000   1.0000   1.0000   1.0000   1.0000   1.0000   1.0000
     1.0000   1.0000   1.0000   1.0000   1.0000   1.0000   1.0000   1.0000
     1.0000   1.0000   1.0000   1.0000   1.0000   1.0000   1.0000   1.0000
     1.0000   1.0000   1.0000   1.0000   1.0000   1.0000   1.0000   1.0000
     1.0000   1.0000   1.0000   1.0000   1.0000   1.0000   1.0000   1.0000
     1.0000   1.0000   1.0000   1.0000   1.0000   1.0000   1.0000   1.0000
     1.0000   1.0000   1.0000   1.0000   1.0000   1.0000   1.0000   1.0000
     1.0000   1.0000   1.0000   1.0000   1.0000   1.0000   1.0000   1.0000
     1.0000   1.0000   1.0000   1.0000   1.0000   1.0000   1.0000   1.0000
     1.0000   1.0000   1.0000   1.0000   1.0000   1.0000   1.0000   1.0000
     1.0000   1.0000   1.0000   1.0000   1.0000   1.0000   1.0000   1.0000
     1.0000   1.0000   1.0000   1.0000   1.0000   1.0000   1.0000   1.0000
     1.0000   1.0000   1.0000   1.0000   1.0000   1.0000   1.0000   1.0000
     1.0000   1.0000   1.0000   1.0000   1.0000   1.0000   1.0000   1.0000
     1.0000   1.0000   1.0000   1.0000   1.0000   1.0000   1.0000   1.0000
     1.0000   1.0000   1.0000   1.0000   1.0000   1.0000   1.0000   1.0000
     1.0000   1.0000   1.0000   1.0000   1.0000   1.0000   1.0000   1.0000
     1.0000   1.0000   1.0000   1.0000   1.0000   1.0000   1.0000   1.0000
     1.0000   1.0000   1.0000   1.0000   1.0000   1.0000   1.0000   1.0000
     1.0000   1.0000   1.0000   1.0000   1.0000   1.0000   1.0000   1.0000
     1.0000   1.0000   1.0000   1.0000   1.0000   1.0000   1.0000   1.0000
     1.0000   1.0000   1.0000   1.0000   1.0000   1.0000   1.0000   1.0000
     1.0000   1.0000   1.0000   1.0000   1.0000   1.0000   1.0000   1.0000
     1.0000   1.0000   1.0000   1.0000   1.0000   1.0000   1.0000   1.0000
     1.0000   1.0000   1.0000   1.0000   1.0000   1.0000   1.0000   1.0000
     1.0000   1.0000   1.0000   1.0000   1.0000   1.0000   1.0000   1.0000
     1.0000   1.0000   1.0000   1.0000   1.0000   1.0000   1.0000   1.0000
     1.0000   1.0000   1.0000   1.0000   1.0000   1.0000   1.0000   1.0000
     1.0000   1.0000   1.0000   1.0000   1.0000   1.0000   1.0000   1.0000
     1.0000   1.0000   1.0000   1.0000   1.0000   1.0000   1.0000   1.0000
     1.0000   1.0000   1.0000   1.0000   1.0000   1.0000   1.0000   1.0000
     1.0000   1.0000   1.0000   1.0000   1.0000   1.0000   1.0000   1.0000
     1.0000   1.0000   1.0000   1.0000   1.0000   1.0000   1.0000   1.0000
     1.0000   1.0000   1.0000   1.0000   1.0000   1.0000   1.0000   1.0000
     1.0000   1.0000   1.0000   1.0000   1.0000   1.0000   1.0000   1.0000
     1.0000   1.0000   1.0000   1.0000   1.0000   1.0000   1.0000   1.0000
     1.0000   1.0000   1.0000   1.0000   1.0000   1.0000   1.0000   1.0000
     1.0000   1.0000   1.0000   1.0000   1.0000   1.0000   1.0000   1.0000
     1.0000   1.0000   1.0000   1.0000   1.0000   1.0000   1.0000   1.0000
     1.0000   1.0000   1.0000   1.0000   1.0000   1.0000   1.0000   1.0000
     1.0000   1.0000   1.0000   1.0000   1.0000   1.0000   1.0000   1.0000
     1.0000   1.0000   1.0000   1.0000   1.0000   1.0000   1.0000   1.0000
     1.0000   1.0000   1.0000   1.0000   1.0000   1.0000   1.0000   1.0000
     1.0000   1.0000   1.0000   1.0000   1.0000   1.0000   1.0000   1.0000
     1.0000   1.0000   1.0000   1.0000   1.0000   1.0000   1.0000   1.0000
     1.0000   1.0000   1.0000   1.0000   1.0000   1.0000   1.0000   1.0000
     1.0000   1.0000   1.0000   1.0000   1.0000   1.0000   1.0000   1.0000
     1.0000   1.0000   1.0000   1.0000   1.0000   1.0000   1.0000   1.0000
     1.0000   1.0000   1.0000   1.0000   1.0000   1.0000   1.0000   1.0000
     1.0000   1.0000   1.0000   1.0000   1.0000   0.5087   0.0000   0.0000
     0.0000   0.0000   0.0000   0.0000   0.0000   0.0000   0.0000   0.0000
     0.0000   0.0000   0.0000   0.0000   0.0000   0.0000   0.0000   0.0000
     0.0000   0.0000   0.0000   0.0000   0.0000   0.0000   0.0000   0.0000
     0.0000   0.0000   0.0000   0.0000   0.0000   0.0000   0.0000   0.0000
     0.0000   0.0000   0.0000   0.0000   0.0000   0.0000   0.0000   0.0000
     0.0000   0.0000   0.0000   0.0000   0.0000   0.0000   0.0000   0.0000
     0.0000   0.0000   0.0000   0.0000   0.0000   0.0000   0.0000   0.0000
     0.0000   0.0000   0.0000   0.0000   0.0000   0.0000   0.0000   0.0000
     0.0000   0.0000   0.0000   0.0000   0.0000   0.0000   0.0000   0.0000

          k =-0.1250-0.3608 0.1533 ( 51279 PWs)   bands (ev):

    -6.3491  -6.2131  -6.0584  -6.0070  -5.9806  -5.9516  -5.8867  -5.8244
    -5.8138  -5.8047  -5.7619  -5.7572  -5.7458  -5.7052  -5.7016  -5.6992
    -5.6903  -5.6844  -5.6647  -5.6594  -5.6576  -5.6499  -5.6432  -5.6300
    -5.6278  -5.6213  -5.6175  -5.6043  -5.6006  -5.5982  -5.5953  -5.5922
    -5.5913  -5.5800  -5.5764  -5.5730  -5.5680  -5.5638  -5.5598  -5.5569
    -5.5527  -5.5508  -5.5477  -5.5467  -5.5431  -5.5419  -5.5395  -5.5361
    -5.5346  -5.5294  -5.5213  -5.4954  -5.4940  -4.2513  -4.1980  -4.1873
    -4.1860  -4.1825  -4.1810  -4.1740  -4.1728  -4.1707  -4.1636  -4.1633
    -4.1621  -4.1606  -4.1580  -4.1572  -4.1556  -4.1542  -4.1531  -4.1519
    -4.1517  -4.1497  -4.1488  -4.1473  -4.1458  -4.1440  -4.1431  -4.1426
    -4.1418  -4.1395  -4.1391  -4.1380  -4.1354  -4.1338  -4.1331  -4.1317
    -4.1308  -4.1295  -4.1280  -4.1270  -4.1254  -4.1242  -4.1225  -4.1221
    -4.1209  -4.1200  -4.1181  -4.1151  -4.1145  -4.1135  -4.1116  -4.1106
    -4.1100  -4.1081  -4.1076  -4.1044  -4.1039  -4.1019  -4.0996  -4.0975
    -4.0962  -4.0938  -4.0917  -4.0908  -4.0887  -4.0872  -4.0853  -4.0830
    -4.0819  -4.0797  -4.0773  -4.0759  -4.0750  -4.0737  -4.0725  -4.0690
    -4.0677  -4.0641  -4.0630  -4.0612  -4.0596  -4.0571  -4.0544  -4.0527
    -4.0505  -4.0493  -4.0444  -4.0434  -4.0396  -4.0376  -4.0337  -4.0319
    -4.0298  -4.0288  -4.0261  -4.0235  -4.0217  -4.0179  -4.0160  -4.0151
    -4.0125  -4.0117  -4.0110  -4.0087  -4.0080  -4.0066  -4.0057  -4.0041
    -4.0028  -4.0010  -3.9998  -3.9985  -3.9984  -3.9967  -3.9956  -3.9949
    -3.9927  -3.9908  -3.9897  -3.9879  -3.9872  -3.9847  -3.9838  -3.9832
    -3.9823  -3.9809  -3.9797  -3.9774  -3.9761  -3.9756  -3.9745  -3.9730
    -3.9720  -3.9707  -3.9701  -3.9692  -3.9683  -3.9666  -3.9658  -3.9649
    -3.9632  -3.9606  -3.9601  -3.9581  -3.9574  -3.9553  -3.9536  -3.9516
    -3.9492  -3.9480  -3.9467  -3.9452  -3.9439  -3.9421  -3.9412  -3.9409
    -3.9380  -3.9355  -3.9342  -3.9326  -3.9308  -3.9291  -3.9283  -3.9261
    -3.9242  -3.9233  -3.9225  -3.9212  -3.9195  -3.9185  -3.9174  -3.9158
    -3.9152  -3.9123  -3.9116  -3.9100  -3.9088  -3.9072  -3.9058  -3.9045
    -3.9036  -3.9025  -3.9006  -3.8999  -3.8992  -3.8978  -3.8973  -3.8961
    -3.8949  -3.8931  -3.8920  -3.8912  -3.8893  -3.8883  -3.8864  -3.8849
    -3.8835  -3.8818  -3.8778  -3.8769  -3.8762  -3.8716  -3.8705  -3.8672
    -3.8620  -3.8586  -3.8572  -3.8494  -3.8457  -3.8422  -3.8396  -3.8216
    -3.8129  -3.7998  -3.7820  -3.7772  -3.7604  -3.7477  -3.7421  -3.7367
    -3.7325  -3.7244  -3.6842  -3.6316  -3.6222  -3.5655  -3.5218  -3.4889
    -3.4631  -3.3783  -3.2749  -3.2083  -3.1781  -3.1503  -3.0939  -3.0327
    -2.9799  -2.9577  -2.9055  -2.8823  -2.8216  -2.7961  -2.7369  -2.7219
    -2.6770  -2.6632  -2.6463  -2.6314  -2.6066  -2.5728  -2.5078  -2.4886
    -2.4676  -2.4579  -2.4230  -2.3991  -2.3633  -2.3354  -2.2981  -2.2873
    -2.2643  -2.2550  -2.2436  -2.1725  -2.1363  -2.1170  -2.1113  -2.0929
    -2.0756  -2.0588  -2.0015  -0.1275   2.6753   2.8371   2.8770   2.9703
     3.0170   3.0281   3.0435   3.1182   3.1442   3.1572   3.2010   3.2340
     3.2463   3.2876   3.3166   3.3407   3.3729   3.3787   3.4261   3.4553
     3.4897   3.5108   3.5385   3.5882   3.6047   3.6771   3.7180   3.7292
     3.7814   3.8012   3.8607   3.8990   3.9217   4.0716   4.1170   4.1692
     4.2730   4.3347   4.3695   4.4139   4.5440   4.6138   4.7534   4.8115
     4.8795   4.9545   5.0232   5.0517   5.1125   5.1398   5.1714   5.1946
     5.2351   5.3189   5.4119   5.4488   5.4804   5.5490   5.6019   5.7185
     5.7432   5.8010   5.8193   5.8807   5.8912   5.9479   5.9782   6.0224
     6.0710   6.1100   6.1204   6.1973   6.3212   6.3467   6.4304   6.4646
     6.5186   6.5719   6.5901   6.6058   6.6212   6.6495   6.6625   6.6712
     6.6908   6.7056   6.7308   6.7610   6.8127   6.8392   6.8848   6.9081
     6.9766   6.9898   7.0323   7.0770   7.1378   7.1806   7.2217   7.2292
     7.2396   7.2811   7.2974   7.3297   7.3591   7.3986   7.4128   7.4310
     7.4550   7.4837   7.4956   7.5038   7.5321   7.5588   7.5778   7.6034
     7.6443   7.6796   7.6860   7.7033   7.7309   7.7456   7.7792   7.7846
     7.8210   7.8360   7.8529   7.8593   7.8740   7.8937   7.9090   7.9213
     7.9546   7.9644   7.9907   8.0194   8.0404   8.0506   8.0934   8.1135
     8.1685   8.1907   8.2112   8.2242   8.2497   8.3027   8.3180   8.3580
     8.4067   8.4550   8.4875   8.5282   8.5801   8.6235   8.6859   8.7291
     8.8147   8.8571   8.9969   9.0413   9.1980   9.3334  12.0335  12.7413
    13.2674  13.4736  13.4958  13.5501  13.5666  13.6083  13.7061  13.7460
    13.7978  14.0315  14.0463  14.0636  14.0789  14.0967  14.1135  14.1524
    14.1819  14.2180  14.2487  14.2912  14.3222  14.3732  14.4477  14.4969
    14.5581  14.6231  14.6522  14.6956  14.7408  14.7933  14.8204  14.8442
    14.8669  14.9123  14.9268  14.9858  15.0453  15.0800  15.1148  15.1787
    15.2265  15.3234  15.3901  15.4267  15.4702  15.5512  15.5732  15.6162
    15.6496  15.6878  15.7340  15.8258  15.9510  15.9613  16.0263  16.1351
    16.1902  16.2233  16.3479  16.3818  16.3980  16.4378  16.4929  16.5042
    16.5176  16.5462  16.5551  16.6521  16.6901  16.7015  16.7285  16.7418

     occupation numbers 
     1.0000   1.0000   1.0000   1.0000   1.0000   1.0000   1.0000   1.0000
     1.0000   1.0000   1.0000   1.0000   1.0000   1.0000   1.0000   1.0000
     1.0000   1.0000   1.0000   1.0000   1.0000   1.0000   1.0000   1.0000
     1.0000   1.0000   1.0000   1.0000   1.0000   1.0000   1.0000   1.0000
     1.0000   1.0000   1.0000   1.0000   1.0000   1.0000   1.0000   1.0000
     1.0000   1.0000   1.0000   1.0000   1.0000   1.0000   1.0000   1.0000
     1.0000   1.0000   1.0000   1.0000   1.0000   1.0000   1.0000   1.0000
     1.0000   1.0000   1.0000   1.0000   1.0000   1.0000   1.0000   1.0000
     1.0000   1.0000   1.0000   1.0000   1.0000   1.0000   1.0000   1.0000
     1.0000   1.0000   1.0000   1.0000   1.0000   1.0000   1.0000   1.0000
     1.0000   1.0000   1.0000   1.0000   1.0000   1.0000   1.0000   1.0000
     1.0000   1.0000   1.0000   1.0000   1.0000   1.0000   1.0000   1.0000
     1.0000   1.0000   1.0000   1.0000   1.0000   1.0000   1.0000   1.0000
     1.0000   1.0000   1.0000   1.0000   1.0000   1.0000   1.0000   1.0000
     1.0000   1.0000   1.0000   1.0000   1.0000   1.0000   1.0000   1.0000
     1.0000   1.0000   1.0000   1.0000   1.0000   1.0000   1.0000   1.0000
     1.0000   1.0000   1.0000   1.0000   1.0000   1.0000   1.0000   1.0000
     1.0000   1.0000   1.0000   1.0000   1.0000   1.0000   1.0000   1.0000
     1.0000   1.0000   1.0000   1.0000   1.0000   1.0000   1.0000   1.0000
     1.0000   1.0000   1.0000   1.0000   1.0000   1.0000   1.0000   1.0000
     1.0000   1.0000   1.0000   1.0000   1.0000   1.0000   1.0000   1.0000
     1.0000   1.0000   1.0000   1.0000   1.0000   1.0000   1.0000   1.0000
     1.0000   1.0000   1.0000   1.0000   1.0000   1.0000   1.0000   1.0000
     1.0000   1.0000   1.0000   1.0000   1.0000   1.0000   1.0000   1.0000
     1.0000   1.0000   1.0000   1.0000   1.0000   1.0000   1.0000   1.0000
     1.0000   1.0000   1.0000   1.0000   1.0000   1.0000   1.0000   1.0000
     1.0000   1.0000   1.0000   1.0000   1.0000   1.0000   1.0000   1.0000
     1.0000   1.0000   1.0000   1.0000   1.0000   1.0000   1.0000   1.0000
     1.0000   1.0000   1.0000   1.0000   1.0000   1.0000   1.0000   1.0000
     1.0000   1.0000   1.0000   1.0000   1.0000   1.0000   1.0000   1.0000
     1.0000   1.0000   1.0000   1.0000   1.0000   1.0000   1.0000   1.0000
     1.0000   1.0000   1.0000   1.0000   1.0000   1.0000   1.0000   1.0000
     1.0000   1.0000   1.0000   1.0000   1.0000   1.0000   1.0000   1.0000
     1.0000   1.0000   1.0000   1.0000   1.0000   1.0000   1.0000   1.0000
     1.0000   1.0000   1.0000   1.0000   1.0000   1.0000   1.0000   1.0000
     1.0000   1.0000   1.0000   1.0000   1.0000   1.0000   1.0000   1.0000
     1.0000   1.0000   1.0000   1.0000   1.0000   1.0000   1.0000   1.0000
     1.0000   1.0000   1.0000   1.0000   1.0000   1.0000   1.0000   1.0000
     1.0000   1.0000   1.0000   1.0000   1.0000   1.0000   1.0000   1.0000
     1.0000   1.0000   1.0000   1.0000   1.0000   1.0000   1.0000   1.0000
     1.0000   1.0000   1.0000   1.0000   1.0000   1.0000   1.0000   1.0000
     1.0000   1.0000   1.0000   1.0000   1.0000   1.0000   1.0000   1.0000
     1.0000   1.0000   1.0000   1.0000   1.0000   1.0000   1.0000   1.0000
     1.0000   1.0000   1.0000   1.0000   1.0000   1.0000   1.0000   1.0000
     1.0000   1.0000   1.0000   1.0000   1.0000   1.0000   1.0000   1.0000
     1.0000   1.0000   1.0000   1.0000   1.0000   1.0000   1.0000   1.0000
     1.0000   1.0000   1.0000   1.0000   1.0000   1.0000   1.0000   1.0000
     1.0000   1.0000   1.0000   1.0000   1.0000   1.0000   1.0000   1.0000
     1.0000   1.0000   1.0000   1.0000   1.0000   1.0000   1.0000   1.0000
     1.0000   1.0000   1.0000   1.0000   1.0000   1.0000   1.0000   1.0000
     1.0000   1.0000   1.0000   1.0000   1.0000   1.0000   1.0000   1.0000
     1.0000   1.0000   1.0000   1.0000   1.0000   1.0000   1.0000   1.0000
     1.0000   1.0000   1.0000   1.0000   1.0000   1.0000   1.0000   1.0000
     1.0000   1.0000   1.0000   1.0000   1.0000   1.0000   1.0000   1.0000
     1.0000   1.0000   1.0000   1.0000   1.0000   1.0000   1.0000   1.0000
     1.0000   1.0000   1.0000   1.0000   1.0000   1.0000   1.0000   1.0000
     1.0000   1.0000   1.0000   1.0000   1.0000   1.0000   1.0000   1.0000
     1.0000   1.0000   1.0000   1.0000   1.0000   1.0000   1.0000   1.0000
     1.0000   1.0000   1.0000   1.0000   1.0000   1.0000   1.0000   1.0000
     1.0000   1.0000   1.0000   1.0000   1.0000   1.0000   1.0000   1.0000
     1.0000   1.0000   1.0000   1.0000   1.0000   0.5064   0.0000   0.0000
     0.0000   0.0000   0.0000   0.0000   0.0000   0.0000   0.0000   0.0000
     0.0000   0.0000   0.0000   0.0000   0.0000   0.0000   0.0000   0.0000
     0.0000   0.0000   0.0000   0.0000   0.0000   0.0000   0.0000   0.0000
     0.0000   0.0000   0.0000   0.0000   0.0000   0.0000   0.0000   0.0000
     0.0000   0.0000   0.0000   0.0000   0.0000   0.0000   0.0000   0.0000
     0.0000   0.0000   0.0000   0.0000   0.0000   0.0000   0.0000   0.0000
     0.0000   0.0000   0.0000   0.0000   0.0000   0.0000   0.0000   0.0000
     0.0000   0.0000   0.0000   0.0000   0.0000   0.0000   0.0000   0.0000
     0.0000   0.0000   0.0000   0.0000   0.0000   0.0000   0.0000   0.0000

          k =-0.1250-0.5052 0.1533 ( 51231 PWs)   bands (ev):

    -6.2668  -6.1662  -6.1368  -6.0476  -5.9964  -5.9462  -5.9026  -5.8740
    -5.8272  -5.7773  -5.7694  -5.7578  -5.7269  -5.7071  -5.6833  -5.6789
    -5.6742  -5.6696  -5.6641  -5.6606  -5.6561  -5.6481  -5.6429  -5.6388
    -5.6347  -5.6302  -5.6174  -5.6128  -5.6068  -5.6039  -5.6005  -5.5940
    -5.5891  -5.5825  -5.5764  -5.5724  -5.5681  -5.5644  -5.5599  -5.5574
    -5.5516  -5.5486  -5.5456  -5.5442  -5.5427  -5.5415  -5.5374  -5.5356
    -5.5339  -5.5322  -5.5204  -5.4953  -5.4933  -4.2501  -4.1897  -4.1806
    -4.1795  -4.1760  -4.1756  -4.1732  -4.1681  -4.1675  -4.1658  -4.1641
    -4.1630  -4.1602  -4.1574  -4.1568  -4.1537  -4.1518  -4.1513  -4.1502
    -4.1493  -4.1478  -4.1465  -4.1457  -4.1445  -4.1433  -4.1422  -4.1410
    -4.1390  -4.1383  -4.1373  -4.1357  -4.1351  -4.1340  -4.1313  -4.1307
    -4.1292  -4.1273  -4.1264  -4.1247  -4.1230  -4.1221  -4.1218  -4.1203
    -4.1191  -4.1174  -4.1151  -4.1142  -4.1133  -4.1120  -4.1108  -4.1103
    -4.1089  -4.1082  -4.1072  -4.1057  -4.1046  -4.1028  -4.1022  -4.1016
    -4.1000  -4.0983  -4.0970  -4.0944  -4.0924  -4.0912  -4.0877  -4.0872
    -4.0849  -4.0824  -4.0809  -4.0795  -4.0781  -4.0770  -4.0759  -4.0740
    -4.0718  -4.0680  -4.0662  -4.0645  -4.0637  -4.0627  -4.0598  -4.0569
    -4.0553  -4.0520  -4.0466  -4.0429  -4.0403  -4.0380  -4.0371  -4.0345
    -4.0326  -4.0316  -4.0279  -4.0257  -4.0245  -4.0237  -4.0212  -4.0186
    -4.0158  -4.0144  -4.0122  -4.0107  -4.0098  -4.0086  -4.0070  -4.0065
    -4.0050  -4.0037  -4.0007  -4.0003  -3.9983  -3.9968  -3.9957  -3.9947
    -3.9942  -3.9922  -3.9912  -3.9906  -3.9884  -3.9862  -3.9848  -3.9841
    -3.9832  -3.9821  -3.9798  -3.9791  -3.9771  -3.9760  -3.9754  -3.9738
    -3.9733  -3.9711  -3.9704  -3.9693  -3.9677  -3.9663  -3.9659  -3.9641
    -3.9623  -3.9606  -3.9598  -3.9591  -3.9572  -3.9556  -3.9549  -3.9520
    -3.9494  -3.9478  -3.9461  -3.9458  -3.9444  -3.9417  -3.9402  -3.9397
    -3.9388  -3.9358  -3.9339  -3.9327  -3.9303  -3.9295  -3.9278  -3.9253
    -3.9240  -3.9232  -3.9213  -3.9203  -3.9184  -3.9173  -3.9158  -3.9140
    -3.9132  -3.9122  -3.9110  -3.9096  -3.9089  -3.9076  -3.9062  -3.9053
    -3.9041  -3.9027  -3.9014  -3.8995  -3.8991  -3.8980  -3.8966  -3.8960
    -3.8954  -3.8945  -3.8937  -3.8907  -3.8897  -3.8890  -3.8870  -3.8859
    -3.8842  -3.8826  -3.8813  -3.8798  -3.8759  -3.8731  -3.8698  -3.8675
    -3.8662  -3.8645  -3.8612  -3.8563  -3.8482  -3.8418  -3.8389  -3.8230
    -3.8132  -3.7994  -3.7853  -3.7773  -3.7643  -3.7513  -3.7455  -3.7409
    -3.7331  -3.7251  -3.6977  -3.6797  -3.6250  -3.6192  -3.5114  -3.4876
    -3.4431  -3.3993  -3.3302  -3.1791  -3.1256  -3.0814  -2.9829  -2.9547
    -2.8806  -2.8522  -2.8316  -2.8150  -2.7987  -2.7794  -2.7422  -2.7197
    -2.6706  -2.6634  -2.6463  -2.6162  -2.5986  -2.5839  -2.5487  -2.5331
    -2.5007  -2.4669  -2.4530  -2.4197  -2.4100  -2.3876  -2.3428  -2.3110
    -2.2821  -2.2492  -2.2062  -2.1841  -2.1711  -2.1510  -2.1277  -2.0966
    -2.0700  -2.0246  -1.9934  -0.1256   2.7275   2.7422   2.8050   2.9305
     2.9554   2.9642   2.9706   2.9924   3.0127   3.0462   3.1525   3.2157
     3.2353   3.2557   3.2685   3.2848   3.2989   3.3198   3.3834   3.4627
     3.5018   3.5232   3.5420   3.5727   3.5793   3.6475   3.6815   3.7043
     3.7174   3.7638   3.8056   3.9533   3.9828   4.0282   4.1285   4.1649
     4.1931   4.2666   4.4252   4.4485   4.4894   4.6819   4.7713   4.9149
     5.0969   5.1520   5.2287   5.2489   5.2710   5.3058   5.3251   5.3457
     5.4854   5.5174   5.5999   5.6832   5.6924   5.7483   5.7946   5.8131
     5.8456   5.8831   5.9017   5.9265   5.9607   5.9701   6.0510   6.0974
     6.1259   6.1568   6.2394   6.2617   6.3126   6.3210   6.3515   6.3739
     6.4253   6.4877   6.5128   6.5370   6.5563   6.5825   6.5996   6.7335
     6.7604   6.7801   6.7997   6.8774   6.8865   6.9057   6.9096   6.9223
     6.9571   6.9742   7.0331   7.0998   7.1636   7.1787   7.1917   7.2136
     7.2330   7.2357   7.2444   7.2604   7.2695   7.2847   7.2951   7.3229
     7.3468   7.3697   7.3945   7.4177   7.4344   7.4605   7.4906   7.5208
     7.5645   7.5830   7.6255   7.6486   7.6793   7.7001   7.7210   7.7354
     7.7626   7.7836   7.8020   7.8124   7.8357   7.8418   7.8447   7.8573
     7.8692   7.8845   7.9094   7.9371   7.9568   7.9636   7.9753   8.0185
     8.0511   8.1105   8.1322   8.1724   8.2203   8.2376   8.3167   8.3344
     8.3618   8.4460   8.4817   8.5263   8.5810   8.6222   8.7122   8.7538
     8.7799   8.8769   8.9208   8.9738   9.1592   9.2764  12.4582  12.8798
    13.0330  13.3011  13.4271  13.5514  13.6058  13.7911  13.8217  13.9765
    13.9920  14.0190  14.0708  14.2749  14.2946  14.3204  14.3298  14.3717
    14.3853  14.4016  14.4033  14.4273  14.4467  14.4575  14.4889  14.5182
    14.5736  14.6445  14.6830  14.7074  14.7576  14.8019  14.8157  14.8660
    14.8973  14.9372  14.9649  15.0131  15.0458  15.0919  15.1144  15.1944
    15.2582  15.3531  15.5017  15.5453  15.5535  15.5767  15.5930  15.6185
    15.6301  15.6417  15.6713  15.7030  15.8169  15.9299  16.0094  16.0570
    16.2747  16.3479  16.4180  16.4213  16.4509  16.4785  16.5017  16.5164
    16.6211  16.6399  16.6548  16.6854  16.7059  16.7489  16.8041  16.8236

     occupation numbers 
     1.0000   1.0000   1.0000   1.0000   1.0000   1.0000   1.0000   1.0000
     1.0000   1.0000   1.0000   1.0000   1.0000   1.0000   1.0000   1.0000
     1.0000   1.0000   1.0000   1.0000   1.0000   1.0000   1.0000   1.0000
     1.0000   1.0000   1.0000   1.0000   1.0000   1.0000   1.0000   1.0000
     1.0000   1.0000   1.0000   1.0000   1.0000   1.0000   1.0000   1.0000
     1.0000   1.0000   1.0000   1.0000   1.0000   1.0000   1.0000   1.0000
     1.0000   1.0000   1.0000   1.0000   1.0000   1.0000   1.0000   1.0000
     1.0000   1.0000   1.0000   1.0000   1.0000   1.0000   1.0000   1.0000
     1.0000   1.0000   1.0000   1.0000   1.0000   1.0000   1.0000   1.0000
     1.0000   1.0000   1.0000   1.0000   1.0000   1.0000   1.0000   1.0000
     1.0000   1.0000   1.0000   1.0000   1.0000   1.0000   1.0000   1.0000
     1.0000   1.0000   1.0000   1.0000   1.0000   1.0000   1.0000   1.0000
     1.0000   1.0000   1.0000   1.0000   1.0000   1.0000   1.0000   1.0000
     1.0000   1.0000   1.0000   1.0000   1.0000   1.0000   1.0000   1.0000
     1.0000   1.0000   1.0000   1.0000   1.0000   1.0000   1.0000   1.0000
     1.0000   1.0000   1.0000   1.0000   1.0000   1.0000   1.0000   1.0000
     1.0000   1.0000   1.0000   1.0000   1.0000   1.0000   1.0000   1.0000
     1.0000   1.0000   1.0000   1.0000   1.0000   1.0000   1.0000   1.0000
     1.0000   1.0000   1.0000   1.0000   1.0000   1.0000   1.0000   1.0000
     1.0000   1.0000   1.0000   1.0000   1.0000   1.0000   1.0000   1.0000
     1.0000   1.0000   1.0000   1.0000   1.0000   1.0000   1.0000   1.0000
     1.0000   1.0000   1.0000   1.0000   1.0000   1.0000   1.0000   1.0000
     1.0000   1.0000   1.0000   1.0000   1.0000   1.0000   1.0000   1.0000
     1.0000   1.0000   1.0000   1.0000   1.0000   1.0000   1.0000   1.0000
     1.0000   1.0000   1.0000   1.0000   1.0000   1.0000   1.0000   1.0000
     1.0000   1.0000   1.0000   1.0000   1.0000   1.0000   1.0000   1.0000
     1.0000   1.0000   1.0000   1.0000   1.0000   1.0000   1.0000   1.0000
     1.0000   1.0000   1.0000   1.0000   1.0000   1.0000   1.0000   1.0000
     1.0000   1.0000   1.0000   1.0000   1.0000   1.0000   1.0000   1.0000
     1.0000   1.0000   1.0000   1.0000   1.0000   1.0000   1.0000   1.0000
     1.0000   1.0000   1.0000   1.0000   1.0000   1.0000   1.0000   1.0000
     1.0000   1.0000   1.0000   1.0000   1.0000   1.0000   1.0000   1.0000
     1.0000   1.0000   1.0000   1.0000   1.0000   1.0000   1.0000   1.0000
     1.0000   1.0000   1.0000   1.0000   1.0000   1.0000   1.0000   1.0000
     1.0000   1.0000   1.0000   1.0000   1.0000   1.0000   1.0000   1.0000
     1.0000   1.0000   1.0000   1.0000   1.0000   1.0000   1.0000   1.0000
     1.0000   1.0000   1.0000   1.0000   1.0000   1.0000   1.0000   1.0000
     1.0000   1.0000   1.0000   1.0000   1.0000   1.0000   1.0000   1.0000
     1.0000   1.0000   1.0000   1.0000   1.0000   1.0000   1.0000   1.0000
     1.0000   1.0000   1.0000   1.0000   1.0000   1.0000   1.0000   1.0000
     1.0000   1.0000   1.0000   1.0000   1.0000   1.0000   1.0000   1.0000
     1.0000   1.0000   1.0000   1.0000   1.0000   1.0000   1.0000   1.0000
     1.0000   1.0000   1.0000   1.0000   1.0000   1.0000   1.0000   1.0000
     1.0000   1.0000   1.0000   1.0000   1.0000   1.0000   1.0000   1.0000
     1.0000   1.0000   1.0000   1.0000   1.0000   1.0000   1.0000   1.0000
     1.0000   1.0000   1.0000   1.0000   1.0000   1.0000   1.0000   1.0000
     1.0000   1.0000   1.0000   1.0000   1.0000   1.0000   1.0000   1.0000
     1.0000   1.0000   1.0000   1.0000   1.0000   1.0000   1.0000   1.0000
     1.0000   1.0000   1.0000   1.0000   1.0000   1.0000   1.0000   1.0000
     1.0000   1.0000   1.0000   1.0000   1.0000   1.0000   1.0000   1.0000
     1.0000   1.0000   1.0000   1.0000   1.0000   1.0000   1.0000   1.0000
     1.0000   1.0000   1.0000   1.0000   1.0000   1.0000   1.0000   1.0000
     1.0000   1.0000   1.0000   1.0000   1.0000   1.0000   1.0000   1.0000
     1.0000   1.0000   1.0000   1.0000   1.0000   1.0000   1.0000   1.0000
     1.0000   1.0000   1.0000   1.0000   1.0000   1.0000   1.0000   1.0000
     1.0000   1.0000   1.0000   1.0000   1.0000   1.0000   1.0000   1.0000
     1.0000   1.0000   1.0000   1.0000   1.0000   1.0000   1.0000   1.0000
     1.0000   1.0000   1.0000   1.0000   1.0000   1.0000   1.0000   1.0000
     1.0000   1.0000   1.0000   1.0000   1.0000   1.0000   1.0000   1.0000
     1.0000   1.0000   1.0000   1.0000   1.0000   1.0000   1.0000   1.0000
     1.0000   1.0000   1.0000   1.0000   1.0000   1.0680   0.0000   0.0000
     0.0000   0.0000   0.0000   0.0000   0.0000   0.0000   0.0000   0.0000
     0.0000   0.0000   0.0000   0.0000   0.0000   0.0000   0.0000   0.0000
     0.0000   0.0000   0.0000   0.0000   0.0000   0.0000   0.0000   0.0000
     0.0000   0.0000   0.0000   0.0000   0.0000   0.0000   0.0000   0.0000
     0.0000   0.0000   0.0000   0.0000   0.0000   0.0000   0.0000   0.0000
     0.0000   0.0000   0.0000   0.0000   0.0000   0.0000   0.0000   0.0000
     0.0000   0.0000   0.0000   0.0000   0.0000   0.0000   0.0000   0.0000
     0.0000   0.0000   0.0000   0.0000   0.0000   0.0000   0.0000   0.0000
     0.0000   0.0000   0.0000   0.0000   0.0000   0.0000   0.0000   0.0000

 ------ SPIN DOWN ----------


          k = 0.0000 0.0000 0.0000 ( 51313 PWs)   bands (ev):

    -6.4737  -6.2109  -6.1909  -5.8497  -5.8417  -5.8417  -5.8302  -5.8302
    -5.8056  -5.7922  -5.7846  -5.7324  -5.7239  -5.7235  -5.7235  -5.7160
    -5.7160  -5.7125  -5.7125  -5.7035  -5.7035  -5.6976  -5.6757  -5.6514
    -5.5972  -5.5894  -5.5894  -5.5878  -5.5812  -5.5812  -5.5772  -5.5772
    -5.5765  -5.5749  -5.5749  -5.5732  -5.5696  -5.5691  -5.5691  -5.5628
    -5.5584  -5.5548  -5.5548  -5.5447  -5.5447  -5.5432  -5.5408  -5.5390
    -5.5390  -5.5289  -5.5265  -5.4962  -5.4962  -4.2549  -4.2095  -4.2017
    -4.2017  -4.1954  -4.1954  -4.1865  -4.1865  -4.1804  -4.1804  -4.1678
    -4.1678  -4.1665  -4.1631  -4.1631  -4.1628  -4.1591  -4.1591  -4.1530
    -4.1530  -4.1505  -4.1505  -4.1504  -4.1465  -4.1465  -4.1465  -4.1422
    -4.1422  -4.1413  -4.1411  -4.1411  -4.1401  -4.1371  -4.1371  -4.1329
    -4.1329  -4.1305  -4.1305  -4.1264  -4.1232  -4.1232  -4.1223  -4.1173
    -4.1173  -4.1088  -4.1088  -4.1084  -4.1066  -4.1045  -4.1045  -4.1044
    -4.1026  -4.1026  -4.1021  -4.1011  -4.1011  -4.0992  -4.0988  -4.0951
    -4.0951  -4.0925  -4.0925  -4.0902  -4.0810  -4.0810  -4.0801  -4.0799
    -4.0752  -4.0714  -4.0714  -4.0707  -4.0701  -4.0653  -4.0637  -4.0637
    -4.0582  -4.0542  -4.0542  -4.0442  -4.0442  -4.0432  -4.0417  -4.0411
    -4.0411  -4.0373  -4.0373  -4.0362  -4.0362  -4.0349  -4.0290  -4.0251
    -4.0251  -4.0213  -4.0169  -4.0169  -4.0119  -4.0119  -4.0099  -4.0092
    -4.0092  -4.0083  -4.0081  -4.0081  -4.0062  -4.0052  -4.0037  -4.0037
    -4.0018  -3.9997  -3.9997  -3.9976  -3.9976  -3.9971  -3.9971  -3.9964
    -3.9956  -3.9915  -3.9915  -3.9901  -3.9891  -3.9891  -3.9867  -3.9861
    -3.9850  -3.9850  -3.9800  -3.9800  -3.9782  -3.9724  -3.9724  -3.9673
    -3.9673  -3.9641  -3.9623  -3.9612  -3.9612  -3.9600  -3.9600  -3.9596
    -3.9572  -3.9572  -3.9569  -3.9559  -3.9559  -3.9547  -3.9545  -3.9545
    -3.9532  -3.9532  -3.9495  -3.9495  -3.9482  -3.9429  -3.9429  -3.9420
    -3.9420  -3.9418  -3.9350  -3.9350  -3.9340  -3.9340  -3.9313  -3.9309
    -3.9309  -3.9264  -3.9264  -3.9255  -3.9255  -3.9239  -3.9229  -3.9229
    -3.9220  -3.9219  -3.9165  -3.9163  -3.9163  -3.9144  -3.9101  -3.9063
    -3.9063  -3.9024  -3.9020  -3.9020  -3.9004  -3.9004  -3.8991  -3.8991
    -3.8949  -3.8949  -3.8936  -3.8886  -3.8886  -3.8852  -3.8835  -3.8835
    -3.8820  -3.8820  -3.8797  -3.8758  -3.8758  -3.8655  -3.8646  -3.8637
    -3.8637  -3.8629  -3.8629  -3.8509  -3.8509  -3.8444  -3.8309  -3.7909
    -3.7909  -3.7700  -3.7700  -3.7404  -3.7404  -3.7323  -3.7319  -3.6274
    -3.6274  -3.5285  -3.5119  -3.5119  -3.4968  -3.4968  -3.4705  -3.3997
    -3.3911  -3.3178  -3.3138  -3.3092  -3.3092  -3.3006  -3.3006  -3.2911
    -3.2911  -3.2753  -3.2704  -3.2704  -3.1076  -2.6418  -2.6354  -2.6335
    -2.6335  -2.6326  -2.6280  -2.6280  -2.6143  -2.6143  -2.6028  -2.6028
    -2.5889  -2.4576  -2.2117  -2.2112  -2.2105  -2.2105  -2.2003  -2.2003
    -2.1963  -2.1887  -2.1885  -2.1760  -2.1760  -2.1252  -2.1099  -2.1033
    -2.1033  -2.0795  -2.0795  -0.1317   2.3923   3.3534   3.3641   3.3641
     3.3678   3.3775   3.3806   3.3806   3.3937   3.4060   3.4082   3.4082
     3.4424   3.4424   3.4559   3.5060   3.5110   3.5110   3.5151   3.5177
     3.5177   3.5230   3.5230   3.6019   3.6053   3.6053   3.6580   3.9856
     3.9990   4.0161   4.0161   4.0320   4.0507   4.1773   4.1773   4.3745
     4.3753   4.3799   4.3799   4.3875   4.3875   4.3971   4.3971   4.4357
     4.4357   4.4357   4.4855   4.5214   4.5214   4.5549   4.5549   4.5770
     4.6612   4.6612   4.7061   4.7193   4.7193   5.3991   5.4032   5.4032
     5.4415   5.4415   5.5510   5.8551   5.8551   5.8821   5.8821   6.1522
     6.1539   6.1539   6.1598   6.1634   6.1634   6.1787   6.1787   6.2111
     6.2111   6.2150   6.2746   6.3710   6.3883   6.3883   6.4902   6.6474
     6.6474   6.9463   6.9532   6.9532   6.9737   6.9921   7.0174   7.0174
     7.0231   7.2900   7.3008   7.3008   7.3038   7.3072   7.3072   7.3144
     7.3260   7.3260   7.3398   7.4416   7.4416   7.4625   7.4867   7.4912
     7.4912   7.4959   7.5224   7.5224   7.5701   7.9604   7.9629   7.9629
     7.9675   7.9690   7.9690   7.9739   7.9739   8.0095   8.0134   8.0134
     8.0285   8.0344   8.0344   8.0348   8.0457   8.0457   8.0694   8.0763
     8.0763   8.0801   8.0868   8.0868   8.0961   8.1090   8.1113   8.1113
     8.2068   8.2068   8.3167   8.3167   8.4963   8.4963   8.5170   8.5198
     8.5198   8.5242   8.5242   8.5433   8.6858   8.7752   8.7752   9.0020
     9.0020   9.1477   9.1477   9.3189   9.4619   9.4619  11.0197  12.6879
    12.7176  13.3314  13.4651  13.4826  13.5436  13.5454  13.5454  13.5525
    13.5525  13.5527  13.5583  13.5583  13.5691  13.5691  13.5943  13.7548
    13.9571  13.9614  13.9614  14.0022  14.0022  14.1914  14.4497  14.4497
    14.6752  14.6752  14.6823  14.6825  14.6825  14.6863  14.6863  14.6865
    14.6980  14.6980  14.7515  14.7853  14.8341  14.8341  14.8572  14.8609
    14.8609  15.2051  15.6030  15.6030  15.6344  15.6344  15.8225  15.8429
    15.8429  15.8559  15.8738  15.8738  15.8738  15.9012  15.9012  15.9073
    15.9136  15.9136  16.0123  16.1308  16.3655  16.3896  16.3896  16.3930
    16.4061  16.4061  16.4316  16.4316  16.4566  16.4566  16.4967  16.5347

     occupation numbers 
     1.0000   1.0000   1.0000   1.0000   1.0000   1.0000   1.0000   1.0000
     1.0000   1.0000   1.0000   1.0000   1.0000   1.0000   1.0000   1.0000
     1.0000   1.0000   1.0000   1.0000   1.0000   1.0000   1.0000   1.0000
     1.0000   1.0000   1.0000   1.0000   1.0000   1.0000   1.0000   1.0000
     1.0000   1.0000   1.0000   1.0000   1.0000   1.0000   1.0000   1.0000
     1.0000   1.0000   1.0000   1.0000   1.0000   1.0000   1.0000   1.0000
     1.0000   1.0000   1.0000   1.0000   1.0000   1.0000   1.0000   1.0000
     1.0000   1.0000   1.0000   1.0000   1.0000   1.0000   1.0000   1.0000
     1.0000   1.0000   1.0000   1.0000   1.0000   1.0000   1.0000   1.0000
     1.0000   1.0000   1.0000   1.0000   1.0000   1.0000   1.0000   1.0000
     1.0000   1.0000   1.0000   1.0000   1.0000   1.0000   1.0000   1.0000
     1.0000   1.0000   1.0000   1.0000   1.0000   1.0000   1.0000   1.0000
     1.0000   1.0000   1.0000   1.0000   1.0000   1.0000   1.0000   1.0000
     1.0000   1.0000   1.0000   1.0000   1.0000   1.0000   1.0000   1.0000
     1.0000   1.0000   1.0000   1.0000   1.0000   1.0000   1.0000   1.0000
     1.0000   1.0000   1.0000   1.0000   1.0000   1.0000   1.0000   1.0000
     1.0000   1.0000   1.0000   1.0000   1.0000   1.0000   1.0000   1.0000
     1.0000   1.0000   1.0000   1.0000   1.0000   1.0000   1.0000   1.0000
     1.0000   1.0000   1.0000   1.0000   1.0000   1.0000   1.0000   1.0000
     1.0000   1.0000   1.0000   1.0000   1.0000   1.0000   1.0000   1.0000
     1.0000   1.0000   1.0000   1.0000   1.0000   1.0000   1.0000   1.0000
     1.0000   1.0000   1.0000   1.0000   1.0000   1.0000   1.0000   1.0000
     1.0000   1.0000   1.0000   1.0000   1.0000   1.0000   1.0000   1.0000
     1.0000   1.0000   1.0000   1.0000   1.0000   1.0000   1.0000   1.0000
     1.0000   1.0000   1.0000   1.0000   1.0000   1.0000   1.0000   1.0000
     1.0000   1.0000   1.0000   1.0000   1.0000   1.0000   1.0000   1.0000
     1.0000   1.0000   1.0000   1.0000   1.0000   1.0000   1.0000   1.0000
     1.0000   1.0000   1.0000   1.0000   1.0000   1.0000   1.0000   1.0000
     1.0000   1.0000   1.0000   1.0000   1.0000   1.0000   1.0000   1.0000
     1.0000   1.0000   1.0000   1.0000   1.0000   1.0000   1.0000   1.0000
     1.0000   1.0000   1.0000   1.0000   1.0000   1.0000   1.0000   1.0000
     1.0000   1.0000   1.0000   1.0000   1.0000   1.0000   1.0000   1.0000
     1.0000   1.0000   1.0000   1.0000   1.0000   1.0000   1.0000   1.0000
     1.0000   1.0000   1.0000   1.0000   1.0000   1.0000   1.0000   1.0000
     1.0000   1.0000   1.0000   1.0000   1.0000   1.0000   1.0000   1.0000
     1.0000   1.0000   1.0000   1.0000   1.0000   1.0000   1.0000   1.0000
     1.0000   1.0000   1.0000   1.0000   1.0000   1.0000   1.0000   1.0000
     1.0000   1.0000   1.0000   1.0000   1.0000   1.0000   1.0000   1.0000
     1.0000   1.0000   1.0000   1.0000   1.0000   1.0000   1.0000   1.0000
     1.0000   1.0000   1.0000   1.0000   1.0000   1.0000   1.0000   1.0000
     1.0000   1.0000   1.0000   1.0000   1.0000   1.0000   1.0000   1.0000
     1.0000   1.0000   1.0000   1.0000   1.0000   1.0000   1.0000   1.0000
     1.0000   1.0000   1.0000   1.0000   1.0000   1.0000   1.0000   1.0000
     1.0000   1.0000   1.0000   1.0000   1.0000   1.0000   1.0000   1.0000
     1.0000   1.0000   1.0000   1.0000   1.0000   1.0000   1.0000   1.0000
     1.0000   1.0000   1.0000   1.0000   1.0000   1.0000   1.0000   1.0000
     1.0000   1.0000   1.0000   1.0000   1.0000   1.0000   1.0000   1.0000
     1.0000   1.0000   1.0000   1.0000   1.0000   1.0000   1.0000   1.0000
     1.0000   1.0000   1.0000   1.0000   1.0000   1.0000   1.0000   1.0000
     1.0000   1.0000   1.0000   1.0000   1.0000   1.0000   1.0000   1.0000
     1.0000   1.0000   1.0000   1.0000   1.0000   1.0000   1.0000   1.0000
     1.0000   1.0000   1.0000   1.0000   1.0000   1.0000   1.0000   1.0000
     1.0000   1.0000   1.0000   1.0000   1.0000   1.0000   1.0000   1.0000
     1.0000   1.0000   1.0000   1.0000   1.0000   1.0000   1.0000   1.0000
     1.0000   1.0000   1.0000   1.0000   1.0000   1.0000   1.0000   1.0000
     1.0000   1.0000   1.0000   1.0000   1.0000   1.0000   1.0000   1.0000
     1.0000   1.0000   1.0000   1.0000   1.0000   1.0000   1.0000   1.0000
     1.0000   1.0000   1.0000   1.0000   1.0000   1.0000   1.0000   1.0000
     1.0000   1.0000   1.0000   1.0000   1.0000   1.0000   1.0000   1.0000
     1.0000   1.0000   1.0000   1.0000   1.0000   1.0000   1.0000   1.0000
     1.0000   1.0000   1.0000   1.0000  -0.0455   0.0000   0.0000   0.0000
     0.0000   0.0000   0.0000   0.0000   0.0000   0.0000   0.0000   0.0000
     0.0000   0.0000   0.0000   0.0000   0.0000   0.0000   0.0000   0.0000
     0.0000   0.0000   0.0000   0.0000   0.0000   0.0000   0.0000   0.0000
     0.0000   0.0000   0.0000   0.0000   0.0000   0.0000   0.0000   0.0000
     0.0000   0.0000   0.0000   0.0000   0.0000   0.0000   0.0000   0.0000
     0.0000   0.0000   0.0000   0.0000   0.0000   0.0000   0.0000   0.0000
     0.0000   0.0000   0.0000   0.0000   0.0000   0.0000   0.0000   0.0000
     0.0000   0.0000   0.0000   0.0000   0.0000   0.0000   0.0000   0.0000
     0.0000   0.0000   0.0000   0.0000   0.0000   0.0000   0.0000   0.0000

          k = 0.0000 0.0000 0.1533 ( 51385 PWs)   bands (ev):

    -6.4555  -6.3088  -6.0821  -5.8684  -5.8406  -5.8330  -5.8330  -5.8217
    -5.8217  -5.7974  -5.7736  -5.7649  -5.7649  -5.7528  -5.7528  -5.7371
    -5.7129  -5.6833  -5.6791  -5.6741  -5.6741  -5.6631  -5.6631  -5.6341
    -5.6126  -5.6036  -5.6036  -5.5940  -5.5940  -5.5847  -5.5811  -5.5771
    -5.5771  -5.5716  -5.5707  -5.5707  -5.5705  -5.5634  -5.5634  -5.5625
    -5.5570  -5.5544  -5.5544  -5.5496  -5.5496  -5.5456  -5.5440  -5.5355
    -5.5355  -5.5257  -5.5253  -5.4959  -5.4959  -4.2549  -4.2043  -4.2016
    -4.2016  -4.1922  -4.1922  -4.1867  -4.1867  -4.1785  -4.1785  -4.1687
    -4.1687  -4.1665  -4.1653  -4.1653  -4.1616  -4.1598  -4.1598  -4.1565
    -4.1565  -4.1547  -4.1517  -4.1517  -4.1489  -4.1489  -4.1475  -4.1457
    -4.1454  -4.1454  -4.1399  -4.1397  -4.1397  -4.1366  -4.1366  -4.1337
    -4.1337  -4.1330  -4.1276  -4.1276  -4.1264  -4.1223  -4.1223  -4.1214
    -4.1169  -4.1169  -4.1158  -4.1157  -4.1137  -4.1137  -4.1112  -4.1112
    -4.1084  -4.1023  -4.1023  -4.0959  -4.0912  -4.0912  -4.0873  -4.0872
    -4.0851  -4.0851  -4.0844  -4.0844  -4.0815  -4.0812  -4.0794  -4.0794
    -4.0719  -4.0711  -4.0711  -4.0682  -4.0613  -4.0613  -4.0604  -4.0560
    -4.0560  -4.0554  -4.0538  -4.0538  -4.0532  -4.0459  -4.0458  -4.0458
    -4.0388  -4.0388  -4.0353  -4.0353  -4.0339  -4.0297  -4.0270  -4.0262
    -4.0262  -4.0184  -4.0182  -4.0182  -4.0161  -4.0161  -4.0110  -4.0107
    -4.0107  -4.0090  -4.0090  -4.0090  -4.0074  -4.0050  -4.0050  -4.0019
    -4.0010  -4.0010  -3.9993  -3.9990  -3.9990  -3.9962  -3.9950  -3.9950
    -3.9919  -3.9919  -3.9875  -3.9860  -3.9835  -3.9835  -3.9827  -3.9808
    -3.9808  -3.9796  -3.9781  -3.9781  -3.9751  -3.9713  -3.9713  -3.9671
    -3.9671  -3.9631  -3.9625  -3.9625  -3.9618  -3.9607  -3.9607  -3.9584
    -3.9575  -3.9575  -3.9575  -3.9567  -3.9567  -3.9557  -3.9553  -3.9553
    -3.9540  -3.9540  -3.9496  -3.9496  -3.9489  -3.9435  -3.9435  -3.9430
    -3.9407  -3.9407  -3.9353  -3.9353  -3.9321  -3.9319  -3.9319  -3.9296
    -3.9296  -3.9261  -3.9261  -3.9249  -3.9249  -3.9240  -3.9225  -3.9214
    -3.9213  -3.9213  -3.9176  -3.9158  -3.9158  -3.9110  -3.9063  -3.9060
    -3.9060  -3.9049  -3.9049  -3.9022  -3.9022  -3.9022  -3.8986  -3.8986
    -3.8972  -3.8964  -3.8964  -3.8870  -3.8870  -3.8837  -3.8833  -3.8833
    -3.8813  -3.8813  -3.8786  -3.8765  -3.8765  -3.8670  -3.8637  -3.8637
    -3.8635  -3.8630  -3.8630  -3.8510  -3.8510  -3.8445  -3.8306  -3.7909
    -3.7909  -3.7700  -3.7700  -3.7404  -3.7404  -3.7340  -3.7323  -3.6273
    -3.6273  -3.6255  -3.5163  -3.5005  -3.5005  -3.4860  -3.4860  -3.4637
    -3.4117  -3.3977  -3.3977  -3.3765  -3.3765  -3.3096  -3.1871  -3.1760
    -3.1760  -3.1548  -3.1548  -3.1459  -3.0384  -2.8400  -2.8308  -2.8308
    -2.8101  -2.8101  -2.7372  -2.6600  -2.4402  -2.4320  -2.4320  -2.4128
    -2.4128  -2.3566  -2.2117  -2.2111  -2.2108  -2.2108  -2.2003  -2.2003
    -2.1965  -2.1887  -2.1885  -2.1778  -2.1778  -2.1560  -2.1482  -2.1447
    -2.1447  -2.1183  -2.1183  -0.1339   2.5174   3.2527   3.2666   3.2666
     3.2709   3.3723   3.3921   3.3925   3.3925   3.4118   3.4118   3.4168
     3.4224   3.4224   3.4348   3.4522   3.4522   3.5193   3.5369   3.5660
     3.5660   3.5890   3.6650   3.6717   3.6717   3.7151   3.7151   3.7888
     3.9127   3.9430   3.9430   3.9557   4.1143   4.1213   4.1213   4.1580
     4.1580   4.2179   4.2179   4.2470   4.4657   4.4657   4.6041   4.6041
     4.6072   4.6153   4.6153   4.6226   4.6313   4.6313   4.6528   4.6876
     4.6876   4.7092   4.8638   4.9428   4.9428   5.3682   5.3682   5.3686
     5.3987   5.3987   5.4964   5.5511   5.5511   5.6752   5.6752   5.6791
     5.7151   5.7151   5.7672   6.1695   6.1695   6.2555   6.4829   6.4955
     6.4955   6.5380   6.5853   6.5853   6.6955   6.6981   6.6981   6.7327
     6.7327   6.8295   6.9693   6.9762   6.9762   6.9961   7.0324   7.0324
     7.1278   7.1429   7.1429   7.1503   7.1569   7.1569   7.1804   7.2033
     7.2529   7.2529   7.4752   7.4812   7.4812   7.5041   7.5725   7.5725
     7.6578   7.6616   7.6616   7.6851   7.6851   7.7021   7.7238   7.7346
     7.7556   7.7556   7.8528   7.8765   7.8820   7.8820   7.9045   7.9773
     7.9773   8.0555   8.0635   8.0635   8.0788   8.0788   8.1092   8.1147
     8.1154   8.1154   8.1401   8.1401   8.2523   8.2570   8.2570   8.2756
     8.2756   8.2789   8.3480   8.3480   8.4324   8.4324   8.4857   8.4908
     8.4908   8.5122   8.5874   8.5874   8.6746   8.7614   8.7614   8.9713
     8.9713   9.0942   9.1717   9.1717   9.4576   9.4576  11.2476  12.2337
    13.0801  13.3442  13.4363  13.4643  13.5467  13.5483  13.5483  13.5657
    13.5657  13.6381  13.7202  13.7205  13.7205  13.7267  13.7267  13.8097
    13.8690  13.8726  13.8726  13.9090  13.9090  14.1309  14.3732  14.3732
    14.3764  14.3820  14.3820  14.5388  14.5388  14.5610  14.8415  14.8415
    14.8444  14.8511  14.8511  14.8528  14.8528  14.8598  14.8855  14.8855
    14.8885  15.1688  15.1688  15.1886  15.5725  15.5863  15.5863  15.7655
    15.9740  15.9740  15.9902  15.9906  15.9906  16.0611  16.0850  16.0850
    16.2029  16.2196  16.2196  16.2540  16.2792  16.2792  16.3226  16.3226
    16.3466  16.3996  16.5791  16.5956  16.5956  16.6321  16.6321  16.6767

     occupation numbers 
     1.0000   1.0000   1.0000   1.0000   1.0000   1.0000   1.0000   1.0000
     1.0000   1.0000   1.0000   1.0000   1.0000   1.0000   1.0000   1.0000
     1.0000   1.0000   1.0000   1.0000   1.0000   1.0000   1.0000   1.0000
     1.0000   1.0000   1.0000   1.0000   1.0000   1.0000   1.0000   1.0000
     1.0000   1.0000   1.0000   1.0000   1.0000   1.0000   1.0000   1.0000
     1.0000   1.0000   1.0000   1.0000   1.0000   1.0000   1.0000   1.0000
     1.0000   1.0000   1.0000   1.0000   1.0000   1.0000   1.0000   1.0000
     1.0000   1.0000   1.0000   1.0000   1.0000   1.0000   1.0000   1.0000
     1.0000   1.0000   1.0000   1.0000   1.0000   1.0000   1.0000   1.0000
     1.0000   1.0000   1.0000   1.0000   1.0000   1.0000   1.0000   1.0000
     1.0000   1.0000   1.0000   1.0000   1.0000   1.0000   1.0000   1.0000
     1.0000   1.0000   1.0000   1.0000   1.0000   1.0000   1.0000   1.0000
     1.0000   1.0000   1.0000   1.0000   1.0000   1.0000   1.0000   1.0000
     1.0000   1.0000   1.0000   1.0000   1.0000   1.0000   1.0000   1.0000
     1.0000   1.0000   1.0000   1.0000   1.0000   1.0000   1.0000   1.0000
     1.0000   1.0000   1.0000   1.0000   1.0000   1.0000   1.0000   1.0000
     1.0000   1.0000   1.0000   1.0000   1.0000   1.0000   1.0000   1.0000
     1.0000   1.0000   1.0000   1.0000   1.0000   1.0000   1.0000   1.0000
     1.0000   1.0000   1.0000   1.0000   1.0000   1.0000   1.0000   1.0000
     1.0000   1.0000   1.0000   1.0000   1.0000   1.0000   1.0000   1.0000
     1.0000   1.0000   1.0000   1.0000   1.0000   1.0000   1.0000   1.0000
     1.0000   1.0000   1.0000   1.0000   1.0000   1.0000   1.0000   1.0000
     1.0000   1.0000   1.0000   1.0000   1.0000   1.0000   1.0000   1.0000
     1.0000   1.0000   1.0000   1.0000   1.0000   1.0000   1.0000   1.0000
     1.0000   1.0000   1.0000   1.0000   1.0000   1.0000   1.0000   1.0000
     1.0000   1.0000   1.0000   1.0000   1.0000   1.0000   1.0000   1.0000
     1.0000   1.0000   1.0000   1.0000   1.0000   1.0000   1.0000   1.0000
     1.0000   1.0000   1.0000   1.0000   1.0000   1.0000   1.0000   1.0000
     1.0000   1.0000   1.0000   1.0000   1.0000   1.0000   1.0000   1.0000
     1.0000   1.0000   1.0000   1.0000   1.0000   1.0000   1.0000   1.0000
     1.0000   1.0000   1.0000   1.0000   1.0000   1.0000   1.0000   1.0000
     1.0000   1.0000   1.0000   1.0000   1.0000   1.0000   1.0000   1.0000
     1.0000   1.0000   1.0000   1.0000   1.0000   1.0000   1.0000   1.0000
     1.0000   1.0000   1.0000   1.0000   1.0000   1.0000   1.0000   1.0000
     1.0000   1.0000   1.0000   1.0000   1.0000   1.0000   1.0000   1.0000
     1.0000   1.0000   1.0000   1.0000   1.0000   1.0000   1.0000   1.0000
     1.0000   1.0000   1.0000   1.0000   1.0000   1.0000   1.0000   1.0000
     1.0000   1.0000   1.0000   1.0000   1.0000   1.0000   1.0000   1.0000
     1.0000   1.0000   1.0000   1.0000   1.0000   1.0000   1.0000   1.0000
     1.0000   1.0000   1.0000   1.0000   1.0000   1.0000   1.0000   1.0000
     1.0000   1.0000   1.0000   1.0000   1.0000   1.0000   1.0000   1.0000
     1.0000   1.0000   1.0000   1.0000   1.0000   1.0000   1.0000   1.0000
     1.0000   1.0000   1.0000   1.0000   1.0000   1.0000   1.0000   1.0000
     1.0000   1.0000   1.0000   1.0000   1.0000   1.0000   1.0000   1.0000
     1.0000   1.0000   1.0000   1.0000   1.0000   1.0000   1.0000   1.0000
     1.0000   1.0000   1.0000   1.0000   1.0000   1.0000   1.0000   1.0000
     1.0000   1.0000   1.0000   1.0000   1.0000   1.0000   1.0000   1.0000
     1.0000   1.0000   1.0000   1.0000   1.0000   1.0000   1.0000   1.0000
     1.0000   1.0000   1.0000   1.0000   1.0000   1.0000   1.0000   1.0000
     1.0000   1.0000   1.0000   1.0000   1.0000   1.0000   1.0000   1.0000
     1.0000   1.0000   1.0000   1.0000   1.0000   1.0000   1.0000   1.0000
     1.0000   1.0000   1.0000   1.0000   1.0000   1.0000   1.0000   1.0000
     1.0000   1.0000   1.0000   1.0000   1.0000   1.0000   1.0000   1.0000
     1.0000   1.0000   1.0000   1.0000   1.0000   1.0000   1.0000   1.0000
     1.0000   1.0000   1.0000   1.0000   1.0000   1.0000   1.0000   1.0000
     1.0000   1.0000   1.0000   1.0000   1.0000   1.0000   1.0000   1.0000
     1.0000   1.0000   1.0000   1.0000   1.0000   1.0000   1.0000   1.0000
     1.0000   1.0000   1.0000   1.0000   1.0000   1.0000   1.0000   1.0000
     1.0000   1.0000   1.0000   1.0000   1.0000   1.0000   1.0000   1.0000
     1.0000   1.0000   1.0000   1.0000   1.0000   1.0000   1.0000   1.0000
     1.0000   1.0000   1.0000   1.0000  -0.0127   0.0000   0.0000   0.0000
     0.0000   0.0000   0.0000   0.0000   0.0000   0.0000   0.0000   0.0000
     0.0000   0.0000   0.0000   0.0000   0.0000   0.0000   0.0000   0.0000
     0.0000   0.0000   0.0000   0.0000   0.0000   0.0000   0.0000   0.0000
     0.0000   0.0000   0.0000   0.0000   0.0000   0.0000   0.0000   0.0000
     0.0000   0.0000   0.0000   0.0000   0.0000   0.0000   0.0000   0.0000
     0.0000   0.0000   0.0000   0.0000   0.0000   0.0000   0.0000   0.0000
     0.0000   0.0000   0.0000   0.0000   0.0000   0.0000   0.0000   0.0000
     0.0000   0.0000   0.0000   0.0000   0.0000   0.0000   0.0000   0.0000
     0.0000   0.0000   0.0000   0.0000   0.0000   0.0000   0.0000   0.0000

          k = 0.0000 0.0000-0.3067 ( 51390 PWs)   bands (ev):

    -6.4166  -6.3786  -5.9702  -5.9646  -5.8220  -5.8151  -5.8151  -5.8053
    -5.8053  -5.8051  -5.7956  -5.7956  -5.7927  -5.7818  -5.7818  -5.7278
    -5.7082  -5.6907  -5.6459  -5.6401  -5.6401  -5.6395  -5.6302  -5.6302
    -5.6277  -5.6277  -5.6165  -5.6165  -5.6127  -5.5990  -5.5793  -5.5763
    -5.5763  -5.5696  -5.5696  -5.5679  -5.5679  -5.5622  -5.5604  -5.5604
    -5.5567  -5.5539  -5.5539  -5.5537  -5.5537  -5.5497  -5.5444  -5.5336
    -5.5336  -5.5243  -5.5236  -5.4956  -5.4956  -4.2549  -4.2016  -4.2016
    -4.1921  -4.1882  -4.1882  -4.1847  -4.1847  -4.1804  -4.1754  -4.1754
    -4.1733  -4.1733  -4.1712  -4.1712  -4.1657  -4.1655  -4.1655  -4.1577
    -4.1546  -4.1546  -4.1510  -4.1510  -4.1483  -4.1483  -4.1479  -4.1435
    -4.1419  -4.1419  -4.1391  -4.1391  -4.1385  -4.1381  -4.1372  -4.1372
    -4.1335  -4.1335  -4.1311  -4.1311  -4.1294  -4.1237  -4.1237  -4.1213
    -4.1213  -4.1201  -4.1198  -4.1198  -4.1191  -4.1191  -4.1148  -4.1148
    -4.1119  -4.0997  -4.0897  -4.0897  -4.0840  -4.0833  -4.0816  -4.0816
    -4.0782  -4.0782  -4.0758  -4.0758  -4.0753  -4.0736  -4.0736  -4.0708
    -4.0703  -4.0703  -4.0679  -4.0666  -4.0666  -4.0657  -4.0641  -4.0641
    -4.0614  -4.0609  -4.0599  -4.0599  -4.0536  -4.0536  -4.0527  -4.0444
    -4.0415  -4.0415  -4.0394  -4.0340  -4.0303  -4.0303  -4.0285  -4.0285
    -4.0285  -4.0231  -4.0231  -4.0224  -4.0171  -4.0171  -4.0119  -4.0119
    -4.0114  -4.0094  -4.0094  -4.0088  -4.0087  -4.0046  -4.0046  -4.0024
    -4.0024  -4.0007  -3.9994  -3.9994  -3.9977  -3.9969  -3.9953  -3.9953
    -3.9913  -3.9913  -3.9848  -3.9818  -3.9818  -3.9799  -3.9794  -3.9756
    -3.9756  -3.9741  -3.9732  -3.9732  -3.9720  -3.9720  -3.9663  -3.9663
    -3.9644  -3.9644  -3.9632  -3.9623  -3.9613  -3.9613  -3.9610  -3.9589
    -3.9589  -3.9581  -3.9581  -3.9566  -3.9562  -3.9562  -3.9562  -3.9538
    -3.9538  -3.9498  -3.9498  -3.9496  -3.9447  -3.9441  -3.9441  -3.9393
    -3.9393  -3.9357  -3.9357  -3.9327  -3.9313  -3.9313  -3.9304  -3.9288
    -3.9288  -3.9253  -3.9253  -3.9241  -3.9233  -3.9222  -3.9222  -3.9212
    -3.9206  -3.9206  -3.9175  -3.9134  -3.9134  -3.9085  -3.9085  -3.9075
    -3.9053  -3.9053  -3.9042  -3.9042  -3.9020  -3.9012  -3.9006  -3.9006
    -3.8963  -3.8963  -3.8859  -3.8859  -3.8835  -3.8825  -3.8825  -3.8808
    -3.8808  -3.8776  -3.8776  -3.8766  -3.8685  -3.8636  -3.8636  -3.8632
    -3.8632  -3.8628  -3.8585  -3.8511  -3.8511  -3.8446  -3.8213  -3.7996
    -3.7909  -3.7909  -3.7700  -3.7700  -3.7404  -3.7404  -3.7323  -3.7213
    -3.6272  -3.6272  -3.4856  -3.4731  -3.4731  -3.4705  -3.4645  -3.4645
    -3.4568  -3.4526  -3.4526  -3.4252  -3.4252  -3.3356  -3.0296  -3.0243
    -3.0234  -3.0234  -3.0132  -3.0132  -3.0009  -3.0009  -2.9877  -2.9877
    -2.9835  -2.9129  -2.8782  -2.7654  -2.2790  -2.2696  -2.2696  -2.2607
    -2.2554  -2.2554  -2.2533  -2.2533  -2.2403  -2.2400  -2.2400  -2.2267
    -2.2116  -2.2110  -2.2056  -2.2056  -2.2000  -2.2000  -2.1967  -2.1884
    -2.1875  -2.1657  -2.1657  -0.1362   2.8602   2.8723   3.2140   3.2288
     3.2288   3.2327   3.3775   3.3779   3.3779   3.3857   3.3897   3.3897
     3.3937   3.3937   3.4188   3.4366   3.4366   3.5017   3.7254   3.7442
     3.7443   3.7443   3.7491   3.7692   3.7692   3.7859   3.8668   3.8713
     3.8736   3.8736   3.8811   3.8811   3.8859   3.8859   3.9666   3.9666
     3.9689   4.0562   4.2848   4.2848   4.3369   4.3369   4.7203   4.7203
     4.7271   4.7271   4.7308   4.7348   4.7513   4.7513   4.7731   4.7887
     4.7887   4.9272   5.2178   5.2178   5.2393   5.2393   5.3669   5.3669
     5.3733   5.3733   5.3757   5.3833   5.3996   5.3996   5.4037   5.4340
     5.4535   5.4535   5.5138   5.5984   6.4002   6.4002   6.4370   6.4370
     6.7640   6.7720   6.7778   6.7778   6.7874   6.7880   6.7880   6.8701
     7.0277   7.0355   7.0355   7.0463   7.0511   7.0544   7.0544   7.0554
     7.0554   7.0867   7.1634   7.1634   7.2149   7.2157   7.2157   7.2178
     7.2234   7.2234   7.2291   7.2291   7.2796   7.3013   7.3013   7.4255
     7.6665   7.6772   7.6776   7.6776   7.6779   7.6779   7.6966   7.7033
     7.7066   7.7066   7.8072   7.8072   7.8166   7.8753   7.8753   7.8808
     8.1037   8.1114   8.1114   8.1235   8.1282   8.1282   8.1322   8.1322
     8.1419   8.1471   8.1471   8.3151   8.3151   8.3286   8.3505   8.3505
     8.3816   8.3897   8.3897   8.4043   8.4077   8.4099   8.4099   8.4218
     8.4218   8.4240   8.4353   8.6199   8.6199   8.7480   8.7480   8.8748
     8.9431   8.9431   9.1911   9.1911   9.4528   9.4528  11.6930  11.7489
    13.3218  13.3326  13.3740  13.4248  13.6712  13.6712  13.6759  13.6921
    13.6986  13.6986  13.7026  13.7026  13.7042  13.7306  13.7306  13.8557
    14.0150  14.0150  14.0169  14.0189  14.0189  14.0234  14.0290  14.0290
    14.0298  14.0298  14.0970  14.4004  14.7830  14.7830  14.7983  14.7983
    14.8681  14.8681  14.8708  14.8779  14.8779  14.8800  14.8800  14.8882
    14.9144  14.9146  14.9146  15.1688  15.4696  15.4821  15.4821  15.7023
    16.1190  16.1190  16.1379  16.1434  16.1497  16.1497  16.1616  16.1616
    16.1822  16.1822  16.2033  16.3007  16.5026  16.5026  16.5072  16.5135
    16.5135  16.5292  16.5292  16.5363  16.5495  16.6094  16.6094  16.6590

     occupation numbers 
     1.0000   1.0000   1.0000   1.0000   1.0000   1.0000   1.0000   1.0000
     1.0000   1.0000   1.0000   1.0000   1.0000   1.0000   1.0000   1.0000
     1.0000   1.0000   1.0000   1.0000   1.0000   1.0000   1.0000   1.0000
     1.0000   1.0000   1.0000   1.0000   1.0000   1.0000   1.0000   1.0000
     1.0000   1.0000   1.0000   1.0000   1.0000   1.0000   1.0000   1.0000
     1.0000   1.0000   1.0000   1.0000   1.0000   1.0000   1.0000   1.0000
     1.0000   1.0000   1.0000   1.0000   1.0000   1.0000   1.0000   1.0000
     1.0000   1.0000   1.0000   1.0000   1.0000   1.0000   1.0000   1.0000
     1.0000   1.0000   1.0000   1.0000   1.0000   1.0000   1.0000   1.0000
     1.0000   1.0000   1.0000   1.0000   1.0000   1.0000   1.0000   1.0000
     1.0000   1.0000   1.0000   1.0000   1.0000   1.0000   1.0000   1.0000
     1.0000   1.0000   1.0000   1.0000   1.0000   1.0000   1.0000   1.0000
     1.0000   1.0000   1.0000   1.0000   1.0000   1.0000   1.0000   1.0000
     1.0000   1.0000   1.0000   1.0000   1.0000   1.0000   1.0000   1.0000
     1.0000   1.0000   1.0000   1.0000   1.0000   1.0000   1.0000   1.0000
     1.0000   1.0000   1.0000   1.0000   1.0000   1.0000   1.0000   1.0000
     1.0000   1.0000   1.0000   1.0000   1.0000   1.0000   1.0000   1.0000
     1.0000   1.0000   1.0000   1.0000   1.0000   1.0000   1.0000   1.0000
     1.0000   1.0000   1.0000   1.0000   1.0000   1.0000   1.0000   1.0000
     1.0000   1.0000   1.0000   1.0000   1.0000   1.0000   1.0000   1.0000
     1.0000   1.0000   1.0000   1.0000   1.0000   1.0000   1.0000   1.0000
     1.0000   1.0000   1.0000   1.0000   1.0000   1.0000   1.0000   1.0000
     1.0000   1.0000   1.0000   1.0000   1.0000   1.0000   1.0000   1.0000
     1.0000   1.0000   1.0000   1.0000   1.0000   1.0000   1.0000   1.0000
     1.0000   1.0000   1.0000   1.0000   1.0000   1.0000   1.0000   1.0000
     1.0000   1.0000   1.0000   1.0000   1.0000   1.0000   1.0000   1.0000
     1.0000   1.0000   1.0000   1.0000   1.0000   1.0000   1.0000   1.0000
     1.0000   1.0000   1.0000   1.0000   1.0000   1.0000   1.0000   1.0000
     1.0000   1.0000   1.0000   1.0000   1.0000   1.0000   1.0000   1.0000
     1.0000   1.0000   1.0000   1.0000   1.0000   1.0000   1.0000   1.0000
     1.0000   1.0000   1.0000   1.0000   1.0000   1.0000   1.0000   1.0000
     1.0000   1.0000   1.0000   1.0000   1.0000   1.0000   1.0000   1.0000
     1.0000   1.0000   1.0000   1.0000   1.0000   1.0000   1.0000   1.0000
     1.0000   1.0000   1.0000   1.0000   1.0000   1.0000   1.0000   1.0000
     1.0000   1.0000   1.0000   1.0000   1.0000   1.0000   1.0000   1.0000
     1.0000   1.0000   1.0000   1.0000   1.0000   1.0000   1.0000   1.0000
     1.0000   1.0000   1.0000   1.0000   1.0000   1.0000   1.0000   1.0000
     1.0000   1.0000   1.0000   1.0000   1.0000   1.0000   1.0000   1.0000
     1.0000   1.0000   1.0000   1.0000   1.0000   1.0000   1.0000   1.0000
     1.0000   1.0000   1.0000   1.0000   1.0000   1.0000   1.0000   1.0000
     1.0000   1.0000   1.0000   1.0000   1.0000   1.0000   1.0000   1.0000
     1.0000   1.0000   1.0000   1.0000   1.0000   1.0000   1.0000   1.0000
     1.0000   1.0000   1.0000   1.0000   1.0000   1.0000   1.0000   1.0000
     1.0000   1.0000   1.0000   1.0000   1.0000   1.0000   1.0000   1.0000
     1.0000   1.0000   1.0000   1.0000   1.0000   1.0000   1.0000   1.0000
     1.0000   1.0000   1.0000   1.0000   1.0000   1.0000   1.0000   1.0000
     1.0000   1.0000   1.0000   1.0000   1.0000   1.0000   1.0000   1.0000
     1.0000   1.0000   1.0000   1.0000   1.0000   1.0000   1.0000   1.0000
     1.0000   1.0000   1.0000   1.0000   1.0000   1.0000   1.0000   1.0000
     1.0000   1.0000   1.0000   1.0000   1.0000   1.0000   1.0000   1.0000
     1.0000   1.0000   1.0000   1.0000   1.0000   1.0000   1.0000   1.0000
     1.0000   1.0000   1.0000   1.0000   1.0000   1.0000   1.0000   1.0000
     1.0000   1.0000   1.0000   1.0000   1.0000   1.0000   1.0000   1.0000
     1.0000   1.0000   1.0000   1.0000   1.0000   1.0000   1.0000   1.0000
     1.0000   1.0000   1.0000   1.0000   1.0000   1.0000   1.0000   1.0000
     1.0000   1.0000   1.0000   1.0000   1.0000   1.0000   1.0000   1.0000
     1.0000   1.0000   1.0000   1.0000   1.0000   1.0000   1.0000   1.0000
     1.0000   1.0000   1.0000   1.0000   1.0000   1.0000   1.0000   1.0000
     1.0000   1.0000   1.0000   1.0000   1.0000   1.0000   1.0000   1.0000
     1.0000   1.0000   1.0000   1.0000   1.0000   1.0000   1.0000   1.0000
     1.0000   1.0000   1.0000   1.0000   0.0000   0.0000   0.0000   0.0000
     0.0000   0.0000   0.0000   0.0000   0.0000   0.0000   0.0000   0.0000
     0.0000   0.0000   0.0000   0.0000   0.0000   0.0000   0.0000   0.0000
     0.0000   0.0000   0.0000   0.0000   0.0000   0.0000   0.0000   0.0000
     0.0000   0.0000   0.0000   0.0000   0.0000   0.0000   0.0000   0.0000
     0.0000   0.0000   0.0000   0.0000   0.0000   0.0000   0.0000   0.0000
     0.0000   0.0000   0.0000   0.0000   0.0000   0.0000   0.0000   0.0000
     0.0000   0.0000   0.0000   0.0000   0.0000   0.0000   0.0000   0.0000
     0.0000   0.0000   0.0000   0.0000   0.0000   0.0000   0.0000   0.0000
     0.0000   0.0000   0.0000   0.0000   0.0000   0.0000   0.0000   0.0000

          k = 0.0000 0.1443 0.0000 ( 51335 PWs)   bands (ev):

    -6.4577  -6.1975  -6.1781  -5.9226  -5.8727  -5.8637  -5.7948  -5.7941
    -5.7870  -5.7841  -5.7778  -5.7734  -5.7598  -5.7436  -5.7370  -5.7360
    -5.7218  -5.6888  -5.6877  -5.6813  -5.6793  -5.6714  -5.6639  -5.6421
    -5.6083  -5.6041  -5.5952  -5.5917  -5.5901  -5.5878  -5.5851  -5.5850
    -5.5745  -5.5724  -5.5714  -5.5674  -5.5665  -5.5627  -5.5626  -5.5609
    -5.5583  -5.5550  -5.5527  -5.5469  -5.5459  -5.5453  -5.5419  -5.5395
    -5.5377  -5.5275  -5.5246  -5.4958  -5.4957  -4.2542  -4.2090  -4.1994
    -4.1971  -4.1937  -4.1937  -4.1853  -4.1841  -4.1782  -4.1778  -4.1680
    -4.1657  -4.1656  -4.1630  -4.1614  -4.1608  -4.1577  -4.1563  -4.1533
    -4.1512  -4.1509  -4.1491  -4.1488  -4.1471  -4.1456  -4.1453  -4.1436
    -4.1430  -4.1413  -4.1412  -4.1395  -4.1381  -4.1364  -4.1354  -4.1328
    -4.1325  -4.1314  -4.1304  -4.1261  -4.1247  -4.1236  -4.1227  -4.1187
    -4.1182  -4.1106  -4.1092  -4.1090  -4.1088  -4.1063  -4.1062  -4.1045
    -4.1045  -4.1038  -4.1025  -4.1024  -4.1011  -4.1006  -4.0992  -4.0965
    -4.0944  -4.0925  -4.0923  -4.0905  -4.0831  -4.0816  -4.0811  -4.0781
    -4.0762  -4.0759  -4.0726  -4.0709  -4.0693  -4.0663  -4.0650  -4.0629
    -4.0589  -4.0548  -4.0532  -4.0531  -4.0508  -4.0491  -4.0454  -4.0452
    -4.0412  -4.0396  -4.0386  -4.0338  -4.0337  -4.0320  -4.0272  -4.0264
    -4.0250  -4.0247  -4.0223  -4.0208  -4.0193  -4.0167  -4.0154  -4.0140
    -4.0100  -4.0092  -4.0071  -4.0070  -4.0047  -4.0045  -4.0030  -4.0021
    -4.0005  -3.9983  -3.9981  -3.9978  -3.9970  -3.9952  -3.9951  -3.9947
    -3.9936  -3.9907  -3.9902  -3.9900  -3.9885  -3.9885  -3.9865  -3.9855
    -3.9844  -3.9825  -3.9796  -3.9792  -3.9778  -3.9743  -3.9725  -3.9716
    -3.9705  -3.9695  -3.9668  -3.9650  -3.9639  -3.9637  -3.9633  -3.9619
    -3.9601  -3.9585  -3.9574  -3.9558  -3.9556  -3.9531  -3.9523  -3.9513
    -3.9502  -3.9495  -3.9484  -3.9457  -3.9456  -3.9439  -3.9415  -3.9415
    -3.9390  -3.9388  -3.9377  -3.9364  -3.9355  -3.9336  -3.9329  -3.9307
    -3.9287  -3.9276  -3.9263  -3.9245  -3.9229  -3.9225  -3.9199  -3.9196
    -3.9181  -3.9180  -3.9165  -3.9160  -3.9137  -3.9113  -3.9084  -3.9073
    -3.9061  -3.9031  -3.9029  -3.9016  -3.9009  -3.8995  -3.8987  -3.8970
    -3.8944  -3.8942  -3.8926  -3.8910  -3.8905  -3.8870  -3.8846  -3.8826
    -3.8821  -3.8809  -3.8777  -3.8774  -3.8751  -3.8682  -3.8674  -3.8656
    -3.8642  -3.8630  -3.8606  -3.8498  -3.8496  -3.8439  -3.8295  -3.7931
    -3.7903  -3.7724  -3.7698  -3.7422  -3.7406  -3.7327  -3.7307  -3.6932
    -3.6286  -3.6280  -3.5903  -3.5873  -3.4894  -3.4753  -3.3954  -3.3929
    -3.3881  -3.3855  -3.3829  -3.3714  -3.3698  -3.3211  -3.2702  -3.1816
    -3.1795  -3.1698  -3.1387  -3.0801  -3.0128  -2.7710  -2.7644  -2.6867
    -2.6849  -2.6772  -2.6548  -2.6071  -2.5412  -2.5380  -2.5365  -2.5188
    -2.4773  -2.4342  -2.3339  -2.3211  -2.2761  -2.2718  -2.2703  -2.2227
    -2.1735  -2.1605  -2.1576  -2.1569  -2.1371  -2.1240  -2.1174  -2.1026
    -2.0763  -2.0582  -2.0581  -0.1304   2.4163   3.1839   3.1977   3.2744
     3.2826   3.2841   3.2903   3.3136   3.3428   3.3533   3.3593   3.3673
     3.3858   3.3913   3.4025   3.4109   3.4275   3.4327   3.4670   3.4793
     3.5043   3.6867   3.7055   3.7129   3.7218   3.8028   3.8070   3.8467
     3.8775   3.9464   3.9715   4.0333   4.0466   4.0478   4.0891   4.1572
     4.1741   4.1834   4.2404   4.3960   4.3979   4.4508   4.4745   4.5019
     4.6251   4.6366   4.6415   4.6664   4.6910   4.7338   4.7654   4.7674
     4.7956   4.8252   4.8660   4.8918   4.9912   5.1024   5.2227   5.2620
     5.6259   5.6563   5.9025   5.9323   5.9333   5.9572   5.9706   6.1061
     6.1208   6.1652   6.1659   6.1696   6.1797   6.1918   6.2077   6.2130
     6.2309   6.2464   6.2470   6.2882   6.3639   6.6314   6.6714   6.7212
     6.7289   6.8069   6.8257   6.8358   6.9639   6.9876   6.9953   7.0085
     7.1415   7.1589   7.1667   7.1708   7.1741   7.2077   7.2289   7.3103
     7.3173   7.3221   7.3258   7.3329   7.3610   7.3745   7.4328   7.4806
     7.5436   7.6187   7.6343   7.6362   7.6623   7.7494   7.8658   7.8781
     7.8811   7.8832   7.8907   7.8977   7.9178   7.9313   7.9663   7.9744
     7.9799   7.9910   8.0004   8.0165   8.0348   8.0387   8.0435   8.0471
     8.0795   8.1102   8.1316   8.1365   8.1591   8.1646   8.1797   8.2204
     8.2362   8.2364   8.2936   8.3073   8.3776   8.4044   8.4165   8.4423
     8.4675   8.4778   8.5188   8.6008   8.6982   8.7082   8.7728   8.9297
     8.9805   9.0116   9.1297   9.2974   9.3319   9.4448  11.2061  12.7695
    12.7990  13.4400  13.4512  13.4668  13.5690  13.5690  13.5768  13.5778
    13.5837  13.6212  13.6501  13.6604  13.6769  13.6810  13.6999  13.7110
    13.8300  13.9316  14.0067  14.1390  14.1553  14.2725  14.4809  14.4969
    14.4993  14.5127  14.6600  14.6658  14.6769  14.7045  14.7543  14.8604
    14.8706  14.8712  14.8771  14.8864  14.8866  14.9176  14.9570  15.0044
    15.0128  15.2215  15.3448  15.3478  15.3576  15.4760  15.6403  15.7355
    15.7566  15.7847  15.7939  15.8029  15.9116  16.0365  16.0741  16.1711
    16.1763  16.1809  16.2249  16.2733  16.3409  16.3562  16.3643  16.3792
    16.3855  16.4103  16.4444  16.4449  16.4664  16.4680  16.5279  16.5451

     occupation numbers 
     1.0000   1.0000   1.0000   1.0000   1.0000   1.0000   1.0000   1.0000
     1.0000   1.0000   1.0000   1.0000   1.0000   1.0000   1.0000   1.0000
     1.0000   1.0000   1.0000   1.0000   1.0000   1.0000   1.0000   1.0000
     1.0000   1.0000   1.0000   1.0000   1.0000   1.0000   1.0000   1.0000
     1.0000   1.0000   1.0000   1.0000   1.0000   1.0000   1.0000   1.0000
     1.0000   1.0000   1.0000   1.0000   1.0000   1.0000   1.0000   1.0000
     1.0000   1.0000   1.0000   1.0000   1.0000   1.0000   1.0000   1.0000
     1.0000   1.0000   1.0000   1.0000   1.0000   1.0000   1.0000   1.0000
     1.0000   1.0000   1.0000   1.0000   1.0000   1.0000   1.0000   1.0000
     1.0000   1.0000   1.0000   1.0000   1.0000   1.0000   1.0000   1.0000
     1.0000   1.0000   1.0000   1.0000   1.0000   1.0000   1.0000   1.0000
     1.0000   1.0000   1.0000   1.0000   1.0000   1.0000   1.0000   1.0000
     1.0000   1.0000   1.0000   1.0000   1.0000   1.0000   1.0000   1.0000
     1.0000   1.0000   1.0000   1.0000   1.0000   1.0000   1.0000   1.0000
     1.0000   1.0000   1.0000   1.0000   1.0000   1.0000   1.0000   1.0000
     1.0000   1.0000   1.0000   1.0000   1.0000   1.0000   1.0000   1.0000
     1.0000   1.0000   1.0000   1.0000   1.0000   1.0000   1.0000   1.0000
     1.0000   1.0000   1.0000   1.0000   1.0000   1.0000   1.0000   1.0000
     1.0000   1.0000   1.0000   1.0000   1.0000   1.0000   1.0000   1.0000
     1.0000   1.0000   1.0000   1.0000   1.0000   1.0000   1.0000   1.0000
     1.0000   1.0000   1.0000   1.0000   1.0000   1.0000   1.0000   1.0000
     1.0000   1.0000   1.0000   1.0000   1.0000   1.0000   1.0000   1.0000
     1.0000   1.0000   1.0000   1.0000   1.0000   1.0000   1.0000   1.0000
     1.0000   1.0000   1.0000   1.0000   1.0000   1.0000   1.0000   1.0000
     1.0000   1.0000   1.0000   1.0000   1.0000   1.0000   1.0000   1.0000
     1.0000   1.0000   1.0000   1.0000   1.0000   1.0000   1.0000   1.0000
     1.0000   1.0000   1.0000   1.0000   1.0000   1.0000   1.0000   1.0000
     1.0000   1.0000   1.0000   1.0000   1.0000   1.0000   1.0000   1.0000
     1.0000   1.0000   1.0000   1.0000   1.0000   1.0000   1.0000   1.0000
     1.0000   1.0000   1.0000   1.0000   1.0000   1.0000   1.0000   1.0000
     1.0000   1.0000   1.0000   1.0000   1.0000   1.0000   1.0000   1.0000
     1.0000   1.0000   1.0000   1.0000   1.0000   1.0000   1.0000   1.0000
     1.0000   1.0000   1.0000   1.0000   1.0000   1.0000   1.0000   1.0000
     1.0000   1.0000   1.0000   1.0000   1.0000   1.0000   1.0000   1.0000
     1.0000   1.0000   1.0000   1.0000   1.0000   1.0000   1.0000   1.0000
     1.0000   1.0000   1.0000   1.0000   1.0000   1.0000   1.0000   1.0000
     1.0000   1.0000   1.0000   1.0000   1.0000   1.0000   1.0000   1.0000
     1.0000   1.0000   1.0000   1.0000   1.0000   1.0000   1.0000   1.0000
     1.0000   1.0000   1.0000   1.0000   1.0000   1.0000   1.0000   1.0000
     1.0000   1.0000   1.0000   1.0000   1.0000   1.0000   1.0000   1.0000
     1.0000   1.0000   1.0000   1.0000   1.0000   1.0000   1.0000   1.0000
     1.0000   1.0000   1.0000   1.0000   1.0000   1.0000   1.0000   1.0000
     1.0000   1.0000   1.0000   1.0000   1.0000   1.0000   1.0000   1.0000
     1.0000   1.0000   1.0000   1.0000   1.0000   1.0000   1.0000   1.0000
     1.0000   1.0000   1.0000   1.0000   1.0000   1.0000   1.0000   1.0000
     1.0000   1.0000   1.0000   1.0000   1.0000   1.0000   1.0000   1.0000
     1.0000   1.0000   1.0000   1.0000   1.0000   1.0000   1.0000   1.0000
     1.0000   1.0000   1.0000   1.0000   1.0000   1.0000   1.0000   1.0000
     1.0000   1.0000   1.0000   1.0000   1.0000   1.0000   1.0000   1.0000
     1.0000   1.0000   1.0000   1.0000   1.0000   1.0000   1.0000   1.0000
     1.0000   1.0000   1.0000   1.0000   1.0000   1.0000   1.0000   1.0000
     1.0000   1.0000   1.0000   1.0000   1.0000   1.0000   1.0000   1.0000
     1.0000   1.0000   1.0000   1.0000   1.0000   1.0000   1.0000   1.0000
     1.0000   1.0000   1.0000   1.0000   1.0000   1.0000   1.0000   1.0000
     1.0000   1.0000   1.0000   1.0000   1.0000   1.0000   1.0000   1.0000
     1.0000   1.0000   1.0000   1.0000   1.0000   1.0000   1.0000   1.0000
     1.0000   1.0000   1.0000   1.0000   1.0000   1.0000   1.0000   1.0000
     1.0000   1.0000   1.0000   1.0000   1.0000   1.0000   1.0000   1.0000
     1.0000   1.0000   1.0000   1.0000   1.0000   1.0000   1.0000   1.0000
     1.0000   1.0000   1.0000   1.0000   1.0000   1.0000   1.0000   1.0000
     1.0000   1.0000   1.0000   1.0000   0.5471   0.0000   0.0000   0.0000
     0.0000   0.0000   0.0000   0.0000   0.0000   0.0000   0.0000   0.0000
     0.0000   0.0000   0.0000   0.0000   0.0000   0.0000   0.0000   0.0000
     0.0000   0.0000   0.0000   0.0000   0.0000   0.0000   0.0000   0.0000
     0.0000   0.0000   0.0000   0.0000   0.0000   0.0000   0.0000   0.0000
     0.0000   0.0000   0.0000   0.0000   0.0000   0.0000   0.0000   0.0000
     0.0000   0.0000   0.0000   0.0000   0.0000   0.0000   0.0000   0.0000
     0.0000   0.0000   0.0000   0.0000   0.0000   0.0000   0.0000   0.0000
     0.0000   0.0000   0.0000   0.0000   0.0000   0.0000   0.0000   0.0000
     0.0000   0.0000   0.0000   0.0000   0.0000   0.0000   0.0000   0.0000

          k = 0.0000 0.1443 0.1533 ( 51348 PWs)   bands (ev):

    -6.4397  -6.2945  -6.0707  -5.9123  -5.8632  -5.8618  -5.8555  -5.8285
    -5.7909  -5.7896  -5.7868  -5.7734  -5.7538  -5.7321  -5.7250  -5.7214
    -5.7198  -5.6940  -5.6896  -5.6791  -5.6725  -5.6458  -5.6444  -5.6318
    -5.6212  -5.6107  -5.6078  -5.5932  -5.5912  -5.5892  -5.5836  -5.5829
    -5.5767  -5.5762  -5.5719  -5.5705  -5.5662  -5.5655  -5.5623  -5.5615
    -5.5575  -5.5549  -5.5514  -5.5511  -5.5469  -5.5436  -5.5423  -5.5364
    -5.5357  -5.5262  -5.5242  -5.4957  -5.4956  -4.2542  -4.2056  -4.1993
    -4.1964  -4.1907  -4.1906  -4.1847  -4.1844  -4.1763  -4.1760  -4.1684
    -4.1663  -4.1662  -4.1642  -4.1633  -4.1606  -4.1587  -4.1585  -4.1558
    -4.1542  -4.1525  -4.1508  -4.1498  -4.1491  -4.1470  -4.1458  -4.1451
    -4.1442  -4.1441  -4.1417  -4.1397  -4.1387  -4.1372  -4.1354  -4.1354
    -4.1328  -4.1319  -4.1281  -4.1272  -4.1260  -4.1246  -4.1234  -4.1223
    -4.1182  -4.1179  -4.1170  -4.1167  -4.1153  -4.1130  -4.1116  -4.1114
    -4.1080  -4.1040  -4.1021  -4.0998  -4.0949  -4.0920  -4.0904  -4.0888
    -4.0874  -4.0858  -4.0847  -4.0843  -4.0819  -4.0815  -4.0800  -4.0778
    -4.0750  -4.0735  -4.0713  -4.0696  -4.0654  -4.0650  -4.0616  -4.0608
    -4.0569  -4.0565  -4.0538  -4.0535  -4.0520  -4.0486  -4.0468  -4.0444
    -4.0427  -4.0395  -4.0380  -4.0353  -4.0338  -4.0323  -4.0311  -4.0285
    -4.0282  -4.0243  -4.0207  -4.0199  -4.0181  -4.0160  -4.0134  -4.0133
    -4.0117  -4.0113  -4.0095  -4.0075  -4.0056  -4.0043  -4.0025  -4.0019
    -4.0006  -4.0002  -3.9990  -3.9980  -3.9970  -3.9962  -3.9942  -3.9932
    -3.9921  -3.9895  -3.9893  -3.9878  -3.9864  -3.9831  -3.9827  -3.9826
    -3.9809  -3.9789  -3.9769  -3.9762  -3.9753  -3.9732  -3.9727  -3.9706
    -3.9698  -3.9690  -3.9657  -3.9652  -3.9645  -3.9636  -3.9627  -3.9612
    -3.9602  -3.9584  -3.9575  -3.9568  -3.9560  -3.9541  -3.9531  -3.9521
    -3.9513  -3.9490  -3.9490  -3.9482  -3.9469  -3.9448  -3.9417  -3.9404
    -3.9384  -3.9370  -3.9368  -3.9366  -3.9366  -3.9317  -3.9310  -3.9282
    -3.9277  -3.9269  -3.9260  -3.9232  -3.9231  -3.9217  -3.9198  -3.9194
    -3.9175  -3.9171  -3.9159  -3.9158  -3.9138  -3.9100  -3.9093  -3.9073
    -3.9060  -3.9053  -3.9029  -3.9028  -3.8994  -3.8987  -3.8976  -3.8976
    -3.8961  -3.8945  -3.8935  -3.8898  -3.8889  -3.8858  -3.8848  -3.8814
    -3.8813  -3.8805  -3.8782  -3.8774  -3.8762  -3.8688  -3.8677  -3.8656
    -3.8636  -3.8627  -3.8605  -3.8499  -3.8496  -3.8444  -3.8290  -3.7933
    -3.7903  -3.7725  -3.7698  -3.7425  -3.7406  -3.7327  -3.7322  -3.6806
    -3.6346  -3.6287  -3.6093  -3.5837  -3.5791  -3.5629  -3.4754  -3.4624
    -3.3721  -3.3665  -3.3510  -3.2778  -3.2714  -3.2575  -3.2476  -3.2179
    -3.1455  -3.1138  -3.0534  -3.0301  -2.9885  -2.9370  -2.8959  -2.8517
    -2.7257  -2.7152  -2.6802  -2.6187  -2.5442  -2.4762  -2.4526  -2.3594
    -2.3571  -2.3308  -2.3284  -2.3148  -2.2954  -2.2662  -2.2454  -2.2231
    -2.2173  -2.1863  -2.1780  -2.1669  -2.1532  -2.1368  -2.1231  -2.1114
    -2.1085  -2.0900  -2.0852  -0.1327   2.5404   3.1560   3.2074   3.2188
     3.2585   3.2795   3.2833   3.3087   3.3106   3.3207   3.3626   3.3717
     3.3792   3.4032   3.4128   3.4301   3.4382   3.4615   3.4956   3.5328
     3.5650   3.5780   3.6336   3.6439   3.6750   3.7070   3.7433   3.7627
     3.8817   3.9052   3.9184   3.9443   3.9978   4.0260   4.1001   4.2210
     4.3624   4.3900   4.3979   4.4013   4.4313   4.4314   4.4953   4.5401
     4.5621   4.5958   4.6065   4.6400   4.7435   4.7671   4.7801   4.8683
     4.9112   4.9517   5.0326   5.0362   5.1044   5.1727   5.2185   5.2449
     5.5690   5.6011   5.6320   5.6322   5.7039   5.7108   5.7383   5.7593
     5.7780   5.8194   5.8812   6.2268   6.2358   6.2420   6.2450   6.2699
     6.6464   6.6475   6.6787   6.6925   6.7172   6.7412   6.7491   6.7600
     6.7820   6.8293   6.8456   6.8572   6.8652   6.9320   6.9798   6.9977
     7.0032   7.0190   7.0478   7.0631   7.1734   7.1950   7.2178   7.3309
     7.3429   7.3518   7.3628   7.3874   7.4051   7.5066   7.5198   7.6167
     7.6189   7.6398   7.6430   7.6616   7.6651   7.6832   7.6876   7.7101
     7.7378   7.7846   7.7988   7.8112   7.8381   7.8435   7.8709   7.9277
     7.9402   7.9485   7.9693   7.9965   8.0234   8.0702   8.0805   8.1480
     8.1596   8.1690   8.1787   8.1843   8.2033   8.2039   8.2412   8.2608
     8.2831   8.3083   8.3191   8.3389   8.3724   8.3847   8.3985   8.4250
     8.4719   8.5031   8.5294   8.6078   8.6675   8.6851   8.7485   8.8892
     8.9519   8.9541   9.1540   9.1800   9.3666   9.4401  11.4000  12.3231
    13.1636  13.4601  13.5241  13.5457  13.5561  13.5660  13.5863  13.6099
    13.6215  13.6395  13.6622  13.7026  13.7155  13.7643  13.8601  13.8659
    13.8746  13.8792  13.9750  14.0214  14.0431  14.1574  14.2374  14.3498
    14.4075  14.5477  14.5643  14.5806  14.5813  14.6266  14.6688  14.7472
    14.8391  14.8516  14.8815  14.9320  15.0063  15.0262  15.0361  15.0560
    15.0577  15.1204  15.1251  15.2263  15.3381  15.4265  15.5501  15.6805
    15.8230  15.8624  15.8895  16.0155  16.0609  16.0876  16.1319  16.2314
    16.2461  16.2680  16.2965  16.2994  16.3073  16.3290  16.3418  16.4090
    16.4461  16.4895  16.5054  16.5338  16.5563  16.5873  16.6162  16.6552

     occupation numbers 
     1.0000   1.0000   1.0000   1.0000   1.0000   1.0000   1.0000   1.0000
     1.0000   1.0000   1.0000   1.0000   1.0000   1.0000   1.0000   1.0000
     1.0000   1.0000   1.0000   1.0000   1.0000   1.0000   1.0000   1.0000
     1.0000   1.0000   1.0000   1.0000   1.0000   1.0000   1.0000   1.0000
     1.0000   1.0000   1.0000   1.0000   1.0000   1.0000   1.0000   1.0000
     1.0000   1.0000   1.0000   1.0000   1.0000   1.0000   1.0000   1.0000
     1.0000   1.0000   1.0000   1.0000   1.0000   1.0000   1.0000   1.0000
     1.0000   1.0000   1.0000   1.0000   1.0000   1.0000   1.0000   1.0000
     1.0000   1.0000   1.0000   1.0000   1.0000   1.0000   1.0000   1.0000
     1.0000   1.0000   1.0000   1.0000   1.0000   1.0000   1.0000   1.0000
     1.0000   1.0000   1.0000   1.0000   1.0000   1.0000   1.0000   1.0000
     1.0000   1.0000   1.0000   1.0000   1.0000   1.0000   1.0000   1.0000
     1.0000   1.0000   1.0000   1.0000   1.0000   1.0000   1.0000   1.0000
     1.0000   1.0000   1.0000   1.0000   1.0000   1.0000   1.0000   1.0000
     1.0000   1.0000   1.0000   1.0000   1.0000   1.0000   1.0000   1.0000
     1.0000   1.0000   1.0000   1.0000   1.0000   1.0000   1.0000   1.0000
     1.0000   1.0000   1.0000   1.0000   1.0000   1.0000   1.0000   1.0000
     1.0000   1.0000   1.0000   1.0000   1.0000   1.0000   1.0000   1.0000
     1.0000   1.0000   1.0000   1.0000   1.0000   1.0000   1.0000   1.0000
     1.0000   1.0000   1.0000   1.0000   1.0000   1.0000   1.0000   1.0000
     1.0000   1.0000   1.0000   1.0000   1.0000   1.0000   1.0000   1.0000
     1.0000   1.0000   1.0000   1.0000   1.0000   1.0000   1.0000   1.0000
     1.0000   1.0000   1.0000   1.0000   1.0000   1.0000   1.0000   1.0000
     1.0000   1.0000   1.0000   1.0000   1.0000   1.0000   1.0000   1.0000
     1.0000   1.0000   1.0000   1.0000   1.0000   1.0000   1.0000   1.0000
     1.0000   1.0000   1.0000   1.0000   1.0000   1.0000   1.0000   1.0000
     1.0000   1.0000   1.0000   1.0000   1.0000   1.0000   1.0000   1.0000
     1.0000   1.0000   1.0000   1.0000   1.0000   1.0000   1.0000   1.0000
     1.0000   1.0000   1.0000   1.0000   1.0000   1.0000   1.0000   1.0000
     1.0000   1.0000   1.0000   1.0000   1.0000   1.0000   1.0000   1.0000
     1.0000   1.0000   1.0000   1.0000   1.0000   1.0000   1.0000   1.0000
     1.0000   1.0000   1.0000   1.0000   1.0000   1.0000   1.0000   1.0000
     1.0000   1.0000   1.0000   1.0000   1.0000   1.0000   1.0000   1.0000
     1.0000   1.0000   1.0000   1.0000   1.0000   1.0000   1.0000   1.0000
     1.0000   1.0000   1.0000   1.0000   1.0000   1.0000   1.0000   1.0000
     1.0000   1.0000   1.0000   1.0000   1.0000   1.0000   1.0000   1.0000
     1.0000   1.0000   1.0000   1.0000   1.0000   1.0000   1.0000   1.0000
     1.0000   1.0000   1.0000   1.0000   1.0000   1.0000   1.0000   1.0000
     1.0000   1.0000   1.0000   1.0000   1.0000   1.0000   1.0000   1.0000
     1.0000   1.0000   1.0000   1.0000   1.0000   1.0000   1.0000   1.0000
     1.0000   1.0000   1.0000   1.0000   1.0000   1.0000   1.0000   1.0000
     1.0000   1.0000   1.0000   1.0000   1.0000   1.0000   1.0000   1.0000
     1.0000   1.0000   1.0000   1.0000   1.0000   1.0000   1.0000   1.0000
     1.0000   1.0000   1.0000   1.0000   1.0000   1.0000   1.0000   1.0000
     1.0000   1.0000   1.0000   1.0000   1.0000   1.0000   1.0000   1.0000
     1.0000   1.0000   1.0000   1.0000   1.0000   1.0000   1.0000   1.0000
     1.0000   1.0000   1.0000   1.0000   1.0000   1.0000   1.0000   1.0000
     1.0000   1.0000   1.0000   1.0000   1.0000   1.0000   1.0000   1.0000
     1.0000   1.0000   1.0000   1.0000   1.0000   1.0000   1.0000   1.0000
     1.0000   1.0000   1.0000   1.0000   1.0000   1.0000   1.0000   1.0000
     1.0000   1.0000   1.0000   1.0000   1.0000   1.0000   1.0000   1.0000
     1.0000   1.0000   1.0000   1.0000   1.0000   1.0000   1.0000   1.0000
     1.0000   1.0000   1.0000   1.0000   1.0000   1.0000   1.0000   1.0000
     1.0000   1.0000   1.0000   1.0000   1.0000   1.0000   1.0000   1.0000
     1.0000   1.0000   1.0000   1.0000   1.0000   1.0000   1.0000   1.0000
     1.0000   1.0000   1.0000   1.0000   1.0000   1.0000   1.0000   1.0000
     1.0000   1.0000   1.0000   1.0000   1.0000   1.0000   1.0000   1.0000
     1.0000   1.0000   1.0000   1.0000   1.0000   1.0000   1.0000   1.0000
     1.0000   1.0000   1.0000   1.0000   1.0000   1.0000   1.0000   1.0000
     1.0000   1.0000   1.0000   1.0000   1.0000   1.0000   1.0000   1.0000
     1.0000   1.0000   1.0000   1.0000   0.2797   0.0000   0.0000   0.0000
     0.0000   0.0000   0.0000   0.0000   0.0000   0.0000   0.0000   0.0000
     0.0000   0.0000   0.0000   0.0000   0.0000   0.0000   0.0000   0.0000
     0.0000   0.0000   0.0000   0.0000   0.0000   0.0000   0.0000   0.0000
     0.0000   0.0000   0.0000   0.0000   0.0000   0.0000   0.0000   0.0000
     0.0000   0.0000   0.0000   0.0000   0.0000   0.0000   0.0000   0.0000
     0.0000   0.0000   0.0000   0.0000   0.0000   0.0000   0.0000   0.0000
     0.0000   0.0000   0.0000   0.0000   0.0000   0.0000   0.0000   0.0000
     0.0000   0.0000   0.0000   0.0000   0.0000   0.0000   0.0000   0.0000
     0.0000   0.0000   0.0000   0.0000   0.0000   0.0000   0.0000   0.0000

          k = 0.0000 0.1443-0.3067 ( 51302 PWs)   bands (ev):

    -6.4011  -6.3636  -5.9603  -5.9557  -5.8902  -5.8705  -5.8439  -5.8374
    -5.8226  -5.8095  -5.7722  -5.7687  -5.7517  -5.7511  -5.7397  -5.7100
    -5.7023  -5.6872  -5.6715  -5.6689  -5.6481  -5.6448  -5.6416  -5.6380
    -5.6138  -5.6113  -5.6101  -5.6072  -5.5950  -5.5925  -5.5862  -5.5861
    -5.5813  -5.5743  -5.5735  -5.5700  -5.5699  -5.5668  -5.5614  -5.5610
    -5.5568  -5.5553  -5.5501  -5.5498  -5.5489  -5.5449  -5.5436  -5.5336
    -5.5333  -5.5252  -5.5239  -5.4956  -5.4954  -4.2542  -4.2019  -4.1992
    -4.1942  -4.1862  -4.1845  -4.1829  -4.1803  -4.1758  -4.1732  -4.1724
    -4.1713  -4.1706  -4.1690  -4.1688  -4.1664  -4.1640  -4.1636  -4.1573
    -4.1537  -4.1523  -4.1516  -4.1493  -4.1481  -4.1469  -4.1462  -4.1432
    -4.1420  -4.1409  -4.1399  -4.1397  -4.1378  -4.1374  -4.1366  -4.1358
    -4.1344  -4.1328  -4.1322  -4.1308  -4.1288  -4.1252  -4.1250  -4.1238
    -4.1227  -4.1222  -4.1210  -4.1205  -4.1192  -4.1175  -4.1153  -4.1145
    -4.1112  -4.1036  -4.0922  -4.0908  -4.0876  -4.0873  -4.0856  -4.0849
    -4.0832  -4.0797  -4.0792  -4.0769  -4.0752  -4.0751  -4.0732  -4.0728
    -4.0724  -4.0700  -4.0690  -4.0689  -4.0657  -4.0646  -4.0641  -4.0628
    -4.0610  -4.0597  -4.0580  -4.0575  -4.0562  -4.0556  -4.0496  -4.0476
    -4.0462  -4.0426  -4.0425  -4.0389  -4.0364  -4.0319  -4.0305  -4.0276
    -4.0270  -4.0262  -4.0245  -4.0243  -4.0196  -4.0174  -4.0157  -4.0139
    -4.0133  -4.0124  -4.0091  -4.0088  -4.0075  -4.0046  -4.0022  -4.0016
    -4.0002  -3.9999  -3.9994  -3.9975  -3.9969  -3.9956  -3.9944  -3.9935
    -3.9927  -3.9888  -3.9879  -3.9845  -3.9841  -3.9805  -3.9794  -3.9774
    -3.9770  -3.9758  -3.9742  -3.9732  -3.9724  -3.9715  -3.9712  -3.9692
    -3.9682  -3.9658  -3.9650  -3.9641  -3.9639  -3.9618  -3.9611  -3.9606
    -3.9599  -3.9583  -3.9575  -3.9570  -3.9550  -3.9541  -3.9539  -3.9515
    -3.9503  -3.9503  -3.9489  -3.9474  -3.9466  -3.9432  -3.9420  -3.9402
    -3.9387  -3.9373  -3.9369  -3.9355  -3.9330  -3.9312  -3.9306  -3.9281
    -3.9272  -3.9244  -3.9232  -3.9227  -3.9219  -3.9209  -3.9192  -3.9188
    -3.9182  -3.9175  -3.9141  -3.9140  -3.9128  -3.9107  -3.9104  -3.9080
    -3.9072  -3.9067  -3.9041  -3.9024  -3.9007  -3.9003  -3.8985  -3.8968
    -3.8964  -3.8946  -3.8888  -3.8881  -3.8852  -3.8844  -3.8818  -3.8815
    -3.8797  -3.8795  -3.8776  -3.8755  -3.8701  -3.8678  -3.8656  -3.8632
    -3.8626  -3.8610  -3.8505  -3.8496  -3.8455  -3.8447  -3.8127  -3.7949
    -3.7904  -3.7846  -3.7698  -3.7696  -3.7416  -3.7406  -3.7327  -3.7189
    -3.6618  -3.6394  -3.6279  -3.6128  -3.5571  -3.5544  -3.5256  -3.5085
    -3.3473  -3.3436  -3.3195  -3.3108  -3.2404  -3.2088  -3.1889  -3.1694
    -3.0906  -3.0868  -3.0839  -3.0395  -2.9042  -2.9028  -2.8987  -2.8909
    -2.8669  -2.8510  -2.8136  -2.7189  -2.3614  -2.3493  -2.3267  -2.3228
    -2.3123  -2.3046  -2.2996  -2.2890  -2.2855  -2.2703  -2.2212  -2.2191
    -2.2171  -2.2157  -2.2095  -2.2020  -2.1994  -2.1899  -2.1727  -2.1350
    -2.1259  -2.1133  -2.1072  -0.1349   2.8806   2.8925   3.1808   3.1902
     3.2029   3.2150   3.2211   3.2331   3.3042   3.3102   3.3240   3.3395
     3.4539   3.4638   3.4638   3.4701   3.4743   3.4872   3.4987   3.5424
     3.5816   3.5883   3.5983   3.6311   3.6691   3.7031   3.7035   3.7463
     3.8249   3.8347   3.8523   3.8837   4.1012   4.1189   4.1311   4.1553
     4.3343   4.3706   4.4048   4.4305   4.4320   4.4450   4.4748   4.4927
     4.5691   4.5775   4.6040   4.6843   4.8989   4.9035   4.9333   4.9803
     5.0741   5.1233   5.3031   5.3050   5.3073   5.3095   5.3189   5.3257
     5.3264   5.3464   5.3620   5.3944   5.4692   5.4883   5.5102   5.5286
     5.5612   5.6093   5.7103   5.8044   6.4586   6.4612   6.4814   6.4953
     6.5461   6.5571   6.5614   6.6031   6.8849   6.8906   6.8996   6.9097
     6.9347   6.9481   7.0057   7.0098   7.0139   7.0498   7.0583   7.0629
     7.0948   7.1364   7.1917   7.1930   7.1971   7.1988   7.2093   7.2198
     7.2204   7.2247   7.2419   7.2632   7.2814   7.3176   7.3186   7.4146
     7.5614   7.5770   7.5855   7.5972   7.6138   7.6205   7.7117   7.7158
     7.7348   7.7898   7.8038   7.8189   7.8411   7.8456   7.8538   7.9075
     7.9092   7.9245   8.0081   8.0122   8.0234   8.0951   8.1807   8.2199
     8.2237   8.2326   8.2355   8.2646   8.2756   8.2823   8.2931   8.2955
     8.3006   8.3128   8.3161   8.3250   8.3426   8.3592   8.3695   8.4143
     8.4159   8.4596   8.5359   8.5515   8.6228   8.6457   8.7208   8.8425
     8.8792   8.9250   9.1653   9.1743   9.3675   9.4350  11.8036  11.8610
    13.4150  13.4268  13.4889  13.5317  13.5853  13.6086  13.7149  13.7183
    13.7300  13.7330  13.7532  13.7705  13.8033  13.8058  13.8126  13.8400
    13.8484  13.9297  13.9967  14.0019  14.0141  14.0859  14.1786  14.1898
    14.1961  14.2057  14.2464  14.4573  14.6784  14.7266  14.8005  14.8032
    14.8158  14.8180  14.8749  14.8845  14.8930  14.9479  15.0383  15.0608
    15.0674  15.0813  15.0884  15.2124  15.3604  15.3689  15.3696  15.6181
    16.0898  16.1052  16.1141  16.1188  16.1253  16.1590  16.1634  16.1828
    16.1866  16.2182  16.2617  16.2769  16.2859  16.3089  16.3510  16.4393
    16.6368  16.6372  16.6479  16.6523  16.7245  16.7314  16.7528  16.7741

     occupation numbers 
     1.0000   1.0000   1.0000   1.0000   1.0000   1.0000   1.0000   1.0000
     1.0000   1.0000   1.0000   1.0000   1.0000   1.0000   1.0000   1.0000
     1.0000   1.0000   1.0000   1.0000   1.0000   1.0000   1.0000   1.0000
     1.0000   1.0000   1.0000   1.0000   1.0000   1.0000   1.0000   1.0000
     1.0000   1.0000   1.0000   1.0000   1.0000   1.0000   1.0000   1.0000
     1.0000   1.0000   1.0000   1.0000   1.0000   1.0000   1.0000   1.0000
     1.0000   1.0000   1.0000   1.0000   1.0000   1.0000   1.0000   1.0000
     1.0000   1.0000   1.0000   1.0000   1.0000   1.0000   1.0000   1.0000
     1.0000   1.0000   1.0000   1.0000   1.0000   1.0000   1.0000   1.0000
     1.0000   1.0000   1.0000   1.0000   1.0000   1.0000   1.0000   1.0000
     1.0000   1.0000   1.0000   1.0000   1.0000   1.0000   1.0000   1.0000
     1.0000   1.0000   1.0000   1.0000   1.0000   1.0000   1.0000   1.0000
     1.0000   1.0000   1.0000   1.0000   1.0000   1.0000   1.0000   1.0000
     1.0000   1.0000   1.0000   1.0000   1.0000   1.0000   1.0000   1.0000
     1.0000   1.0000   1.0000   1.0000   1.0000   1.0000   1.0000   1.0000
     1.0000   1.0000   1.0000   1.0000   1.0000   1.0000   1.0000   1.0000
     1.0000   1.0000   1.0000   1.0000   1.0000   1.0000   1.0000   1.0000
     1.0000   1.0000   1.0000   1.0000   1.0000   1.0000   1.0000   1.0000
     1.0000   1.0000   1.0000   1.0000   1.0000   1.0000   1.0000   1.0000
     1.0000   1.0000   1.0000   1.0000   1.0000   1.0000   1.0000   1.0000
     1.0000   1.0000   1.0000   1.0000   1.0000   1.0000   1.0000   1.0000
     1.0000   1.0000   1.0000   1.0000   1.0000   1.0000   1.0000   1.0000
     1.0000   1.0000   1.0000   1.0000   1.0000   1.0000   1.0000   1.0000
     1.0000   1.0000   1.0000   1.0000   1.0000   1.0000   1.0000   1.0000
     1.0000   1.0000   1.0000   1.0000   1.0000   1.0000   1.0000   1.0000
     1.0000   1.0000   1.0000   1.0000   1.0000   1.0000   1.0000   1.0000
     1.0000   1.0000   1.0000   1.0000   1.0000   1.0000   1.0000   1.0000
     1.0000   1.0000   1.0000   1.0000   1.0000   1.0000   1.0000   1.0000
     1.0000   1.0000   1.0000   1.0000   1.0000   1.0000   1.0000   1.0000
     1.0000   1.0000   1.0000   1.0000   1.0000   1.0000   1.0000   1.0000
     1.0000   1.0000   1.0000   1.0000   1.0000   1.0000   1.0000   1.0000
     1.0000   1.0000   1.0000   1.0000   1.0000   1.0000   1.0000   1.0000
     1.0000   1.0000   1.0000   1.0000   1.0000   1.0000   1.0000   1.0000
     1.0000   1.0000   1.0000   1.0000   1.0000   1.0000   1.0000   1.0000
     1.0000   1.0000   1.0000   1.0000   1.0000   1.0000   1.0000   1.0000
     1.0000   1.0000   1.0000   1.0000   1.0000   1.0000   1.0000   1.0000
     1.0000   1.0000   1.0000   1.0000   1.0000   1.0000   1.0000   1.0000
     1.0000   1.0000   1.0000   1.0000   1.0000   1.0000   1.0000   1.0000
     1.0000   1.0000   1.0000   1.0000   1.0000   1.0000   1.0000   1.0000
     1.0000   1.0000   1.0000   1.0000   1.0000   1.0000   1.0000   1.0000
     1.0000   1.0000   1.0000   1.0000   1.0000   1.0000   1.0000   1.0000
     1.0000   1.0000   1.0000   1.0000   1.0000   1.0000   1.0000   1.0000
     1.0000   1.0000   1.0000   1.0000   1.0000   1.0000   1.0000   1.0000
     1.0000   1.0000   1.0000   1.0000   1.0000   1.0000   1.0000   1.0000
     1.0000   1.0000   1.0000   1.0000   1.0000   1.0000   1.0000   1.0000
     1.0000   1.0000   1.0000   1.0000   1.0000   1.0000   1.0000   1.0000
     1.0000   1.0000   1.0000   1.0000   1.0000   1.0000   1.0000   1.0000
     1.0000   1.0000   1.0000   1.0000   1.0000   1.0000   1.0000   1.0000
     1.0000   1.0000   1.0000   1.0000   1.0000   1.0000   1.0000   1.0000
     1.0000   1.0000   1.0000   1.0000   1.0000   1.0000   1.0000   1.0000
     1.0000   1.0000   1.0000   1.0000   1.0000   1.0000   1.0000   1.0000
     1.0000   1.0000   1.0000   1.0000   1.0000   1.0000   1.0000   1.0000
     1.0000   1.0000   1.0000   1.0000   1.0000   1.0000   1.0000   1.0000
     1.0000   1.0000   1.0000   1.0000   1.0000   1.0000   1.0000   1.0000
     1.0000   1.0000   1.0000   1.0000   1.0000   1.0000   1.0000   1.0000
     1.0000   1.0000   1.0000   1.0000   1.0000   1.0000   1.0000   1.0000
     1.0000   1.0000   1.0000   1.0000   1.0000   1.0000   1.0000   1.0000
     1.0000   1.0000   1.0000   1.0000   1.0000   1.0000   1.0000   1.0000
     1.0000   1.0000   1.0000   1.0000   1.0000   1.0000   1.0000   1.0000
     1.0000   1.0000   1.0000   1.0000   1.0000   1.0000   1.0000   1.0000
     1.0000   1.0000   1.0000   1.0000   0.2993   0.0000   0.0000   0.0000
     0.0000   0.0000   0.0000   0.0000   0.0000   0.0000   0.0000   0.0000
     0.0000   0.0000   0.0000   0.0000   0.0000   0.0000   0.0000   0.0000
     0.0000   0.0000   0.0000   0.0000   0.0000   0.0000   0.0000   0.0000
     0.0000   0.0000   0.0000   0.0000   0.0000   0.0000   0.0000   0.0000
     0.0000   0.0000   0.0000   0.0000   0.0000   0.0000   0.0000   0.0000
     0.0000   0.0000   0.0000   0.0000   0.0000   0.0000   0.0000   0.0000
     0.0000   0.0000   0.0000   0.0000   0.0000   0.0000   0.0000   0.0000
     0.0000   0.0000   0.0000   0.0000   0.0000   0.0000   0.0000   0.0000
     0.0000   0.0000   0.0000   0.0000   0.0000   0.0000   0.0000   0.0000

          k = 0.0000 0.2887 0.0000 ( 51284 PWs)   bands (ev):

    -6.4110  -6.1586  -6.1416  -6.0220  -5.9013  -5.8933  -5.8528  -5.8409
    -5.7695  -5.7668  -5.7638  -5.7584  -5.7565  -5.7548  -5.7518  -5.7322
    -5.7121  -5.6616  -5.6603  -5.6583  -5.6532  -5.6522  -5.6385  -5.6333
    -5.6299  -5.6235  -5.6139  -5.6069  -5.5989  -5.5953  -5.5930  -5.5929
    -5.5822  -5.5709  -5.5693  -5.5663  -5.5647  -5.5626  -5.5598  -5.5593
    -5.5558  -5.5546  -5.5507  -5.5486  -5.5466  -5.5457  -5.5394  -5.5370
    -5.5355  -5.5268  -5.5219  -5.4952  -5.4947  -4.2526  -4.2047  -4.1932
    -4.1899  -4.1887  -4.1876  -4.1818  -4.1775  -4.1719  -4.1699  -4.1678
    -4.1640  -4.1629  -4.1605  -4.1576  -4.1550  -4.1544  -4.1536  -4.1514
    -4.1513  -4.1490  -4.1486  -4.1471  -4.1465  -4.1457  -4.1448  -4.1429
    -4.1428  -4.1385  -4.1381  -4.1364  -4.1363  -4.1346  -4.1338  -4.1323
    -4.1316  -4.1298  -4.1297  -4.1269  -4.1254  -4.1244  -4.1222  -4.1188
    -4.1179  -4.1159  -4.1157  -4.1127  -4.1123  -4.1098  -4.1093  -4.1077
    -4.1074  -4.1056  -4.1048  -4.1036  -4.1014  -4.1002  -4.0981  -4.0967
    -4.0961  -4.0940  -4.0938  -4.0909  -4.0893  -4.0845  -4.0836  -4.0819
    -4.0810  -4.0793  -4.0766  -4.0757  -4.0735  -4.0688  -4.0677  -4.0658
    -4.0639  -4.0610  -4.0608  -4.0575  -4.0558  -4.0525  -4.0524  -4.0487
    -4.0469  -4.0461  -4.0453  -4.0404  -4.0389  -4.0339  -4.0325  -4.0292
    -4.0282  -4.0257  -4.0256  -4.0233  -4.0214  -4.0170  -4.0152  -4.0136
    -4.0114  -4.0106  -4.0090  -4.0080  -4.0055  -4.0050  -4.0036  -4.0026
    -4.0020  -3.9992  -3.9988  -3.9972  -3.9956  -3.9949  -3.9934  -3.9928
    -3.9917  -3.9903  -3.9896  -3.9884  -3.9873  -3.9864  -3.9844  -3.9842
    -3.9828  -3.9806  -3.9797  -3.9787  -3.9786  -3.9779  -3.9771  -3.9754
    -3.9723  -3.9720  -3.9705  -3.9703  -3.9689  -3.9671  -3.9649  -3.9635
    -3.9617  -3.9592  -3.9568  -3.9563  -3.9546  -3.9528  -3.9526  -3.9509
    -3.9503  -3.9489  -3.9482  -3.9472  -3.9449  -3.9418  -3.9404  -3.9386
    -3.9367  -3.9361  -3.9353  -3.9333  -3.9324  -3.9316  -3.9313  -3.9293
    -3.9275  -3.9256  -3.9250  -3.9233  -3.9224  -3.9197  -3.9175  -3.9162
    -3.9146  -3.9145  -3.9122  -3.9119  -3.9100  -3.9097  -3.9073  -3.9065
    -3.9040  -3.9029  -3.9022  -3.9006  -3.9004  -3.8988  -3.8973  -3.8956
    -3.8947  -3.8935  -3.8928  -3.8916  -3.8888  -3.8885  -3.8873  -3.8834
    -3.8829  -3.8787  -3.8786  -3.8759  -3.8759  -3.8745  -3.8713  -3.8674
    -3.8648  -3.8636  -3.8583  -3.8520  -3.8484  -3.8415  -3.8369  -3.8236
    -3.7907  -3.7890  -3.7694  -3.7684  -3.7450  -3.7419  -3.7332  -3.7289
    -3.6674  -3.6490  -3.6413  -3.6242  -3.6210  -3.6100  -3.4449  -3.4446
    -3.4326  -3.4148  -3.3374  -3.3200  -3.2323  -3.2156  -3.0464  -3.0393
    -3.0359  -3.0292  -2.9878  -2.9201  -2.9121  -2.8684  -2.8282  -2.7339
    -2.7320  -2.7258  -2.6825  -2.5730  -2.4940  -2.4876  -2.4519  -2.4495
    -2.4488  -2.4383  -2.4004  -2.3987  -2.3934  -2.3862  -2.3733  -2.2805
    -2.2464  -2.1656  -2.1610  -2.1605  -2.1538  -2.1425  -2.0914  -2.0690
    -2.0477  -2.0358  -2.0268  -0.1273   2.4874   2.9035   2.9202   3.1254
     3.1556   3.1738   3.1790   3.1830   3.1988   3.2177   3.2366   3.2512
     3.2531   3.3581   3.3652   3.3919   3.4202   3.4702   3.4897   3.4947
     3.5104   3.5746   3.5865   3.6082   3.6437   3.8305   3.8455   3.8531
     3.8628   3.9453   3.9564   3.9754   3.9895   4.0438   4.0466   4.0835
     4.1059   4.1234   4.1856   4.3292   4.4548   4.4959   4.7419   4.7509
     4.8369   4.8465   4.8565   4.8875   4.9235   4.9534   5.0223   5.0382
     5.0450   5.0697   5.0769   5.1180   5.1359   5.3757   5.4014   5.4817
     5.7585   5.7914   5.8490   5.8793   6.1476   6.1510   6.1609   6.1694
     6.2193   6.2247   6.2328   6.2337   6.2568   6.2746   6.2999   6.3039
     6.3610   6.3759   6.3911   6.4400   6.4708   6.5242   6.5453   6.7202
     6.8464   6.8536   6.8721   6.9047   6.9117   6.9181   6.9232   6.9271
     6.9391   6.9554   6.9693   7.0217   7.0692   7.1060   7.1500   7.1627
     7.1696   7.1991   7.2108   7.2303   7.2369   7.3062   7.3693   7.4657
     7.6107   7.6256   7.6261   7.6414   7.6677   7.7110   7.7224   7.7307
     7.7410   7.7503   7.7637   7.7737   7.7864   7.8425   7.8655   7.8913
     7.9002   7.9100   7.9334   7.9452   7.9554   8.0105   8.0252   8.0277
     8.0485   8.0581   8.0877   8.1133   8.1310   8.1384   8.1524   8.1693
     8.1720   8.2198   8.2504   8.2934   8.3165   8.3531   8.3709   8.3736
     8.3915   8.4339   8.4837   8.5232   8.6103   8.6604   8.6843   8.8127
     8.8270   8.9172   9.0581   9.0814   9.2723   9.4002  11.6136  12.9796
    13.0073  13.3602  13.3671  13.4078  13.7013  13.7150  13.7214  13.7321
    13.7336  13.7455  13.7851  13.8642  13.8787  13.8855  13.8959  13.9049
    13.9287  13.9590  14.1035  14.2410  14.3103  14.3548  14.4665  14.5407
    14.6319  14.6355  14.6876  14.7932  14.7997  14.8062  14.8694  14.9849
    14.9862  14.9910  14.9946  15.0008  15.0243  15.0875  15.0965  15.1230
    15.1425  15.1641  15.1885  15.3004  15.3496  15.4264  15.4853  15.5505
    15.5953  15.6924  15.7061  15.7102  15.8698  16.1560  16.1916  16.2415
    16.2658  16.3254  16.3300  16.3473  16.3594  16.4009  16.4328  16.4657
    16.4686  16.4818  16.4895  16.5281  16.5320  16.5371  16.5728  16.5803

     occupation numbers 
     1.0000   1.0000   1.0000   1.0000   1.0000   1.0000   1.0000   1.0000
     1.0000   1.0000   1.0000   1.0000   1.0000   1.0000   1.0000   1.0000
     1.0000   1.0000   1.0000   1.0000   1.0000   1.0000   1.0000   1.0000
     1.0000   1.0000   1.0000   1.0000   1.0000   1.0000   1.0000   1.0000
     1.0000   1.0000   1.0000   1.0000   1.0000   1.0000   1.0000   1.0000
     1.0000   1.0000   1.0000   1.0000   1.0000   1.0000   1.0000   1.0000
     1.0000   1.0000   1.0000   1.0000   1.0000   1.0000   1.0000   1.0000
     1.0000   1.0000   1.0000   1.0000   1.0000   1.0000   1.0000   1.0000
     1.0000   1.0000   1.0000   1.0000   1.0000   1.0000   1.0000   1.0000
     1.0000   1.0000   1.0000   1.0000   1.0000   1.0000   1.0000   1.0000
     1.0000   1.0000   1.0000   1.0000   1.0000   1.0000   1.0000   1.0000
     1.0000   1.0000   1.0000   1.0000   1.0000   1.0000   1.0000   1.0000
     1.0000   1.0000   1.0000   1.0000   1.0000   1.0000   1.0000   1.0000
     1.0000   1.0000   1.0000   1.0000   1.0000   1.0000   1.0000   1.0000
     1.0000   1.0000   1.0000   1.0000   1.0000   1.0000   1.0000   1.0000
     1.0000   1.0000   1.0000   1.0000   1.0000   1.0000   1.0000   1.0000
     1.0000   1.0000   1.0000   1.0000   1.0000   1.0000   1.0000   1.0000
     1.0000   1.0000   1.0000   1.0000   1.0000   1.0000   1.0000   1.0000
     1.0000   1.0000   1.0000   1.0000   1.0000   1.0000   1.0000   1.0000
     1.0000   1.0000   1.0000   1.0000   1.0000   1.0000   1.0000   1.0000
     1.0000   1.0000   1.0000   1.0000   1.0000   1.0000   1.0000   1.0000
     1.0000   1.0000   1.0000   1.0000   1.0000   1.0000   1.0000   1.0000
     1.0000   1.0000   1.0000   1.0000   1.0000   1.0000   1.0000   1.0000
     1.0000   1.0000   1.0000   1.0000   1.0000   1.0000   1.0000   1.0000
     1.0000   1.0000   1.0000   1.0000   1.0000   1.0000   1.0000   1.0000
     1.0000   1.0000   1.0000   1.0000   1.0000   1.0000   1.0000   1.0000
     1.0000   1.0000   1.0000   1.0000   1.0000   1.0000   1.0000   1.0000
     1.0000   1.0000   1.0000   1.0000   1.0000   1.0000   1.0000   1.0000
     1.0000   1.0000   1.0000   1.0000   1.0000   1.0000   1.0000   1.0000
     1.0000   1.0000   1.0000   1.0000   1.0000   1.0000   1.0000   1.0000
     1.0000   1.0000   1.0000   1.0000   1.0000   1.0000   1.0000   1.0000
     1.0000   1.0000   1.0000   1.0000   1.0000   1.0000   1.0000   1.0000
     1.0000   1.0000   1.0000   1.0000   1.0000   1.0000   1.0000   1.0000
     1.0000   1.0000   1.0000   1.0000   1.0000   1.0000   1.0000   1.0000
     1.0000   1.0000   1.0000   1.0000   1.0000   1.0000   1.0000   1.0000
     1.0000   1.0000   1.0000   1.0000   1.0000   1.0000   1.0000   1.0000
     1.0000   1.0000   1.0000   1.0000   1.0000   1.0000   1.0000   1.0000
     1.0000   1.0000   1.0000   1.0000   1.0000   1.0000   1.0000   1.0000
     1.0000   1.0000   1.0000   1.0000   1.0000   1.0000   1.0000   1.0000
     1.0000   1.0000   1.0000   1.0000   1.0000   1.0000   1.0000   1.0000
     1.0000   1.0000   1.0000   1.0000   1.0000   1.0000   1.0000   1.0000
     1.0000   1.0000   1.0000   1.0000   1.0000   1.0000   1.0000   1.0000
     1.0000   1.0000   1.0000   1.0000   1.0000   1.0000   1.0000   1.0000
     1.0000   1.0000   1.0000   1.0000   1.0000   1.0000   1.0000   1.0000
     1.0000   1.0000   1.0000   1.0000   1.0000   1.0000   1.0000   1.0000
     1.0000   1.0000   1.0000   1.0000   1.0000   1.0000   1.0000   1.0000
     1.0000   1.0000   1.0000   1.0000   1.0000   1.0000   1.0000   1.0000
     1.0000   1.0000   1.0000   1.0000   1.0000   1.0000   1.0000   1.0000
     1.0000   1.0000   1.0000   1.0000   1.0000   1.0000   1.0000   1.0000
     1.0000   1.0000   1.0000   1.0000   1.0000   1.0000   1.0000   1.0000
     1.0000   1.0000   1.0000   1.0000   1.0000   1.0000   1.0000   1.0000
     1.0000   1.0000   1.0000   1.0000   1.0000   1.0000   1.0000   1.0000
     1.0000   1.0000   1.0000   1.0000   1.0000   1.0000   1.0000   1.0000
     1.0000   1.0000   1.0000   1.0000   1.0000   1.0000   1.0000   1.0000
     1.0000   1.0000   1.0000   1.0000   1.0000   1.0000   1.0000   1.0000
     1.0000   1.0000   1.0000   1.0000   1.0000   1.0000   1.0000   1.0000
     1.0000   1.0000   1.0000   1.0000   1.0000   1.0000   1.0000   1.0000
     1.0000   1.0000   1.0000   1.0000   1.0000   1.0000   1.0000   1.0000
     1.0000   1.0000   1.0000   1.0000   1.0000   1.0000   1.0000   1.0000
     1.0000   1.0000   1.0000   1.0000   1.0000   1.0000   1.0000   1.0000
     1.0000   1.0000   1.0000   1.0000   1.0123  -0.0028   0.0000   0.0000
     0.0000   0.0000   0.0000   0.0000   0.0000   0.0000   0.0000   0.0000
     0.0000   0.0000   0.0000   0.0000   0.0000   0.0000   0.0000   0.0000
     0.0000   0.0000   0.0000   0.0000   0.0000   0.0000   0.0000   0.0000
     0.0000   0.0000   0.0000   0.0000   0.0000   0.0000   0.0000   0.0000
     0.0000   0.0000   0.0000   0.0000   0.0000   0.0000   0.0000   0.0000
     0.0000   0.0000   0.0000   0.0000   0.0000   0.0000   0.0000   0.0000
     0.0000   0.0000   0.0000   0.0000   0.0000   0.0000   0.0000   0.0000
     0.0000   0.0000   0.0000   0.0000   0.0000   0.0000   0.0000   0.0000
     0.0000   0.0000   0.0000   0.0000   0.0000   0.0000   0.0000   0.0000

          k = 0.0000 0.2887 0.1533 ( 51308 PWs)   bands (ev):

    -6.3934  -6.2528  -6.0391  -6.0089  -5.9179  -5.8912  -5.8782  -5.8369
    -5.8126  -5.8016  -5.7776  -5.7463  -5.7429  -5.7181  -5.7122  -5.7056
    -5.6995  -5.6911  -5.6831  -5.6699  -5.6644  -5.6541  -5.6282  -5.6254
    -5.6172  -5.6154  -5.6111  -5.6100  -5.6088  -5.5974  -5.5869  -5.5856
    -5.5812  -5.5777  -5.5769  -5.5711  -5.5681  -5.5622  -5.5603  -5.5601
    -5.5557  -5.5552  -5.5476  -5.5473  -5.5445  -5.5425  -5.5402  -5.5363
    -5.5362  -5.5277  -5.5221  -5.4953  -5.4948  -4.2526  -4.2024  -4.1928
    -4.1905  -4.1862  -4.1859  -4.1783  -4.1781  -4.1697  -4.1696  -4.1668
    -4.1635  -4.1621  -4.1600  -4.1597  -4.1577  -4.1559  -4.1558  -4.1547
    -4.1517  -4.1495  -4.1494  -4.1470  -4.1466  -4.1451  -4.1451  -4.1429
    -4.1424  -4.1419  -4.1401  -4.1386  -4.1374  -4.1361  -4.1339  -4.1339
    -4.1320  -4.1314  -4.1280  -4.1274  -4.1264  -4.1259  -4.1219  -4.1216
    -4.1204  -4.1199  -4.1184  -4.1184  -4.1157  -4.1134  -4.1122  -4.1110
    -4.1094  -4.1074  -4.1050  -4.1021  -4.1010  -4.0995  -4.0944  -4.0943
    -4.0924  -4.0898  -4.0883  -4.0865  -4.0841  -4.0833  -4.0818  -4.0816
    -4.0774  -4.0772  -4.0761  -4.0756  -4.0710  -4.0691  -4.0679  -4.0645
    -4.0634  -4.0619  -4.0597  -4.0563  -4.0560  -4.0520  -4.0501  -4.0471
    -4.0463  -4.0454  -4.0421  -4.0420  -4.0379  -4.0348  -4.0348  -4.0316
    -4.0307  -4.0297  -4.0281  -4.0215  -4.0210  -4.0173  -4.0155  -4.0133
    -4.0127  -4.0099  -4.0082  -4.0082  -4.0053  -4.0047  -4.0032  -4.0025
    -4.0015  -4.0004  -4.0003  -3.9973  -3.9967  -3.9944  -3.9938  -3.9923
    -3.9917  -3.9912  -3.9901  -3.9899  -3.9860  -3.9840  -3.9830  -3.9826
    -3.9820  -3.9795  -3.9787  -3.9777  -3.9773  -3.9751  -3.9746  -3.9724
    -3.9723  -3.9703  -3.9694  -3.9683  -3.9669  -3.9662  -3.9646  -3.9624
    -3.9613  -3.9587  -3.9586  -3.9577  -3.9568  -3.9541  -3.9527  -3.9521
    -3.9505  -3.9498  -3.9475  -3.9465  -3.9460  -3.9430  -3.9415  -3.9412
    -3.9376  -3.9365  -3.9362  -3.9342  -3.9308  -3.9297  -3.9293  -3.9279
    -3.9252  -3.9249  -3.9233  -3.9224  -3.9193  -3.9185  -3.9171  -3.9168
    -3.9154  -3.9137  -3.9123  -3.9113  -3.9098  -3.9097  -3.9074  -3.9064
    -3.9056  -3.9054  -3.9025  -3.9005  -3.8977  -3.8972  -3.8963  -3.8953
    -3.8938  -3.8935  -3.8929  -3.8892  -3.8888  -3.8866  -3.8858  -3.8828
    -3.8815  -3.8782  -3.8777  -3.8768  -3.8736  -3.8715  -3.8712  -3.8672
    -3.8633  -3.8619  -3.8585  -3.8498  -3.8483  -3.8421  -3.8351  -3.8226
    -3.7909  -3.7891  -3.7691  -3.7658  -3.7449  -3.7420  -3.7332  -3.7322
    -3.7226  -3.6433  -3.6389  -3.6194  -3.6188  -3.5678  -3.5318  -3.5196
    -3.5036  -3.3104  -3.2998  -3.2211  -3.2082  -3.1461  -3.1213  -3.1084
    -3.0720  -3.0187  -2.9514  -2.9458  -2.9305  -2.9169  -2.8651  -2.7513
    -2.6773  -2.6474  -2.6179  -2.5985  -2.5189  -2.5159  -2.5034  -2.4878
    -2.4631  -2.4335  -2.4033  -2.3398  -2.3222  -2.3104  -2.2889  -2.2826
    -2.2467  -2.2203  -2.2035  -2.1903  -2.1480  -2.1132  -2.1015  -2.0886
    -2.0687  -2.0525  -2.0447  -0.1297   2.6085   2.9143   2.9820   3.0816
     3.1468   3.1557   3.1976   3.2086   3.2321   3.2740   3.2830   3.2979
     3.3116   3.3117   3.3149   3.3355   3.3566   3.3844   3.4265   3.4354
     3.4739   3.5500   3.5606   3.6539   3.6626   3.6837   3.7050   3.7227
     3.7279   3.7850   3.8683   4.0418   4.0606   4.0653   4.0984   4.2125
     4.2263   4.2851   4.4192   4.4728   4.5132   4.5810   4.6204   4.7438
     4.7444   4.7726   4.8793   4.8852   4.9818   4.9841   5.0718   5.0793
     5.1117   5.1506   5.1535   5.1888   5.2929   5.2935   5.4389   5.6234
     5.7062   5.7373   5.7759   5.7954   5.8247   5.8364   5.8671   5.8851
     5.9060   5.9767   6.0174   6.1267   6.1941   6.3783   6.4319   6.4480
     6.5412   6.5576   6.7010   6.7026   6.7187   6.7247   6.7352   6.7387
     6.7487   6.7627   6.7660   6.8036   6.8460   6.8572   6.9175   6.9343
     6.9553   6.9781   6.9982   7.0375   7.0827   7.1111   7.1694   7.2335
     7.2703   7.3679   7.3791   7.3912   7.4045   7.4156   7.5061   7.5114
     7.5120   7.5302   7.5307   7.5601   7.5886   7.6461   7.6716   7.6916
     7.7002   7.7247   7.7731   7.7828   7.7886   7.8137   7.8205   7.8315
     7.8343   7.8446   7.8609   7.8696   7.9024   7.9259   7.9652   8.0192
     8.0516   8.0884   8.1104   8.1148   8.1445   8.1497   8.1690   8.1902
     8.2225   8.2731   8.2938   8.3032   8.3243   8.3267   8.3701   8.3817
     8.4337   8.4424   8.5049   8.5187   8.5245   8.6351   8.7482   8.7592
     8.7952   8.9079   9.0800   9.1033   9.2368   9.3947  11.7567  12.5521
    13.3706  13.3889  13.4526  13.4945  13.5309  13.7701  13.7958  13.8008
    13.8075  13.8140  13.8343  13.8423  13.8464  13.8826  13.9182  13.9641
    14.0166  14.0609  14.1094  14.1109  14.2207  14.3203  14.3812  14.4613
    14.4624  14.5282  14.5856  14.6929  14.6949  14.7391  14.8067  14.8860
    14.9653  14.9774  14.9981  15.0033  15.0102  15.0316  15.0689  15.0772
    15.1113  15.2250  15.3545  15.3648  15.3737  15.3954  15.4023  15.6056
    15.7181  15.7317  15.7772  15.8962  15.9561  16.1627  16.1790  16.1816
    16.2118  16.2179  16.2755  16.3147  16.3334  16.4202  16.4817  16.5151
    16.5426  16.5563  16.5681  16.6373  16.6630  16.6701  16.6809  16.6998

     occupation numbers 
     1.0000   1.0000   1.0000   1.0000   1.0000   1.0000   1.0000   1.0000
     1.0000   1.0000   1.0000   1.0000   1.0000   1.0000   1.0000   1.0000
     1.0000   1.0000   1.0000   1.0000   1.0000   1.0000   1.0000   1.0000
     1.0000   1.0000   1.0000   1.0000   1.0000   1.0000   1.0000   1.0000
     1.0000   1.0000   1.0000   1.0000   1.0000   1.0000   1.0000   1.0000
     1.0000   1.0000   1.0000   1.0000   1.0000   1.0000   1.0000   1.0000
     1.0000   1.0000   1.0000   1.0000   1.0000   1.0000   1.0000   1.0000
     1.0000   1.0000   1.0000   1.0000   1.0000   1.0000   1.0000   1.0000
     1.0000   1.0000   1.0000   1.0000   1.0000   1.0000   1.0000   1.0000
     1.0000   1.0000   1.0000   1.0000   1.0000   1.0000   1.0000   1.0000
     1.0000   1.0000   1.0000   1.0000   1.0000   1.0000   1.0000   1.0000
     1.0000   1.0000   1.0000   1.0000   1.0000   1.0000   1.0000   1.0000
     1.0000   1.0000   1.0000   1.0000   1.0000   1.0000   1.0000   1.0000
     1.0000   1.0000   1.0000   1.0000   1.0000   1.0000   1.0000   1.0000
     1.0000   1.0000   1.0000   1.0000   1.0000   1.0000   1.0000   1.0000
     1.0000   1.0000   1.0000   1.0000   1.0000   1.0000   1.0000   1.0000
     1.0000   1.0000   1.0000   1.0000   1.0000   1.0000   1.0000   1.0000
     1.0000   1.0000   1.0000   1.0000   1.0000   1.0000   1.0000   1.0000
     1.0000   1.0000   1.0000   1.0000   1.0000   1.0000   1.0000   1.0000
     1.0000   1.0000   1.0000   1.0000   1.0000   1.0000   1.0000   1.0000
     1.0000   1.0000   1.0000   1.0000   1.0000   1.0000   1.0000   1.0000
     1.0000   1.0000   1.0000   1.0000   1.0000   1.0000   1.0000   1.0000
     1.0000   1.0000   1.0000   1.0000   1.0000   1.0000   1.0000   1.0000
     1.0000   1.0000   1.0000   1.0000   1.0000   1.0000   1.0000   1.0000
     1.0000   1.0000   1.0000   1.0000   1.0000   1.0000   1.0000   1.0000
     1.0000   1.0000   1.0000   1.0000   1.0000   1.0000   1.0000   1.0000
     1.0000   1.0000   1.0000   1.0000   1.0000   1.0000   1.0000   1.0000
     1.0000   1.0000   1.0000   1.0000   1.0000   1.0000   1.0000   1.0000
     1.0000   1.0000   1.0000   1.0000   1.0000   1.0000   1.0000   1.0000
     1.0000   1.0000   1.0000   1.0000   1.0000   1.0000   1.0000   1.0000
     1.0000   1.0000   1.0000   1.0000   1.0000   1.0000   1.0000   1.0000
     1.0000   1.0000   1.0000   1.0000   1.0000   1.0000   1.0000   1.0000
     1.0000   1.0000   1.0000   1.0000   1.0000   1.0000   1.0000   1.0000
     1.0000   1.0000   1.0000   1.0000   1.0000   1.0000   1.0000   1.0000
     1.0000   1.0000   1.0000   1.0000   1.0000   1.0000   1.0000   1.0000
     1.0000   1.0000   1.0000   1.0000   1.0000   1.0000   1.0000   1.0000
     1.0000   1.0000   1.0000   1.0000   1.0000   1.0000   1.0000   1.0000
     1.0000   1.0000   1.0000   1.0000   1.0000   1.0000   1.0000   1.0000
     1.0000   1.0000   1.0000   1.0000   1.0000   1.0000   1.0000   1.0000
     1.0000   1.0000   1.0000   1.0000   1.0000   1.0000   1.0000   1.0000
     1.0000   1.0000   1.0000   1.0000   1.0000   1.0000   1.0000   1.0000
     1.0000   1.0000   1.0000   1.0000   1.0000   1.0000   1.0000   1.0000
     1.0000   1.0000   1.0000   1.0000   1.0000   1.0000   1.0000   1.0000
     1.0000   1.0000   1.0000   1.0000   1.0000   1.0000   1.0000   1.0000
     1.0000   1.0000   1.0000   1.0000   1.0000   1.0000   1.0000   1.0000
     1.0000   1.0000   1.0000   1.0000   1.0000   1.0000   1.0000   1.0000
     1.0000   1.0000   1.0000   1.0000   1.0000   1.0000   1.0000   1.0000
     1.0000   1.0000   1.0000   1.0000   1.0000   1.0000   1.0000   1.0000
     1.0000   1.0000   1.0000   1.0000   1.0000   1.0000   1.0000   1.0000
     1.0000   1.0000   1.0000   1.0000   1.0000   1.0000   1.0000   1.0000
     1.0000   1.0000   1.0000   1.0000   1.0000   1.0000   1.0000   1.0000
     1.0000   1.0000   1.0000   1.0000   1.0000   1.0000   1.0000   1.0000
     1.0000   1.0000   1.0000   1.0000   1.0000   1.0000   1.0000   1.0000
     1.0000   1.0000   1.0000   1.0000   1.0000   1.0000   1.0000   1.0000
     1.0000   1.0000   1.0000   1.0000   1.0000   1.0000   1.0000   1.0000
     1.0000   1.0000   1.0000   1.0000   1.0000   1.0000   1.0000   1.0000
     1.0000   1.0000   1.0000   1.0000   1.0000   1.0000   1.0000   1.0000
     1.0000   1.0000   1.0000   1.0000   1.0000   1.0000   1.0000   1.0000
     1.0000   1.0000   1.0000   1.0000   1.0000   1.0000   1.0000   1.0000
     1.0000   1.0000   1.0000   1.0000   1.0000   1.0000   1.0000   1.0000
     1.0000   1.0000   1.0000   1.0000   1.0214  -0.0483   0.0000   0.0000
     0.0000   0.0000   0.0000   0.0000   0.0000   0.0000   0.0000   0.0000
     0.0000   0.0000   0.0000   0.0000   0.0000   0.0000   0.0000   0.0000
     0.0000   0.0000   0.0000   0.0000   0.0000   0.0000   0.0000   0.0000
     0.0000   0.0000   0.0000   0.0000   0.0000   0.0000   0.0000   0.0000
     0.0000   0.0000   0.0000   0.0000   0.0000   0.0000   0.0000   0.0000
     0.0000   0.0000   0.0000   0.0000   0.0000   0.0000   0.0000   0.0000
     0.0000   0.0000   0.0000   0.0000   0.0000   0.0000   0.0000   0.0000
     0.0000   0.0000   0.0000   0.0000   0.0000   0.0000   0.0000   0.0000
     0.0000   0.0000   0.0000   0.0000   0.0000   0.0000   0.0000   0.0000

          k = 0.0000 0.2887-0.3067 ( 51272 PWs)   bands (ev):

    -6.3557  -6.3199  -5.9856  -5.9629  -5.9313  -5.9251  -5.8702  -5.8637
    -5.8485  -5.8293  -5.7338  -5.7311  -5.7188  -5.7174  -5.7137  -5.7134
    -5.6996  -5.6926  -5.6768  -5.6725  -5.6596  -5.6573  -5.6543  -5.6453
    -5.6067  -5.6060  -5.6029  -5.5972  -5.5945  -5.5935  -5.5905  -5.5902
    -5.5890  -5.5831  -5.5767  -5.5761  -5.5747  -5.5666  -5.5607  -5.5590
    -5.5556  -5.5555  -5.5466  -5.5457  -5.5430  -5.5408  -5.5395  -5.5350
    -5.5349  -5.5297  -5.5227  -5.4954  -5.4948  -4.2525  -4.1993  -4.1928
    -4.1926  -4.1812  -4.1802  -4.1776  -4.1726  -4.1713  -4.1686  -4.1679
    -4.1671  -4.1653  -4.1622  -4.1619  -4.1607  -4.1585  -4.1566  -4.1547
    -4.1531  -4.1494  -4.1475  -4.1471  -4.1459  -4.1455  -4.1444  -4.1430
    -4.1421  -4.1409  -4.1401  -4.1396  -4.1388  -4.1357  -4.1355  -4.1334
    -4.1334  -4.1316  -4.1311  -4.1297  -4.1287  -4.1283  -4.1275  -4.1263
    -4.1245  -4.1226  -4.1219  -4.1196  -4.1195  -4.1166  -4.1146  -4.1139
    -4.1106  -4.1098  -4.0993  -4.0981  -4.0968  -4.0958  -4.0952  -4.0913
    -4.0897  -4.0865  -4.0861  -4.0849  -4.0803  -4.0787  -4.0785  -4.0763
    -4.0727  -4.0723  -4.0700  -4.0686  -4.0675  -4.0669  -4.0666  -4.0632
    -4.0614  -4.0604  -4.0594  -4.0584  -4.0558  -4.0553  -4.0533  -4.0506
    -4.0490  -4.0484  -4.0465  -4.0462  -4.0409  -4.0401  -4.0365  -4.0334
    -4.0329  -4.0285  -4.0279  -4.0258  -4.0230  -4.0223  -4.0193  -4.0157
    -4.0127  -4.0109  -4.0087  -4.0085  -4.0058  -4.0053  -4.0032  -4.0015
    -4.0005  -4.0001  -3.9980  -3.9969  -3.9957  -3.9954  -3.9947  -3.9923
    -3.9923  -3.9902  -3.9885  -3.9870  -3.9840  -3.9833  -3.9820  -3.9804
    -3.9796  -3.9782  -3.9759  -3.9759  -3.9748  -3.9731  -3.9721  -3.9705
    -3.9704  -3.9682  -3.9674  -3.9668  -3.9657  -3.9646  -3.9624  -3.9619
    -3.9605  -3.9605  -3.9593  -3.9579  -3.9549  -3.9548  -3.9530  -3.9530
    -3.9506  -3.9501  -3.9488  -3.9476  -3.9462  -3.9437  -3.9429  -3.9410
    -3.9403  -3.9374  -3.9353  -3.9347  -3.9321  -3.9292  -3.9275  -3.9261
    -3.9257  -3.9233  -3.9209  -3.9207  -3.9196  -3.9177  -3.9170  -3.9154
    -3.9146  -3.9136  -3.9134  -3.9116  -3.9106  -3.9099  -3.9081  -3.9077
    -3.9060  -3.9032  -3.9023  -3.8998  -3.8992  -3.8989  -3.8962  -3.8961
    -3.8937  -3.8936  -3.8921  -3.8889  -3.8884  -3.8867  -3.8860  -3.8826
    -3.8808  -3.8798  -3.8776  -3.8750  -3.8736  -3.8713  -3.8670  -3.8650
    -3.8623  -3.8594  -3.8495  -3.8485  -3.8423  -3.8346  -3.8189  -3.8027
    -3.7892  -3.7870  -3.7748  -3.7691  -3.7515  -3.7419  -3.7402  -3.7332
    -3.7322  -3.7081  -3.6332  -3.6294  -3.6098  -3.6092  -3.5792  -3.5653
    -3.3531  -3.3396  -3.1972  -3.1946  -3.1749  -3.1743  -3.1466  -3.1423
    -3.1410  -3.0881  -3.0035  -2.9562  -2.8352  -2.8253  -2.7792  -2.7763
    -2.7750  -2.7327  -2.6508  -2.6174  -2.4763  -2.4743  -2.4725  -2.4600
    -2.4582  -2.4176  -2.3322  -2.3237  -2.3186  -2.3097  -2.2824  -2.2776
    -2.2772  -2.2260  -2.1787  -2.1632  -2.1629  -2.1473  -2.1465  -2.0979
    -2.0821  -2.0720  -2.0644  -0.1320   2.9402   2.9492   2.9710   2.9964
     3.1202   3.1313   3.1845   3.1890   3.1989   3.2079   3.2300   3.2383
     3.2570   3.2770   3.4088   3.4107   3.4220   3.4225   3.4339   3.4476
     3.4784   3.4890   3.4909   3.5108   3.5137   3.5622   3.5681   3.6135
     3.8810   3.8905   3.9057   3.9452   4.0856   4.1267   4.2977   4.3121
     4.3201   4.3388   4.3954   4.4052   4.4276   4.5148   4.7465   4.7539
     4.7586   4.7858   4.7987   4.8252   5.0980   5.1006   5.1359   5.1713
     5.3604   5.3614   5.3787   5.3848   5.4206   5.4291   5.4803   5.5090
     5.5299   5.5438   5.5480   5.5547   5.5657   5.6106   5.6379   5.6470
     5.7023   5.7493   6.1828   6.2550   6.2874   6.2955   6.3033   6.3586
     6.5952   6.5988   6.6233   6.6450   6.6750   6.6828   6.7085   6.7258
     6.7927   6.8452   6.9758   6.9800   7.0010   7.0329   7.0560   7.0704
     7.0843   7.1017   7.1845   7.1974   7.2032   7.2037   7.2315   7.2361
     7.2414   7.2464   7.2781   7.2970   7.3714   7.4006   7.4202   7.4404
     7.4663   7.5210   7.5338   7.5616   7.5632   7.5716   7.6482   7.6520
     7.6679   7.6721   7.6896   7.7149   7.7680   7.7870   7.7872   7.8091
     7.8206   7.8634   7.8645   7.8820   7.9052   7.9907   8.0152   8.0351
     8.0695   8.0729   8.0889   8.0915   8.1364   8.1570   8.1793   8.2055
     8.2332   8.2510   8.2631   8.3064   8.3140   8.3361   8.3753   8.3790
     8.3816   8.4338   8.4446   8.5121   8.6403   8.6460   8.6744   8.7492
     8.7908   8.8921   9.1239   9.1290   9.1813   9.3888  12.0818  12.1407
    13.3967  13.4351  13.6542  13.6616  13.6990  13.7098  13.7816  13.7889
    13.7993  13.8184  13.8234  13.8344  13.8464  13.9205  14.0296  14.0360
    14.0398  14.0801  14.1063  14.1135  14.1192  14.2475  14.3623  14.3805
    14.4249  14.4424  14.4656  14.4720  14.5028  14.6864  14.8301  14.8401
    14.8444  14.8556  15.0565  15.0608  15.0725  15.0806  15.1031  15.1208
    15.1211  15.1256  15.1338  15.3049  15.3962  15.4069  15.4301  15.6047
    16.0209  16.0325  16.0333  16.0489  16.0496  16.0709  16.0909  16.1258
    16.1330  16.1656  16.1828  16.1988  16.2500  16.2896  16.4854  16.5007
    16.7184  16.7321  16.7683  16.7850  16.7869  16.7871  16.8050  16.8239

     occupation numbers 
     1.0000   1.0000   1.0000   1.0000   1.0000   1.0000   1.0000   1.0000
     1.0000   1.0000   1.0000   1.0000   1.0000   1.0000   1.0000   1.0000
     1.0000   1.0000   1.0000   1.0000   1.0000   1.0000   1.0000   1.0000
     1.0000   1.0000   1.0000   1.0000   1.0000   1.0000   1.0000   1.0000
     1.0000   1.0000   1.0000   1.0000   1.0000   1.0000   1.0000   1.0000
     1.0000   1.0000   1.0000   1.0000   1.0000   1.0000   1.0000   1.0000
     1.0000   1.0000   1.0000   1.0000   1.0000   1.0000   1.0000   1.0000
     1.0000   1.0000   1.0000   1.0000   1.0000   1.0000   1.0000   1.0000
     1.0000   1.0000   1.0000   1.0000   1.0000   1.0000   1.0000   1.0000
     1.0000   1.0000   1.0000   1.0000   1.0000   1.0000   1.0000   1.0000
     1.0000   1.0000   1.0000   1.0000   1.0000   1.0000   1.0000   1.0000
     1.0000   1.0000   1.0000   1.0000   1.0000   1.0000   1.0000   1.0000
     1.0000   1.0000   1.0000   1.0000   1.0000   1.0000   1.0000   1.0000
     1.0000   1.0000   1.0000   1.0000   1.0000   1.0000   1.0000   1.0000
     1.0000   1.0000   1.0000   1.0000   1.0000   1.0000   1.0000   1.0000
     1.0000   1.0000   1.0000   1.0000   1.0000   1.0000   1.0000   1.0000
     1.0000   1.0000   1.0000   1.0000   1.0000   1.0000   1.0000   1.0000
     1.0000   1.0000   1.0000   1.0000   1.0000   1.0000   1.0000   1.0000
     1.0000   1.0000   1.0000   1.0000   1.0000   1.0000   1.0000   1.0000
     1.0000   1.0000   1.0000   1.0000   1.0000   1.0000   1.0000   1.0000
     1.0000   1.0000   1.0000   1.0000   1.0000   1.0000   1.0000   1.0000
     1.0000   1.0000   1.0000   1.0000   1.0000   1.0000   1.0000   1.0000
     1.0000   1.0000   1.0000   1.0000   1.0000   1.0000   1.0000   1.0000
     1.0000   1.0000   1.0000   1.0000   1.0000   1.0000   1.0000   1.0000
     1.0000   1.0000   1.0000   1.0000   1.0000   1.0000   1.0000   1.0000
     1.0000   1.0000   1.0000   1.0000   1.0000   1.0000   1.0000   1.0000
     1.0000   1.0000   1.0000   1.0000   1.0000   1.0000   1.0000   1.0000
     1.0000   1.0000   1.0000   1.0000   1.0000   1.0000   1.0000   1.0000
     1.0000   1.0000   1.0000   1.0000   1.0000   1.0000   1.0000   1.0000
     1.0000   1.0000   1.0000   1.0000   1.0000   1.0000   1.0000   1.0000
     1.0000   1.0000   1.0000   1.0000   1.0000   1.0000   1.0000   1.0000
     1.0000   1.0000   1.0000   1.0000   1.0000   1.0000   1.0000   1.0000
     1.0000   1.0000   1.0000   1.0000   1.0000   1.0000   1.0000   1.0000
     1.0000   1.0000   1.0000   1.0000   1.0000   1.0000   1.0000   1.0000
     1.0000   1.0000   1.0000   1.0000   1.0000   1.0000   1.0000   1.0000
     1.0000   1.0000   1.0000   1.0000   1.0000   1.0000   1.0000   1.0000
     1.0000   1.0000   1.0000   1.0000   1.0000   1.0000   1.0000   1.0000
     1.0000   1.0000   1.0000   1.0000   1.0000   1.0000   1.0000   1.0000
     1.0000   1.0000   1.0000   1.0000   1.0000   1.0000   1.0000   1.0000
     1.0000   1.0000   1.0000   1.0000   1.0000   1.0000   1.0000   1.0000
     1.0000   1.0000   1.0000   1.0000   1.0000   1.0000   1.0000   1.0000
     1.0000   1.0000   1.0000   1.0000   1.0000   1.0000   1.0000   1.0000
     1.0000   1.0000   1.0000   1.0000   1.0000   1.0000   1.0000   1.0000
     1.0000   1.0000   1.0000   1.0000   1.0000   1.0000   1.0000   1.0000
     1.0000   1.0000   1.0000   1.0000   1.0000   1.0000   1.0000   1.0000
     1.0000   1.0000   1.0000   1.0000   1.0000   1.0000   1.0000   1.0000
     1.0000   1.0000   1.0000   1.0000   1.0000   1.0000   1.0000   1.0000
     1.0000   1.0000   1.0000   1.0000   1.0000   1.0000   1.0000   1.0000
     1.0000   1.0000   1.0000   1.0000   1.0000   1.0000   1.0000   1.0000
     1.0000   1.0000   1.0000   1.0000   1.0000   1.0000   1.0000   1.0000
     1.0000   1.0000   1.0000   1.0000   1.0000   1.0000   1.0000   1.0000
     1.0000   1.0000   1.0000   1.0000   1.0000   1.0000   1.0000   1.0000
     1.0000   1.0000   1.0000   1.0000   1.0000   1.0000   1.0000   1.0000
     1.0000   1.0000   1.0000   1.0000   1.0000   1.0000   1.0000   1.0000
     1.0000   1.0000   1.0000   1.0000   1.0000   1.0000   1.0000   1.0000
     1.0000   1.0000   1.0000   1.0000   1.0000   1.0000   1.0000   1.0000
     1.0000   1.0000   1.0000   1.0000   1.0000   1.0000   1.0000   1.0000
     1.0000   1.0000   1.0000   1.0000   1.0000   1.0000   1.0000   1.0000
     1.0000   1.0000   1.0000   1.0000   1.0000   1.0000   1.0000   1.0000
     1.0000   1.0000   1.0000   1.0000   1.0000   1.0000   1.0000   1.0000
     1.0000   1.0000   1.0000   1.0000   1.0319  -0.0939   0.0000   0.0000
     0.0000   0.0000   0.0000   0.0000   0.0000   0.0000   0.0000   0.0000
     0.0000   0.0000   0.0000   0.0000   0.0000   0.0000   0.0000   0.0000
     0.0000   0.0000   0.0000   0.0000   0.0000   0.0000   0.0000   0.0000
     0.0000   0.0000   0.0000   0.0000   0.0000   0.0000   0.0000   0.0000
     0.0000   0.0000   0.0000   0.0000   0.0000   0.0000   0.0000   0.0000
     0.0000   0.0000   0.0000   0.0000   0.0000   0.0000   0.0000   0.0000
     0.0000   0.0000   0.0000   0.0000   0.0000   0.0000   0.0000   0.0000
     0.0000   0.0000   0.0000   0.0000   0.0000   0.0000   0.0000   0.0000
     0.0000   0.0000   0.0000   0.0000   0.0000   0.0000   0.0000   0.0000

          k = 0.0000 0.4330 0.0000 ( 51304 PWs)   bands (ev):

    -6.3375  -6.1358  -6.0974  -6.0800  -5.9379  -5.9309  -5.9197  -5.8955
    -5.7764  -5.7721  -5.7686  -5.7610  -5.7373  -5.7321  -5.7123  -5.7083
    -5.6886  -5.6668  -5.6633  -5.6434  -5.6418  -5.6404  -5.6330  -5.6329
    -5.6285  -5.6261  -5.6151  -5.6078  -5.6048  -5.6039  -5.5999  -5.5984
    -5.5938  -5.5811  -5.5805  -5.5782  -5.5681  -5.5643  -5.5602  -5.5580
    -5.5563  -5.5488  -5.5455  -5.5443  -5.5422  -5.5421  -5.5380  -5.5349
    -5.5337  -5.5286  -5.5203  -5.4948  -5.4938  -4.2509  -4.1963  -4.1855
    -4.1831  -4.1804  -4.1799  -4.1761  -4.1733  -4.1690  -4.1663  -4.1648
    -4.1627  -4.1613  -4.1609  -4.1566  -4.1553  -4.1533  -4.1502  -4.1492
    -4.1472  -4.1467  -4.1462  -4.1440  -4.1433  -4.1426  -4.1404  -4.1385
    -4.1375  -4.1371  -4.1356  -4.1342  -4.1337  -4.1325  -4.1318  -4.1317
    -4.1299  -4.1285  -4.1285  -4.1259  -4.1244  -4.1235  -4.1221  -4.1218
    -4.1181  -4.1180  -4.1155  -4.1137  -4.1131  -4.1128  -4.1104  -4.1097
    -4.1082  -4.1080  -4.1067  -4.1042  -4.1038  -4.1017  -4.1005  -4.0990
    -4.0979  -4.0958  -4.0954  -4.0933  -4.0923  -4.0908  -4.0890  -4.0876
    -4.0861  -4.0843  -4.0843  -4.0810  -4.0788  -4.0749  -4.0731  -4.0728
    -4.0710  -4.0706  -4.0671  -4.0664  -4.0650  -4.0615  -4.0581  -4.0566
    -4.0504  -4.0503  -4.0434  -4.0420  -4.0414  -4.0377  -4.0356  -4.0295
    -4.0277  -4.0244  -4.0232  -4.0230  -4.0211  -4.0206  -4.0171  -4.0149
    -4.0145  -4.0122  -4.0113  -4.0109  -4.0090  -4.0069  -4.0062  -4.0052
    -4.0036  -4.0030  -3.9997  -3.9986  -3.9963  -3.9947  -3.9946  -3.9930
    -3.9927  -3.9912  -3.9897  -3.9894  -3.9873  -3.9862  -3.9855  -3.9842
    -3.9838  -3.9820  -3.9818  -3.9809  -3.9797  -3.9779  -3.9759  -3.9751
    -3.9735  -3.9729  -3.9707  -3.9705  -3.9689  -3.9680  -3.9673  -3.9638
    -3.9606  -3.9591  -3.9574  -3.9560  -3.9547  -3.9545  -3.9530  -3.9502
    -3.9499  -3.9493  -3.9487  -3.9473  -3.9468  -3.9423  -3.9411  -3.9398
    -3.9375  -3.9364  -3.9342  -3.9338  -3.9303  -3.9300  -3.9273  -3.9267
    -3.9243  -3.9237  -3.9208  -3.9205  -3.9196  -3.9188  -3.9160  -3.9147
    -3.9137  -3.9121  -3.9115  -3.9102  -3.9081  -3.9077  -3.9060  -3.9041
    -3.9036  -3.9032  -3.9003  -3.8994  -3.8994  -3.8974  -3.8965  -3.8961
    -3.8954  -3.8942  -3.8937  -3.8925  -3.8898  -3.8886  -3.8862  -3.8855
    -3.8822  -3.8819  -3.8813  -3.8774  -3.8762  -3.8732  -3.8694  -3.8684
    -3.8680  -3.8651  -3.8639  -3.8574  -3.8472  -3.8430  -3.8387  -3.8223
    -3.8085  -3.7880  -3.7805  -3.7687  -3.7622  -3.7452  -3.7447  -3.7329
    -3.7329  -3.7134  -3.6741  -3.6740  -3.6264  -3.6216  -3.4776  -3.4772
    -3.4649  -3.4432  -3.2680  -3.2534  -3.0593  -3.0579  -3.0544  -3.0306
    -2.8786  -2.8752  -2.8702  -2.8611  -2.8100  -2.7624  -2.7605  -2.7550
    -2.7354  -2.6958  -2.6846  -2.6756  -2.6285  -2.5425  -2.5390  -2.5359
    -2.5252  -2.4752  -2.3650  -2.3633  -2.3595  -2.3578  -2.3545  -2.3352
    -2.2739  -2.2062  -2.2000  -2.1995  -2.1755  -2.1565  -2.1414  -2.0623
    -2.0199  -2.0107  -2.0010  -0.1243   2.6031   2.7218   2.7380   2.9530
     2.9960   3.0982   3.1051   3.1055   3.1236   3.1248   3.1495   3.1541
     3.1699   3.3251   3.3324   3.3389   3.3608   3.3667   3.3996   3.4600
     3.4746   3.5308   3.5501   3.5563   3.5785   3.7657   3.7756   3.7896
     3.8088   3.9276   3.9502   3.9603   3.9671   4.1007   4.1046   4.1337
     4.1783   4.1852   4.1892   4.2688   4.3987   4.4514   4.9903   4.9975
     5.0066   5.0561   5.0948   5.1012   5.1013   5.1161   5.1515   5.1955
     5.2073   5.4109   5.4203   5.4490   5.4508   5.6505   5.6801   5.7475
     5.7559   5.8960   5.9390   6.0206   6.1300   6.1442   6.1548   6.1700
     6.1868   6.1963   6.3111   6.3175   6.3434   6.3481   6.4634   6.4677
     6.4841   6.4947   6.5116   6.5216   6.6574   6.6592   6.6968   6.7021
     6.7220   6.7490   6.7608   6.7793   6.8042   6.9090   6.9278   6.9863
     6.9943   6.9955   7.0073   7.0137   7.0379   7.0393   7.0658   7.0701
     7.0809   7.1027   7.1166   7.1558   7.2167   7.2232   7.2362   7.2506
     7.2668   7.2964   7.3141   7.3733   7.5379   7.5754   7.5777   7.6182
     7.6650   7.7694   7.7768   7.8168   7.8253   7.8267   7.8340   7.8364
     7.8416   7.8431   7.8480   7.8621   7.8662   7.8777   7.8960   7.9261
     7.9530   7.9731   7.9798   8.0175   8.0357   8.0460   8.1250   8.1591
     8.1599   8.1808   8.1862   8.2328   8.2381   8.2826   8.3013   8.3176
     8.3671   8.3940   8.4192   8.4589   8.5397   8.6291   8.6347   8.8170
     8.8178   8.8679   8.8869   9.0295   9.2168   9.3471  12.0820  12.9912
    13.2435  13.2581  13.3082  13.3484  13.6522  13.6806  13.9679  13.9767
    13.9846  13.9856  14.0021  14.0247  14.0943  14.1132  14.1133  14.1440
    14.1822  14.1917  14.2162  14.2465  14.2602  14.4220  14.6309  14.6360
    14.6408  14.6486  14.7328  14.8337  14.8394  14.8883  14.8961  14.9111
    14.9312  15.0041  15.0320  15.0423  15.0502  15.1868  15.2933  15.3182
    15.3328  15.3894  15.4127  15.4344  15.4492  15.4682  15.5204  15.5345
    15.5477  15.5761  15.6749  15.7549  15.8018  15.8511  16.0330  16.2865
    16.3123  16.3559  16.3621  16.3688  16.4041  16.4193  16.4359  16.5082
    16.5151  16.5346  16.5441  16.5626  16.5738  16.6466  16.6661  16.6867

     occupation numbers 
     1.0000   1.0000   1.0000   1.0000   1.0000   1.0000   1.0000   1.0000
     1.0000   1.0000   1.0000   1.0000   1.0000   1.0000   1.0000   1.0000
     1.0000   1.0000   1.0000   1.0000   1.0000   1.0000   1.0000   1.0000
     1.0000   1.0000   1.0000   1.0000   1.0000   1.0000   1.0000   1.0000
     1.0000   1.0000   1.0000   1.0000   1.0000   1.0000   1.0000   1.0000
     1.0000   1.0000   1.0000   1.0000   1.0000   1.0000   1.0000   1.0000
     1.0000   1.0000   1.0000   1.0000   1.0000   1.0000   1.0000   1.0000
     1.0000   1.0000   1.0000   1.0000   1.0000   1.0000   1.0000   1.0000
     1.0000   1.0000   1.0000   1.0000   1.0000   1.0000   1.0000   1.0000
     1.0000   1.0000   1.0000   1.0000   1.0000   1.0000   1.0000   1.0000
     1.0000   1.0000   1.0000   1.0000   1.0000   1.0000   1.0000   1.0000
     1.0000   1.0000   1.0000   1.0000   1.0000   1.0000   1.0000   1.0000
     1.0000   1.0000   1.0000   1.0000   1.0000   1.0000   1.0000   1.0000
     1.0000   1.0000   1.0000   1.0000   1.0000   1.0000   1.0000   1.0000
     1.0000   1.0000   1.0000   1.0000   1.0000   1.0000   1.0000   1.0000
     1.0000   1.0000   1.0000   1.0000   1.0000   1.0000   1.0000   1.0000
     1.0000   1.0000   1.0000   1.0000   1.0000   1.0000   1.0000   1.0000
     1.0000   1.0000   1.0000   1.0000   1.0000   1.0000   1.0000   1.0000
     1.0000   1.0000   1.0000   1.0000   1.0000   1.0000   1.0000   1.0000
     1.0000   1.0000   1.0000   1.0000   1.0000   1.0000   1.0000   1.0000
     1.0000   1.0000   1.0000   1.0000   1.0000   1.0000   1.0000   1.0000
     1.0000   1.0000   1.0000   1.0000   1.0000   1.0000   1.0000   1.0000
     1.0000   1.0000   1.0000   1.0000   1.0000   1.0000   1.0000   1.0000
     1.0000   1.0000   1.0000   1.0000   1.0000   1.0000   1.0000   1.0000
     1.0000   1.0000   1.0000   1.0000   1.0000   1.0000   1.0000   1.0000
     1.0000   1.0000   1.0000   1.0000   1.0000   1.0000   1.0000   1.0000
     1.0000   1.0000   1.0000   1.0000   1.0000   1.0000   1.0000   1.0000
     1.0000   1.0000   1.0000   1.0000   1.0000   1.0000   1.0000   1.0000
     1.0000   1.0000   1.0000   1.0000   1.0000   1.0000   1.0000   1.0000
     1.0000   1.0000   1.0000   1.0000   1.0000   1.0000   1.0000   1.0000
     1.0000   1.0000   1.0000   1.0000   1.0000   1.0000   1.0000   1.0000
     1.0000   1.0000   1.0000   1.0000   1.0000   1.0000   1.0000   1.0000
     1.0000   1.0000   1.0000   1.0000   1.0000   1.0000   1.0000   1.0000
     1.0000   1.0000   1.0000   1.0000   1.0000   1.0000   1.0000   1.0000
     1.0000   1.0000   1.0000   1.0000   1.0000   1.0000   1.0000   1.0000
     1.0000   1.0000   1.0000   1.0000   1.0000   1.0000   1.0000   1.0000
     1.0000   1.0000   1.0000   1.0000   1.0000   1.0000   1.0000   1.0000
     1.0000   1.0000   1.0000   1.0000   1.0000   1.0000   1.0000   1.0000
     1.0000   1.0000   1.0000   1.0000   1.0000   1.0000   1.0000   1.0000
     1.0000   1.0000   1.0000   1.0000   1.0000   1.0000   1.0000   1.0000
     1.0000   1.0000   1.0000   1.0000   1.0000   1.0000   1.0000   1.0000
     1.0000   1.0000   1.0000   1.0000   1.0000   1.0000   1.0000   1.0000
     1.0000   1.0000   1.0000   1.0000   1.0000   1.0000   1.0000   1.0000
     1.0000   1.0000   1.0000   1.0000   1.0000   1.0000   1.0000   1.0000
     1.0000   1.0000   1.0000   1.0000   1.0000   1.0000   1.0000   1.0000
     1.0000   1.0000   1.0000   1.0000   1.0000   1.0000   1.0000   1.0000
     1.0000   1.0000   1.0000   1.0000   1.0000   1.0000   1.0000   1.0000
     1.0000   1.0000   1.0000   1.0000   1.0000   1.0000   1.0000   1.0000
     1.0000   1.0000   1.0000   1.0000   1.0000   1.0000   1.0000   1.0000
     1.0000   1.0000   1.0000   1.0000   1.0000   1.0000   1.0000   1.0000
     1.0000   1.0000   1.0000   1.0000   1.0000   1.0000   1.0000   1.0000
     1.0000   1.0000   1.0000   1.0000   1.0000   1.0000   1.0000   1.0000
     1.0000   1.0000   1.0000   1.0000   1.0000   1.0000   1.0000   1.0000
     1.0000   1.0000   1.0000   1.0000   1.0000   1.0000   1.0000   1.0000
     1.0000   1.0000   1.0000   1.0000   1.0000   1.0000   1.0000   1.0000
     1.0000   1.0000   1.0000   1.0000   1.0000   1.0000   1.0000   1.0000
     1.0000   1.0000   1.0000   1.0000   1.0000   1.0000   1.0000   1.0000
     1.0000   1.0000   1.0000   1.0000   1.0000   1.0000   1.0000   1.0000
     1.0000   1.0000   1.0000   1.0000   1.0000   1.0000   1.0000   1.0000
     1.0000   1.0000   1.0000   1.0000   1.0000   1.0000   1.0000   1.0000
     1.0000   1.0000   1.0000   1.0000   1.0000   0.3540   0.0000   0.0000
     0.0000   0.0000   0.0000   0.0000   0.0000   0.0000   0.0000   0.0000
     0.0000   0.0000   0.0000   0.0000   0.0000   0.0000   0.0000   0.0000
     0.0000   0.0000   0.0000   0.0000   0.0000   0.0000   0.0000   0.0000
     0.0000   0.0000   0.0000   0.0000   0.0000   0.0000   0.0000   0.0000
     0.0000   0.0000   0.0000   0.0000   0.0000   0.0000   0.0000   0.0000
     0.0000   0.0000   0.0000   0.0000   0.0000   0.0000   0.0000   0.0000
     0.0000   0.0000   0.0000   0.0000   0.0000   0.0000   0.0000   0.0000
     0.0000   0.0000   0.0000   0.0000   0.0000   0.0000   0.0000   0.0000
     0.0000   0.0000   0.0000   0.0000   0.0000   0.0000   0.0000   0.0000

          k = 0.0000 0.4330 0.1533 ( 51269 PWs)   bands (ev):

    -6.3207  -6.1887  -6.1173  -6.0094  -5.9845  -5.9092  -5.8974  -5.8471
    -5.8277  -5.8182  -5.7951  -5.7177  -5.7165  -5.7091  -5.7063  -5.7020
    -5.6917  -5.6824  -5.6592  -5.6585  -5.6490  -5.6428  -5.6375  -5.6359
    -5.6304  -5.6286  -5.6213  -5.6062  -5.6021  -5.6017  -5.5983  -5.5962
    -5.5861  -5.5836  -5.5799  -5.5668  -5.5647  -5.5621  -5.5611  -5.5600
    -5.5560  -5.5509  -5.5463  -5.5463  -5.5418  -5.5418  -5.5380  -5.5359
    -5.5340  -5.5306  -5.5209  -5.4950  -5.4940  -4.2509  -4.1949  -4.1845
    -4.1842  -4.1799  -4.1785  -4.1743  -4.1708  -4.1696  -4.1666  -4.1636
    -4.1611  -4.1593  -4.1585  -4.1573  -4.1545  -4.1539  -4.1520  -4.1495
    -4.1491  -4.1484  -4.1465  -4.1458  -4.1446  -4.1433  -4.1430  -4.1405
    -4.1396  -4.1387  -4.1374  -4.1372  -4.1355  -4.1353  -4.1321  -4.1313
    -4.1308  -4.1305  -4.1279  -4.1273  -4.1242  -4.1223  -4.1216  -4.1200
    -4.1195  -4.1191  -4.1174  -4.1154  -4.1134  -4.1130  -4.1106  -4.1097
    -4.1093  -4.1084  -4.1080  -4.1072  -4.1035  -4.1019  -4.1005  -4.0981
    -4.0975  -4.0968  -4.0964  -4.0933  -4.0925  -4.0874  -4.0871  -4.0833
    -4.0832  -4.0795  -4.0793  -4.0770  -4.0767  -4.0746  -4.0729  -4.0702
    -4.0698  -4.0686  -4.0658  -4.0646  -4.0641  -4.0634  -4.0569  -4.0542
    -4.0501  -4.0485  -4.0434  -4.0428  -4.0413  -4.0394  -4.0382  -4.0372
    -4.0316  -4.0283  -4.0281  -4.0231  -4.0211  -4.0192  -4.0177  -4.0166
    -4.0150  -4.0134  -4.0113  -4.0096  -4.0080  -4.0064  -4.0048  -4.0035
    -4.0032  -4.0024  -4.0000  -3.9998  -3.9974  -3.9961  -3.9952  -3.9932
    -3.9919  -3.9915  -3.9903  -3.9893  -3.9883  -3.9851  -3.9844  -3.9837
    -3.9834  -3.9813  -3.9797  -3.9793  -3.9793  -3.9766  -3.9749  -3.9739
    -3.9721  -3.9720  -3.9704  -3.9689  -3.9671  -3.9658  -3.9633  -3.9625
    -3.9617  -3.9601  -3.9582  -3.9575  -3.9570  -3.9552  -3.9537  -3.9530
    -3.9512  -3.9503  -3.9488  -3.9470  -3.9469  -3.9445  -3.9421  -3.9416
    -3.9381  -3.9370  -3.9361  -3.9307  -3.9302  -3.9288  -3.9279  -3.9268
    -3.9237  -3.9233  -3.9212  -3.9204  -3.9184  -3.9179  -3.9160  -3.9156
    -3.9123  -3.9123  -3.9101  -3.9097  -3.9085  -3.9085  -3.9068  -3.9064
    -3.9039  -3.9031  -3.9014  -3.8984  -3.8975  -3.8970  -3.8962  -3.8955
    -3.8949  -3.8944  -3.8921  -3.8921  -3.8889  -3.8889  -3.8857  -3.8846
    -3.8822  -3.8815  -3.8811  -3.8801  -3.8765  -3.8733  -3.8684  -3.8677
    -3.8676  -3.8637  -3.8580  -3.8514  -3.8473  -3.8391  -3.8355  -3.8302
    -3.8167  -3.7880  -3.7801  -3.7683  -3.7682  -3.7463  -3.7447  -3.7329
    -3.7257  -3.6677  -3.6665  -3.6394  -3.6246  -3.6170  -3.5620  -3.5563
    -3.4894  -3.3436  -3.3312  -3.2794  -3.0475  -3.0396  -3.0065  -2.9824
    -2.9761  -2.9534  -2.9228  -2.8147  -2.8044  -2.7691  -2.7582  -2.7286
    -2.6678  -2.6556  -2.6150  -2.5981  -2.5915  -2.5721  -2.5399  -2.5229
    -2.5029  -2.4940  -2.4639  -2.4572  -2.4213  -2.3566  -2.2921  -2.2808
    -2.2569  -2.2223  -2.2128  -2.2052  -2.1692  -2.1394  -2.1242  -2.0728
    -2.0412  -2.0286  -2.0181  -0.1267   2.7176   2.7563   2.7784   2.9500
     3.0472   3.0820   3.1082   3.1187   3.1340   3.1589   3.1746   3.1848
     3.2147   3.2209   3.2937   3.3053   3.3464   3.3671   3.3966   3.4048
     3.4303   3.4492   3.5221   3.5509   3.5582   3.6239   3.6854   3.7179
     3.7663   3.7730   3.8021   4.0222   4.0317   4.0877   4.1297   4.1556
     4.1898   4.2216   4.3675   4.4109   4.6332   4.7311   4.7448   4.8032
     5.1016   5.1073   5.1817   5.1941   5.2170   5.2219   5.2365   5.2531
     5.2805   5.3035   5.3039   5.5376   5.6466   5.6559   5.7122   5.7346
     5.7699   5.7941   5.8225   5.8380   5.9259   5.9312   6.0148   6.0255
     6.0924   6.1610   6.1612   6.1772   6.2055   6.2288   6.4343   6.4568
     6.4678   6.4775   6.4969   6.5319   6.5816   6.6734   6.7707   6.7760
     6.8004   6.8053   6.8730   6.9007   6.9013   6.9219   6.9503   6.9609
     6.9798   6.9861   7.0064   7.0610   7.1091   7.1424   7.1821   7.2037
     7.2117   7.2216   7.2293   7.2352   7.2597   7.2720   7.3088   7.3347
     7.4078   7.4403   7.4920   7.4989   7.5423   7.5866   7.5964   7.6101
     7.6195   7.6426   7.6602   7.6694   7.6766   7.6889   7.7471   7.7604
     7.7978   7.8239   7.8429   7.8493   7.8555   7.8562   7.8614   7.8944
     7.9099   7.9390   7.9456   7.9880   7.9976   8.0154   8.0225   8.0805
     8.1073   8.1464   8.1748   8.2715   8.2773   8.2999   8.3539   8.3588
     8.3695   8.3910   8.4310   8.4968   8.5558   8.6672   8.6759   8.7721
     8.7826   8.9055   8.9401   9.0318   9.1796   9.3412  12.1857  12.8430
    13.0312  13.3531  13.3864  13.4862  13.6556  13.9215  13.9591  13.9621
    13.9871  13.9951  14.0293  14.0602  14.0744  14.0918  14.1250  14.1705
    14.1855  14.2283  14.2923  14.3278  14.3418  14.4036  14.4728  14.6569
    14.6578  14.6618  14.6782  14.6838  14.7063  14.7139  14.7449  14.8243
    14.8374  14.8580  14.9402  15.0307  15.0478  15.1087  15.1685  15.2747
    15.2891  15.3380  15.3784  15.4730  15.6280  15.6382  15.6480  15.6720
    15.7238  15.7635  15.8068  15.8081  15.8381  15.8470  16.0349  16.2438
    16.2589  16.2750  16.2963  16.3117  16.3263  16.4159  16.4263  16.5255
    16.5336  16.5581  16.5733  16.6049  16.6237  16.6792  16.6910  16.7734

     occupation numbers 
     1.0000   1.0000   1.0000   1.0000   1.0000   1.0000   1.0000   1.0000
     1.0000   1.0000   1.0000   1.0000   1.0000   1.0000   1.0000   1.0000
     1.0000   1.0000   1.0000   1.0000   1.0000   1.0000   1.0000   1.0000
     1.0000   1.0000   1.0000   1.0000   1.0000   1.0000   1.0000   1.0000
     1.0000   1.0000   1.0000   1.0000   1.0000   1.0000   1.0000   1.0000
     1.0000   1.0000   1.0000   1.0000   1.0000   1.0000   1.0000   1.0000
     1.0000   1.0000   1.0000   1.0000   1.0000   1.0000   1.0000   1.0000
     1.0000   1.0000   1.0000   1.0000   1.0000   1.0000   1.0000   1.0000
     1.0000   1.0000   1.0000   1.0000   1.0000   1.0000   1.0000   1.0000
     1.0000   1.0000   1.0000   1.0000   1.0000   1.0000   1.0000   1.0000
     1.0000   1.0000   1.0000   1.0000   1.0000   1.0000   1.0000   1.0000
     1.0000   1.0000   1.0000   1.0000   1.0000   1.0000   1.0000   1.0000
     1.0000   1.0000   1.0000   1.0000   1.0000   1.0000   1.0000   1.0000
     1.0000   1.0000   1.0000   1.0000   1.0000   1.0000   1.0000   1.0000
     1.0000   1.0000   1.0000   1.0000   1.0000   1.0000   1.0000   1.0000
     1.0000   1.0000   1.0000   1.0000   1.0000   1.0000   1.0000   1.0000
     1.0000   1.0000   1.0000   1.0000   1.0000   1.0000   1.0000   1.0000
     1.0000   1.0000   1.0000   1.0000   1.0000   1.0000   1.0000   1.0000
     1.0000   1.0000   1.0000   1.0000   1.0000   1.0000   1.0000   1.0000
     1.0000   1.0000   1.0000   1.0000   1.0000   1.0000   1.0000   1.0000
     1.0000   1.0000   1.0000   1.0000   1.0000   1.0000   1.0000   1.0000
     1.0000   1.0000   1.0000   1.0000   1.0000   1.0000   1.0000   1.0000
     1.0000   1.0000   1.0000   1.0000   1.0000   1.0000   1.0000   1.0000
     1.0000   1.0000   1.0000   1.0000   1.0000   1.0000   1.0000   1.0000
     1.0000   1.0000   1.0000   1.0000   1.0000   1.0000   1.0000   1.0000
     1.0000   1.0000   1.0000   1.0000   1.0000   1.0000   1.0000   1.0000
     1.0000   1.0000   1.0000   1.0000   1.0000   1.0000   1.0000   1.0000
     1.0000   1.0000   1.0000   1.0000   1.0000   1.0000   1.0000   1.0000
     1.0000   1.0000   1.0000   1.0000   1.0000   1.0000   1.0000   1.0000
     1.0000   1.0000   1.0000   1.0000   1.0000   1.0000   1.0000   1.0000
     1.0000   1.0000   1.0000   1.0000   1.0000   1.0000   1.0000   1.0000
     1.0000   1.0000   1.0000   1.0000   1.0000   1.0000   1.0000   1.0000
     1.0000   1.0000   1.0000   1.0000   1.0000   1.0000   1.0000   1.0000
     1.0000   1.0000   1.0000   1.0000   1.0000   1.0000   1.0000   1.0000
     1.0000   1.0000   1.0000   1.0000   1.0000   1.0000   1.0000   1.0000
     1.0000   1.0000   1.0000   1.0000   1.0000   1.0000   1.0000   1.0000
     1.0000   1.0000   1.0000   1.0000   1.0000   1.0000   1.0000   1.0000
     1.0000   1.0000   1.0000   1.0000   1.0000   1.0000   1.0000   1.0000
     1.0000   1.0000   1.0000   1.0000   1.0000   1.0000   1.0000   1.0000
     1.0000   1.0000   1.0000   1.0000   1.0000   1.0000   1.0000   1.0000
     1.0000   1.0000   1.0000   1.0000   1.0000   1.0000   1.0000   1.0000
     1.0000   1.0000   1.0000   1.0000   1.0000   1.0000   1.0000   1.0000
     1.0000   1.0000   1.0000   1.0000   1.0000   1.0000   1.0000   1.0000
     1.0000   1.0000   1.0000   1.0000   1.0000   1.0000   1.0000   1.0000
     1.0000   1.0000   1.0000   1.0000   1.0000   1.0000   1.0000   1.0000
     1.0000   1.0000   1.0000   1.0000   1.0000   1.0000   1.0000   1.0000
     1.0000   1.0000   1.0000   1.0000   1.0000   1.0000   1.0000   1.0000
     1.0000   1.0000   1.0000   1.0000   1.0000   1.0000   1.0000   1.0000
     1.0000   1.0000   1.0000   1.0000   1.0000   1.0000   1.0000   1.0000
     1.0000   1.0000   1.0000   1.0000   1.0000   1.0000   1.0000   1.0000
     1.0000   1.0000   1.0000   1.0000   1.0000   1.0000   1.0000   1.0000
     1.0000   1.0000   1.0000   1.0000   1.0000   1.0000   1.0000   1.0000
     1.0000   1.0000   1.0000   1.0000   1.0000   1.0000   1.0000   1.0000
     1.0000   1.0000   1.0000   1.0000   1.0000   1.0000   1.0000   1.0000
     1.0000   1.0000   1.0000   1.0000   1.0000   1.0000   1.0000   1.0000
     1.0000   1.0000   1.0000   1.0000   1.0000   1.0000   1.0000   1.0000
     1.0000   1.0000   1.0000   1.0000   1.0000   1.0000   1.0000   1.0000
     1.0000   1.0000   1.0000   1.0000   1.0000   1.0000   1.0000   1.0000
     1.0000   1.0000   1.0000   1.0000   1.0000   1.0000   1.0000   1.0000
     1.0000   1.0000   1.0000   1.0000   1.0000   1.0000   1.0000   1.0000
     1.0000   1.0000   1.0000   1.0000   1.0000   0.4943   0.0000   0.0000
     0.0000   0.0000   0.0000   0.0000   0.0000   0.0000   0.0000   0.0000
     0.0000   0.0000   0.0000   0.0000   0.0000   0.0000   0.0000   0.0000
     0.0000   0.0000   0.0000   0.0000   0.0000   0.0000   0.0000   0.0000
     0.0000   0.0000   0.0000   0.0000   0.0000   0.0000   0.0000   0.0000
     0.0000   0.0000   0.0000   0.0000   0.0000   0.0000   0.0000   0.0000
     0.0000   0.0000   0.0000   0.0000   0.0000   0.0000   0.0000   0.0000
     0.0000   0.0000   0.0000   0.0000   0.0000   0.0000   0.0000   0.0000
     0.0000   0.0000   0.0000   0.0000   0.0000   0.0000   0.0000   0.0000
     0.0000   0.0000   0.0000   0.0000   0.0000   0.0000   0.0000   0.0000

          k = 0.0000 0.4330-0.3067 ( 51270 PWs)   bands (ev):

    -6.2843  -6.2520  -6.0891  -6.0589  -5.8908  -5.8872  -5.8871  -5.8789
    -5.8654  -5.8423  -5.7735  -5.7662  -5.6967  -5.6964  -5.6829  -5.6773
    -5.6771  -5.6739  -5.6673  -5.6660  -5.6652  -5.6612  -5.6531  -5.6482
    -5.6310  -5.6264  -5.6230  -5.6127  -5.6072  -5.6033  -5.5827  -5.5822
    -5.5814  -5.5761  -5.5757  -5.5745  -5.5671  -5.5635  -5.5616  -5.5605
    -5.5535  -5.5513  -5.5468  -5.5447  -5.5419  -5.5405  -5.5388  -5.5367
    -5.5344  -5.5342  -5.5216  -5.4952  -5.4942  -4.2509  -4.1931  -4.1869
    -4.1837  -4.1751  -4.1746  -4.1740  -4.1698  -4.1672  -4.1652  -4.1637
    -4.1619  -4.1618  -4.1597  -4.1585  -4.1559  -4.1543  -4.1526  -4.1517
    -4.1489  -4.1479  -4.1468  -4.1466  -4.1455  -4.1451  -4.1434  -4.1419
    -4.1415  -4.1407  -4.1387  -4.1375  -4.1358  -4.1333  -4.1331  -4.1318
    -4.1303  -4.1293  -4.1277  -4.1265  -4.1256  -4.1236  -4.1224  -4.1224
    -4.1207  -4.1200  -4.1185  -4.1184  -4.1161  -4.1157  -4.1135  -4.1132
    -4.1118  -4.1099  -4.1080  -4.1063  -4.1043  -4.1042  -4.1014  -4.0978
    -4.0955  -4.0951  -4.0939  -4.0924  -4.0891  -4.0881  -4.0849  -4.0830
    -4.0802  -4.0775  -4.0766  -4.0749  -4.0732  -4.0698  -4.0681  -4.0667
    -4.0664  -4.0638  -4.0621  -4.0617  -4.0581  -4.0569  -4.0520  -4.0515
    -4.0505  -4.0488  -4.0478  -4.0462  -4.0459  -4.0447  -4.0401  -4.0397
    -4.0386  -4.0357  -4.0319  -4.0308  -4.0239  -4.0232  -4.0209  -4.0209
    -4.0186  -4.0116  -4.0111  -4.0071  -4.0062  -4.0045  -4.0038  -4.0026
    -4.0022  -4.0014  -4.0000  -3.9983  -3.9975  -3.9969  -3.9948  -3.9935
    -3.9917  -3.9910  -3.9888  -3.9874  -3.9867  -3.9856  -3.9838  -3.9826
    -3.9804  -3.9791  -3.9780  -3.9771  -3.9769  -3.9752  -3.9746  -3.9729
    -3.9711  -3.9692  -3.9691  -3.9682  -3.9674  -3.9667  -3.9643  -3.9641
    -3.9620  -3.9611  -3.9604  -3.9584  -3.9570  -3.9566  -3.9548  -3.9533
    -3.9517  -3.9514  -3.9492  -3.9485  -3.9459  -3.9456  -3.9414  -3.9406
    -3.9384  -3.9363  -3.9354  -3.9321  -3.9316  -3.9294  -3.9271  -3.9248
    -3.9218  -3.9212  -3.9203  -3.9189  -3.9182  -3.9182  -3.9168  -3.9163
    -3.9147  -3.9113  -3.9101  -3.9091  -3.9089  -3.9077  -3.9072  -3.9063
    -3.9044  -3.9023  -3.9007  -3.8985  -3.8974  -3.8969  -3.8966  -3.8956
    -3.8953  -3.8939  -3.8938  -3.8920  -3.8902  -3.8893  -3.8868  -3.8853
    -3.8832  -3.8816  -3.8813  -3.8779  -3.8770  -3.8734  -3.8692  -3.8680
    -3.8672  -3.8661  -3.8634  -3.8589  -3.8475  -3.8417  -3.8393  -3.8238
    -3.7904  -3.7882  -3.7714  -3.7680  -3.7471  -3.7445  -3.7394  -3.7329
    -3.6901  -3.6716  -3.6510  -3.6460  -3.6263  -3.6226  -3.6065  -3.5909
    -3.4878  -3.4707  -3.1815  -3.1776  -3.1775  -3.1527  -3.0236  -3.0188
    -3.0005  -2.9688  -2.7986  -2.7768  -2.7669  -2.7566  -2.6526  -2.6525
    -2.6453  -2.6432  -2.6427  -2.6372  -2.6274  -2.5983  -2.5800  -2.5673
    -2.5331  -2.4841  -2.3835  -2.3821  -2.3790  -2.3692  -2.3508  -2.3366
    -2.3331  -2.2500  -2.1964  -2.1765  -2.1192  -2.1090  -2.1038  -2.0839
    -2.0699  -2.0602  -2.0520  -0.1291   2.8287   2.8507   2.8971   2.9119
     3.0378   3.0482   3.1765   3.1858   3.1875   3.1926   3.1975   3.2077
     3.2199   3.2341   3.2802   3.2816   3.2943   3.2948   3.3113   3.3294
     3.3355   3.3694   3.3919   3.3952   3.5312   3.5489   3.5535   3.6098
     3.8562   3.8947   3.9610   3.9711   3.9844   4.0318   4.2242   4.2316
     4.2547   4.2939   4.4394   4.4588   4.4693   4.5379   5.0808   5.1055
     5.1302   5.1374   5.1638   5.1822   5.3228   5.3232   5.3597   5.3696
     5.4000   5.4309   5.4512   5.4724   5.4739   5.5134   5.5680   5.6136
     5.6699   5.6751   5.7197   5.7485   5.8979   5.9076   5.9217   5.9346
     6.0816   6.0831   6.0922   6.0990   6.1229   6.1824   6.2410   6.2499
     6.2773   6.3189   6.7024   6.7123   6.7165   6.7271   6.7290   6.7350
     6.7686   6.7903   6.8919   6.8992   6.9201   6.9381   6.9674   6.9763
     7.0028   7.0497   7.1960   7.2073   7.2228   7.2238   7.2878   7.3429
     7.3845   7.3919   7.4042   7.4081   7.4225   7.4238   7.4363   7.4438
     7.4555   7.4651   7.4910   7.5138   7.5458   7.5514   7.5544   7.5699
     7.5753   7.5936   7.6157   7.6291   7.6361   7.6378   7.6491   7.6550
     7.6886   7.6997   7.7008   7.7132   7.7263   7.7598   7.7721   7.7997
     7.8263   7.8458   7.9005   8.0008   8.0267   8.0622   8.0756   8.0944
     8.1623   8.1718   8.1806   8.1907   8.1909   8.1989   8.3290   8.3888
     8.4063   8.4277   8.5197   8.5199   8.5598   8.6287   8.7189   8.7710
     8.8059   8.8994   8.9985   9.0420   9.1208   9.3348  12.4354  12.4927
    13.1288  13.1803  13.6011  13.6186  13.8148  13.8249  13.9342  13.9362
    13.9500  13.9655  13.9680  14.0321  14.2130  14.2437  14.3021  14.3102
    14.3111  14.3216  14.3335  14.3406  14.3471  14.3471  14.3553  14.3850
    14.4013  14.5433  14.6603  14.6835  14.7057  14.7699  14.7984  14.8056
    14.8125  14.8228  14.8488  14.8509  14.8592  14.9266  14.9602  15.1994
    15.3749  15.3867  15.3881  15.4838  15.7543  15.7591  15.7834  15.8140
    15.8440  15.8477  15.8527  15.9494  15.9843  16.0084  16.0285  16.0948
    16.1508  16.2158  16.2317  16.2445  16.2649  16.3062  16.4418  16.4493
    16.4692  16.5136  16.7155  16.7338  16.7547  16.7612  16.7779  16.7779

     occupation numbers 
     1.0000   1.0000   1.0000   1.0000   1.0000   1.0000   1.0000   1.0000
     1.0000   1.0000   1.0000   1.0000   1.0000   1.0000   1.0000   1.0000
     1.0000   1.0000   1.0000   1.0000   1.0000   1.0000   1.0000   1.0000
     1.0000   1.0000   1.0000   1.0000   1.0000   1.0000   1.0000   1.0000
     1.0000   1.0000   1.0000   1.0000   1.0000   1.0000   1.0000   1.0000
     1.0000   1.0000   1.0000   1.0000   1.0000   1.0000   1.0000   1.0000
     1.0000   1.0000   1.0000   1.0000   1.0000   1.0000   1.0000   1.0000
     1.0000   1.0000   1.0000   1.0000   1.0000   1.0000   1.0000   1.0000
     1.0000   1.0000   1.0000   1.0000   1.0000   1.0000   1.0000   1.0000
     1.0000   1.0000   1.0000   1.0000   1.0000   1.0000   1.0000   1.0000
     1.0000   1.0000   1.0000   1.0000   1.0000   1.0000   1.0000   1.0000
     1.0000   1.0000   1.0000   1.0000   1.0000   1.0000   1.0000   1.0000
     1.0000   1.0000   1.0000   1.0000   1.0000   1.0000   1.0000   1.0000
     1.0000   1.0000   1.0000   1.0000   1.0000   1.0000   1.0000   1.0000
     1.0000   1.0000   1.0000   1.0000   1.0000   1.0000   1.0000   1.0000
     1.0000   1.0000   1.0000   1.0000   1.0000   1.0000   1.0000   1.0000
     1.0000   1.0000   1.0000   1.0000   1.0000   1.0000   1.0000   1.0000
     1.0000   1.0000   1.0000   1.0000   1.0000   1.0000   1.0000   1.0000
     1.0000   1.0000   1.0000   1.0000   1.0000   1.0000   1.0000   1.0000
     1.0000   1.0000   1.0000   1.0000   1.0000   1.0000   1.0000   1.0000
     1.0000   1.0000   1.0000   1.0000   1.0000   1.0000   1.0000   1.0000
     1.0000   1.0000   1.0000   1.0000   1.0000   1.0000   1.0000   1.0000
     1.0000   1.0000   1.0000   1.0000   1.0000   1.0000   1.0000   1.0000
     1.0000   1.0000   1.0000   1.0000   1.0000   1.0000   1.0000   1.0000
     1.0000   1.0000   1.0000   1.0000   1.0000   1.0000   1.0000   1.0000
     1.0000   1.0000   1.0000   1.0000   1.0000   1.0000   1.0000   1.0000
     1.0000   1.0000   1.0000   1.0000   1.0000   1.0000   1.0000   1.0000
     1.0000   1.0000   1.0000   1.0000   1.0000   1.0000   1.0000   1.0000
     1.0000   1.0000   1.0000   1.0000   1.0000   1.0000   1.0000   1.0000
     1.0000   1.0000   1.0000   1.0000   1.0000   1.0000   1.0000   1.0000
     1.0000   1.0000   1.0000   1.0000   1.0000   1.0000   1.0000   1.0000
     1.0000   1.0000   1.0000   1.0000   1.0000   1.0000   1.0000   1.0000
     1.0000   1.0000   1.0000   1.0000   1.0000   1.0000   1.0000   1.0000
     1.0000   1.0000   1.0000   1.0000   1.0000   1.0000   1.0000   1.0000
     1.0000   1.0000   1.0000   1.0000   1.0000   1.0000   1.0000   1.0000
     1.0000   1.0000   1.0000   1.0000   1.0000   1.0000   1.0000   1.0000
     1.0000   1.0000   1.0000   1.0000   1.0000   1.0000   1.0000   1.0000
     1.0000   1.0000   1.0000   1.0000   1.0000   1.0000   1.0000   1.0000
     1.0000   1.0000   1.0000   1.0000   1.0000   1.0000   1.0000   1.0000
     1.0000   1.0000   1.0000   1.0000   1.0000   1.0000   1.0000   1.0000
     1.0000   1.0000   1.0000   1.0000   1.0000   1.0000   1.0000   1.0000
     1.0000   1.0000   1.0000   1.0000   1.0000   1.0000   1.0000   1.0000
     1.0000   1.0000   1.0000   1.0000   1.0000   1.0000   1.0000   1.0000
     1.0000   1.0000   1.0000   1.0000   1.0000   1.0000   1.0000   1.0000
     1.0000   1.0000   1.0000   1.0000   1.0000   1.0000   1.0000   1.0000
     1.0000   1.0000   1.0000   1.0000   1.0000   1.0000   1.0000   1.0000
     1.0000   1.0000   1.0000   1.0000   1.0000   1.0000   1.0000   1.0000
     1.0000   1.0000   1.0000   1.0000   1.0000   1.0000   1.0000   1.0000
     1.0000   1.0000   1.0000   1.0000   1.0000   1.0000   1.0000   1.0000
     1.0000   1.0000   1.0000   1.0000   1.0000   1.0000   1.0000   1.0000
     1.0000   1.0000   1.0000   1.0000   1.0000   1.0000   1.0000   1.0000
     1.0000   1.0000   1.0000   1.0000   1.0000   1.0000   1.0000   1.0000
     1.0000   1.0000   1.0000   1.0000   1.0000   1.0000   1.0000   1.0000
     1.0000   1.0000   1.0000   1.0000   1.0000   1.0000   1.0000   1.0000
     1.0000   1.0000   1.0000   1.0000   1.0000   1.0000   1.0000   1.0000
     1.0000   1.0000   1.0000   1.0000   1.0000   1.0000   1.0000   1.0000
     1.0000   1.0000   1.0000   1.0000   1.0000   1.0000   1.0000   1.0000
     1.0000   1.0000   1.0000   1.0000   1.0000   1.0000   1.0000   1.0000
     1.0000   1.0000   1.0000   1.0000   1.0000   1.0000   1.0000   1.0000
     1.0000   1.0000   1.0000   1.0000   1.0000   1.0000   1.0000   1.0000
     1.0000   1.0000   1.0000   1.0000   1.0000   0.6631   0.0000   0.0000
     0.0000   0.0000   0.0000   0.0000   0.0000   0.0000   0.0000   0.0000
     0.0000   0.0000   0.0000   0.0000   0.0000   0.0000   0.0000   0.0000
     0.0000   0.0000   0.0000   0.0000   0.0000   0.0000   0.0000   0.0000
     0.0000   0.0000   0.0000   0.0000   0.0000   0.0000   0.0000   0.0000
     0.0000   0.0000   0.0000   0.0000   0.0000   0.0000   0.0000   0.0000
     0.0000   0.0000   0.0000   0.0000   0.0000   0.0000   0.0000   0.0000
     0.0000   0.0000   0.0000   0.0000   0.0000   0.0000   0.0000   0.0000
     0.0000   0.0000   0.0000   0.0000   0.0000   0.0000   0.0000   0.0000
     0.0000   0.0000   0.0000   0.0000   0.0000   0.0000   0.0000   0.0000

          k = 0.0000-0.5774 0.0000 ( 51276 PWs)   bands (ev):

    -6.2561  -6.2272  -6.0301  -6.0235  -6.0139  -5.9904  -5.9261  -5.9067
    -5.7809  -5.7762  -5.7730  -5.7620  -5.7111  -5.7068  -5.6965  -5.6919
    -5.6875  -5.6801  -5.6755  -5.6689  -5.6565  -5.6302  -5.6231  -5.6187
    -5.6151  -5.6116  -5.6113  -5.6081  -5.6065  -5.6041  -5.6037  -5.6012
    -5.5971  -5.5967  -5.5913  -5.5900  -5.5704  -5.5650  -5.5615  -5.5563
    -5.5547  -5.5449  -5.5436  -5.5432  -5.5415  -5.5389  -5.5372  -5.5344
    -5.5331  -5.5308  -5.5198  -5.4947  -5.4935  -4.2502  -4.1897  -4.1812
    -4.1805  -4.1777  -4.1729  -4.1728  -4.1706  -4.1699  -4.1687  -4.1680
    -4.1621  -4.1620  -4.1609  -4.1578  -4.1571  -4.1524  -4.1498  -4.1479
    -4.1471  -4.1450  -4.1442  -4.1414  -4.1408  -4.1396  -4.1375  -4.1375
    -4.1368  -4.1359  -4.1349  -4.1339  -4.1337  -4.1309  -4.1307  -4.1302
    -4.1274  -4.1270  -4.1239  -4.1235  -4.1226  -4.1218  -4.1206  -4.1192
    -4.1188  -4.1167  -4.1165  -4.1154  -4.1128  -4.1124  -4.1124  -4.1106
    -4.1105  -4.1089  -4.1063  -4.1052  -4.1023  -4.1007  -4.0989  -4.0985
    -4.0960  -4.0956  -4.0942  -4.0932  -4.0930  -4.0912  -4.0907  -4.0899
    -4.0882  -4.0861  -4.0858  -4.0850  -4.0828  -4.0808  -4.0803  -4.0783
    -4.0773  -4.0763  -4.0735  -4.0726  -4.0706  -4.0675  -4.0653  -4.0589
    -4.0568  -4.0513  -4.0456  -4.0425  -4.0419  -4.0380  -4.0348  -4.0300
    -4.0282  -4.0281  -4.0274  -4.0235  -4.0221  -4.0204  -4.0193  -4.0184
    -4.0152  -4.0131  -4.0128  -4.0115  -4.0092  -4.0079  -4.0066  -4.0062
    -4.0049  -4.0043  -4.0010  -3.9985  -3.9958  -3.9950  -3.9945  -3.9929
    -3.9929  -3.9917  -3.9895  -3.9888  -3.9875  -3.9863  -3.9857  -3.9846
    -3.9844  -3.9821  -3.9820  -3.9807  -3.9806  -3.9781  -3.9753  -3.9753
    -3.9732  -3.9725  -3.9710  -3.9705  -3.9695  -3.9648  -3.9635  -3.9616
    -3.9600  -3.9587  -3.9576  -3.9555  -3.9551  -3.9548  -3.9527  -3.9505
    -3.9501  -3.9497  -3.9492  -3.9486  -3.9459  -3.9452  -3.9430  -3.9420
    -3.9375  -3.9375  -3.9352  -3.9351  -3.9302  -3.9293  -3.9268  -3.9250
    -3.9226  -3.9217  -3.9207  -3.9179  -3.9159  -3.9149  -3.9144  -3.9137
    -3.9133  -3.9124  -3.9113  -3.9105  -3.9098  -3.9073  -3.9052  -3.9051
    -3.9024  -3.9017  -3.9014  -3.8994  -3.8993  -3.8983  -3.8964  -3.8950
    -3.8941  -3.8937  -3.8931  -3.8921  -3.8878  -3.8874  -3.8864  -3.8861
    -3.8826  -3.8821  -3.8800  -3.8754  -3.8728  -3.8708  -3.8681  -3.8676
    -3.8641  -3.8604  -3.8572  -3.8511  -3.8465  -3.8448  -3.8376  -3.8357
    -3.8261  -3.8198  -3.7876  -3.7790  -3.7683  -3.7531  -3.7462  -3.7443
    -3.7326  -3.7196  -3.6845  -3.6815  -3.6268  -3.6230  -3.4883  -3.4874
    -3.4752  -3.4531  -3.1842  -3.1821  -3.1622  -3.1365  -2.8762  -2.8708
    -2.8615  -2.8497  -2.7743  -2.7720  -2.7668  -2.7624  -2.7269  -2.7165
    -2.7111  -2.7090  -2.7050  -2.7015  -2.6999  -2.6862  -2.6459  -2.6180
    -2.5173  -2.4579  -2.4231  -2.3481  -2.3399  -2.2842  -2.2820  -2.2756
    -2.2739  -2.2725  -2.2583  -2.2531  -2.2013  -2.1715  -2.1613  -2.0586
    -2.0109  -2.0021  -1.9921  -0.1231   2.6591   2.6753   2.7427   2.7826
     2.9517   3.0706   3.0772   3.0829   3.0889   3.0999   3.1136   3.1200
     3.1410   3.2399   3.2566   3.3446   3.3551   3.3584   3.3813   3.4039
     3.4177   3.6111   3.6183   3.6222   3.6367   3.6530   3.6643   3.6878
     3.6892   3.9613   3.9815   3.9908   3.9974   4.0769   4.1281   4.1283
     4.1857   4.2134   4.2748   4.3101   4.3159   4.3880   5.0480   5.0551
     5.0698   5.1309   5.1792   5.1936   5.2050   5.2063   5.2532   5.3501
     5.3560   5.6483   5.6820   5.7509   5.7594   5.7602   5.7731   5.8127
     5.8200   5.8238   5.8249   5.8270   5.8399   5.9033   5.9091   6.3191
     6.3346   6.3404   6.3612   6.3657   6.3980   6.3999   6.4222   6.5553
     6.5637   6.6224   6.6282   6.6324   6.7438   6.7493   6.7509   6.7567
     6.7572   6.7689   6.7904   6.8295   6.9083   6.9165   6.9242   6.9312
     6.9329   6.9379   6.9396   6.9580   6.9656   6.9753   6.9817   6.9933
     7.0020   7.0036   7.0665   7.0819   7.1334   7.1449   7.1491   7.1736
     7.2804   7.3202   7.3428   7.3432   7.4210   7.5157   7.5260   7.5306
     7.5598   7.5887   7.6178   7.7436   7.7565   7.7596   7.7815   7.7866
     7.7892   7.7929   7.8206   7.8642   7.8835   7.9106   7.9154   7.9167
     7.9201   7.9275   7.9531   8.0168   8.0412   8.0508   8.0550   8.0647
     8.1488   8.1637   8.1869   8.2299   8.2345   8.2709   8.2742   8.2886
     8.3093   8.3558   8.3804   8.3932   8.6491   8.6731   8.6797   8.6965
     8.7171   8.8723   8.9366   9.0177   9.1814   9.3202  12.5305  12.5713
    13.2891  13.3066  13.4656  13.4868  13.5111  13.5604  14.0091  14.0109
    14.1493  14.1561  14.1826  14.1984  14.2035  14.2120  14.2638  14.2827
    14.2895  14.2902  14.2955  14.3055  14.3166  14.3222  14.4429  14.5958
    14.6014  14.6235  14.6301  14.6592  14.6731  14.8837  15.0642  15.0675
    15.0705  15.0908  15.2535  15.2920  15.2939  15.2979  15.3071  15.3077
    15.3265  15.3337  15.3448  15.3817  15.4187  15.4206  15.4821  15.4855
    15.5002  15.5695  15.7487  15.8936  15.9003  15.9057  15.9523  15.9787
    16.0860  16.4339  16.4520  16.4615  16.4758  16.4808  16.5088  16.5682
    16.5883  16.5888  16.5947  16.6141  16.6168  16.6717  16.6774  16.6868

     occupation numbers 
     1.0000   1.0000   1.0000   1.0000   1.0000   1.0000   1.0000   1.0000
     1.0000   1.0000   1.0000   1.0000   1.0000   1.0000   1.0000   1.0000
     1.0000   1.0000   1.0000   1.0000   1.0000   1.0000   1.0000   1.0000
     1.0000   1.0000   1.0000   1.0000   1.0000   1.0000   1.0000   1.0000
     1.0000   1.0000   1.0000   1.0000   1.0000   1.0000   1.0000   1.0000
     1.0000   1.0000   1.0000   1.0000   1.0000   1.0000   1.0000   1.0000
     1.0000   1.0000   1.0000   1.0000   1.0000   1.0000   1.0000   1.0000
     1.0000   1.0000   1.0000   1.0000   1.0000   1.0000   1.0000   1.0000
     1.0000   1.0000   1.0000   1.0000   1.0000   1.0000   1.0000   1.0000
     1.0000   1.0000   1.0000   1.0000   1.0000   1.0000   1.0000   1.0000
     1.0000   1.0000   1.0000   1.0000   1.0000   1.0000   1.0000   1.0000
     1.0000   1.0000   1.0000   1.0000   1.0000   1.0000   1.0000   1.0000
     1.0000   1.0000   1.0000   1.0000   1.0000   1.0000   1.0000   1.0000
     1.0000   1.0000   1.0000   1.0000   1.0000   1.0000   1.0000   1.0000
     1.0000   1.0000   1.0000   1.0000   1.0000   1.0000   1.0000   1.0000
     1.0000   1.0000   1.0000   1.0000   1.0000   1.0000   1.0000   1.0000
     1.0000   1.0000   1.0000   1.0000   1.0000   1.0000   1.0000   1.0000
     1.0000   1.0000   1.0000   1.0000   1.0000   1.0000   1.0000   1.0000
     1.0000   1.0000   1.0000   1.0000   1.0000   1.0000   1.0000   1.0000
     1.0000   1.0000   1.0000   1.0000   1.0000   1.0000   1.0000   1.0000
     1.0000   1.0000   1.0000   1.0000   1.0000   1.0000   1.0000   1.0000
     1.0000   1.0000   1.0000   1.0000   1.0000   1.0000   1.0000   1.0000
     1.0000   1.0000   1.0000   1.0000   1.0000   1.0000   1.0000   1.0000
     1.0000   1.0000   1.0000   1.0000   1.0000   1.0000   1.0000   1.0000
     1.0000   1.0000   1.0000   1.0000   1.0000   1.0000   1.0000   1.0000
     1.0000   1.0000   1.0000   1.0000   1.0000   1.0000   1.0000   1.0000
     1.0000   1.0000   1.0000   1.0000   1.0000   1.0000   1.0000   1.0000
     1.0000   1.0000   1.0000   1.0000   1.0000   1.0000   1.0000   1.0000
     1.0000   1.0000   1.0000   1.0000   1.0000   1.0000   1.0000   1.0000
     1.0000   1.0000   1.0000   1.0000   1.0000   1.0000   1.0000   1.0000
     1.0000   1.0000   1.0000   1.0000   1.0000   1.0000   1.0000   1.0000
     1.0000   1.0000   1.0000   1.0000   1.0000   1.0000   1.0000   1.0000
     1.0000   1.0000   1.0000   1.0000   1.0000   1.0000   1.0000   1.0000
     1.0000   1.0000   1.0000   1.0000   1.0000   1.0000   1.0000   1.0000
     1.0000   1.0000   1.0000   1.0000   1.0000   1.0000   1.0000   1.0000
     1.0000   1.0000   1.0000   1.0000   1.0000   1.0000   1.0000   1.0000
     1.0000   1.0000   1.0000   1.0000   1.0000   1.0000   1.0000   1.0000
     1.0000   1.0000   1.0000   1.0000   1.0000   1.0000   1.0000   1.0000
     1.0000   1.0000   1.0000   1.0000   1.0000   1.0000   1.0000   1.0000
     1.0000   1.0000   1.0000   1.0000   1.0000   1.0000   1.0000   1.0000
     1.0000   1.0000   1.0000   1.0000   1.0000   1.0000   1.0000   1.0000
     1.0000   1.0000   1.0000   1.0000   1.0000   1.0000   1.0000   1.0000
     1.0000   1.0000   1.0000   1.0000   1.0000   1.0000   1.0000   1.0000
     1.0000   1.0000   1.0000   1.0000   1.0000   1.0000   1.0000   1.0000
     1.0000   1.0000   1.0000   1.0000   1.0000   1.0000   1.0000   1.0000
     1.0000   1.0000   1.0000   1.0000   1.0000   1.0000   1.0000   1.0000
     1.0000   1.0000   1.0000   1.0000   1.0000   1.0000   1.0000   1.0000
     1.0000   1.0000   1.0000   1.0000   1.0000   1.0000   1.0000   1.0000
     1.0000   1.0000   1.0000   1.0000   1.0000   1.0000   1.0000   1.0000
     1.0000   1.0000   1.0000   1.0000   1.0000   1.0000   1.0000   1.0000
     1.0000   1.0000   1.0000   1.0000   1.0000   1.0000   1.0000   1.0000
     1.0000   1.0000   1.0000   1.0000   1.0000   1.0000   1.0000   1.0000
     1.0000   1.0000   1.0000   1.0000   1.0000   1.0000   1.0000   1.0000
     1.0000   1.0000   1.0000   1.0000   1.0000   1.0000   1.0000   1.0000
     1.0000   1.0000   1.0000   1.0000   1.0000   1.0000   1.0000   1.0000
     1.0000   1.0000   1.0000   1.0000   1.0000   1.0000   1.0000   1.0000
     1.0000   1.0000   1.0000   1.0000   1.0000   1.0000   1.0000   1.0000
     1.0000   1.0000   1.0000   1.0000   1.0000   1.0000   1.0000   1.0000
     1.0000   1.0000   1.0000   1.0000   1.0000   1.0000   1.0000   1.0000
     1.0000   1.0000   1.0000   1.0000   1.0000   1.0000   1.0000   1.0000
     1.0000   1.0000   1.0000   1.0000   1.0000   0.9803   0.0000   0.0000
     0.0000   0.0000   0.0000   0.0000   0.0000   0.0000   0.0000   0.0000
     0.0000   0.0000   0.0000   0.0000   0.0000   0.0000   0.0000   0.0000
     0.0000   0.0000   0.0000   0.0000   0.0000   0.0000   0.0000   0.0000
     0.0000   0.0000   0.0000   0.0000   0.0000   0.0000   0.0000   0.0000
     0.0000   0.0000   0.0000   0.0000   0.0000   0.0000   0.0000   0.0000
     0.0000   0.0000   0.0000   0.0000   0.0000   0.0000   0.0000   0.0000
     0.0000   0.0000   0.0000   0.0000   0.0000   0.0000   0.0000   0.0000
     0.0000   0.0000   0.0000   0.0000   0.0000   0.0000   0.0000   0.0000
     0.0000   0.0000   0.0000   0.0000   0.0000   0.0000   0.0000   0.0000

          k = 0.0000-0.5774 0.1533 ( 51198 PWs)   bands (ev):

    -6.2399  -6.2129  -6.1170  -6.0862  -5.9309  -5.9199  -5.9155  -5.8901
    -5.8330  -5.8205  -5.7651  -5.7453  -5.7198  -5.7149  -5.6854  -5.6753
    -5.6725  -5.6700  -5.6644  -5.6600  -5.6539  -5.6425  -5.6360  -5.6341
    -5.6308  -5.6300  -5.6271  -5.6219  -5.6175  -5.6037  -5.5917  -5.5866
    -5.5865  -5.5838  -5.5816  -5.5733  -5.5651  -5.5644  -5.5610  -5.5583
    -5.5562  -5.5473  -5.5446  -5.5437  -5.5431  -5.5411  -5.5372  -5.5355
    -5.5332  -5.5329  -5.5205  -5.4949  -5.4937  -4.2502  -4.1890  -4.1808
    -4.1800  -4.1767  -4.1746  -4.1713  -4.1710  -4.1676  -4.1670  -4.1650
    -4.1618  -4.1602  -4.1602  -4.1581  -4.1555  -4.1510  -4.1487  -4.1482
    -4.1478  -4.1474  -4.1454  -4.1445  -4.1437  -4.1414  -4.1411  -4.1401
    -4.1399  -4.1373  -4.1359  -4.1356  -4.1344  -4.1338  -4.1333  -4.1306
    -4.1294  -4.1281  -4.1265  -4.1254  -4.1229  -4.1228  -4.1211  -4.1178
    -4.1175  -4.1169  -4.1151  -4.1140  -4.1136  -4.1127  -4.1107  -4.1094
    -4.1090  -4.1078  -4.1077  -4.1048  -4.1046  -4.1034  -4.1009  -4.0997
    -4.0986  -4.0971  -4.0949  -4.0939  -4.0933  -4.0904  -4.0882  -4.0874
    -4.0849  -4.0830  -4.0820  -4.0818  -4.0793  -4.0768  -4.0764  -4.0748
    -4.0725  -4.0716  -4.0692  -4.0671  -4.0650  -4.0636  -4.0619  -4.0573
    -4.0558  -4.0521  -4.0507  -4.0485  -4.0454  -4.0423  -4.0386  -4.0366
    -4.0337  -4.0307  -4.0294  -4.0268  -4.0245  -4.0213  -4.0203  -4.0186
    -4.0151  -4.0130  -4.0122  -4.0110  -4.0079  -4.0078  -4.0054  -4.0048
    -4.0044  -4.0032  -4.0011  -4.0003  -3.9969  -3.9968  -3.9945  -3.9932
    -3.9929  -3.9916  -3.9902  -3.9889  -3.9881  -3.9858  -3.9855  -3.9844
    -3.9833  -3.9816  -3.9810  -3.9800  -3.9793  -3.9762  -3.9747  -3.9738
    -3.9719  -3.9717  -3.9699  -3.9690  -3.9677  -3.9657  -3.9635  -3.9627
    -3.9602  -3.9592  -3.9591  -3.9582  -3.9559  -3.9547  -3.9542  -3.9527
    -3.9508  -3.9506  -3.9495  -3.9486  -3.9457  -3.9451  -3.9419  -3.9404
    -3.9390  -3.9366  -3.9361  -3.9329  -3.9300  -3.9295  -3.9271  -3.9258
    -3.9229  -3.9217  -3.9202  -3.9200  -3.9172  -3.9169  -3.9134  -3.9129
    -3.9127  -3.9124  -3.9122  -3.9113  -3.9087  -3.9078  -3.9074  -3.9051
    -3.9051  -3.9019  -3.9017  -3.8997  -3.8984  -3.8969  -3.8967  -3.8950
    -3.8940  -3.8939  -3.8934  -3.8918  -3.8916  -3.8883  -3.8865  -3.8860
    -3.8836  -3.8836  -3.8808  -3.8800  -3.8759  -3.8750  -3.8728  -3.8677
    -3.8672  -3.8671  -3.8643  -3.8578  -3.8467  -3.8419  -3.8378  -3.8219
    -3.8016  -3.7877  -3.7779  -3.7679  -3.7540  -3.7474  -3.7460  -3.7326
    -3.7291  -3.7066  -3.6735  -3.6715  -3.6266  -3.6243  -3.5706  -3.5636
    -3.4144  -3.3861  -3.3545  -3.3349  -2.9927  -2.9802  -2.9312  -2.9029
    -2.8664  -2.8610  -2.8519  -2.8358  -2.7840  -2.7789  -2.7662  -2.7462
    -2.7049  -2.6523  -2.6221  -2.6167  -2.6058  -2.5920  -2.5553  -2.5472
    -2.5222  -2.5157  -2.4673  -2.4222  -2.3976  -2.3877  -2.3807  -2.3122
    -2.2627  -2.2117  -2.2029  -2.1918  -2.1722  -2.1628  -2.1547  -2.0681
    -2.0300  -2.0210  -2.0112  -0.1255   2.6964   2.7116   2.8493   2.8894
     2.9066   3.0005   3.1046   3.1127   3.1192   3.1242   3.1329   3.1575
     3.1614   3.1721   3.3019   3.3203   3.3365   3.3396   3.3965   3.4006
     3.4245   3.4324   3.4541   3.4695   3.5324   3.5960   3.6375   3.7387
     3.7945   3.8506   3.8757   3.8975   3.9103   4.0091   4.2207   4.2291
     4.2298   4.2595   4.2654   4.3286   4.7033   4.7618   4.7860   4.8429
     5.2635   5.2678   5.2740   5.2862   5.3150   5.3172   5.3685   5.4189
     5.4243   5.5997   5.6198   5.6253   5.6379   5.6586   5.6659   5.8077
     5.8147   5.8239   5.8288   5.8535   5.9167   5.9561   5.9569   6.0470
     6.0579   6.0808   6.0919   6.0936   6.3635   6.3777   6.3848   6.4268
     6.5679   6.5764   6.5936   6.5963   6.6400   6.6527   6.6593   6.7083
     6.7374   6.8334   6.8568   6.8704   6.8881   6.8963   6.9138   6.9590
     7.0235   7.0358   7.0549   7.1112   7.1179   7.1211   7.1231   7.1490
     7.2008   7.2106   7.2303   7.2791   7.2995   7.3038   7.3247   7.3717
     7.3721   7.3871   7.4007   7.4134   7.4367   7.4668   7.4971   7.5077
     7.5301   7.5531   7.5566   7.5899   7.6268   7.6378   7.6769   7.7194
     7.7807   7.8052   7.8144   7.8195   7.8203   7.8386   7.8495   7.8515
     7.8649   7.8919   7.9001   7.9310   7.9652   7.9765   7.9795   7.9867
     8.0633   8.1214   8.1444   8.1973   8.2335   8.2440   8.3317   8.3646
     8.3842   8.4188   8.4558   8.5092   8.5209   8.6414   8.6985   8.7460
     8.8154   8.9089   8.9236   8.9941   9.1540   9.3144  12.6004  12.6425
    13.1063  13.1595  13.3469  13.4825  13.8659  13.8915  13.9064  13.9996
    14.0086  14.0514  14.0804  14.2586  14.2868  14.3014  14.3371  14.3478
    14.3556  14.3591  14.4031  14.4106  14.4230  14.4324  14.4489  14.4988
    14.5060  14.5611  14.6184  14.6386  14.6795  14.8030  14.8821  14.8876
    14.8886  14.9140  14.9173  14.9335  14.9363  15.0709  15.1429  15.3135
    15.5340  15.5569  15.5642  15.5832  15.6010  15.6142  15.6203  15.6374
    15.7099  15.7567  15.8420  15.9125  15.9205  15.9229  15.9690  15.9882
    16.1081  16.3119  16.3238  16.3443  16.3668  16.4136  16.4286  16.4596
    16.4768  16.5997  16.6071  16.6606  16.6856  16.7512  16.7756  16.8051

     occupation numbers 
     1.0000   1.0000   1.0000   1.0000   1.0000   1.0000   1.0000   1.0000
     1.0000   1.0000   1.0000   1.0000   1.0000   1.0000   1.0000   1.0000
     1.0000   1.0000   1.0000   1.0000   1.0000   1.0000   1.0000   1.0000
     1.0000   1.0000   1.0000   1.0000   1.0000   1.0000   1.0000   1.0000
     1.0000   1.0000   1.0000   1.0000   1.0000   1.0000   1.0000   1.0000
     1.0000   1.0000   1.0000   1.0000   1.0000   1.0000   1.0000   1.0000
     1.0000   1.0000   1.0000   1.0000   1.0000   1.0000   1.0000   1.0000
     1.0000   1.0000   1.0000   1.0000   1.0000   1.0000   1.0000   1.0000
     1.0000   1.0000   1.0000   1.0000   1.0000   1.0000   1.0000   1.0000
     1.0000   1.0000   1.0000   1.0000   1.0000   1.0000   1.0000   1.0000
     1.0000   1.0000   1.0000   1.0000   1.0000   1.0000   1.0000   1.0000
     1.0000   1.0000   1.0000   1.0000   1.0000   1.0000   1.0000   1.0000
     1.0000   1.0000   1.0000   1.0000   1.0000   1.0000   1.0000   1.0000
     1.0000   1.0000   1.0000   1.0000   1.0000   1.0000   1.0000   1.0000
     1.0000   1.0000   1.0000   1.0000   1.0000   1.0000   1.0000   1.0000
     1.0000   1.0000   1.0000   1.0000   1.0000   1.0000   1.0000   1.0000
     1.0000   1.0000   1.0000   1.0000   1.0000   1.0000   1.0000   1.0000
     1.0000   1.0000   1.0000   1.0000   1.0000   1.0000   1.0000   1.0000
     1.0000   1.0000   1.0000   1.0000   1.0000   1.0000   1.0000   1.0000
     1.0000   1.0000   1.0000   1.0000   1.0000   1.0000   1.0000   1.0000
     1.0000   1.0000   1.0000   1.0000   1.0000   1.0000   1.0000   1.0000
     1.0000   1.0000   1.0000   1.0000   1.0000   1.0000   1.0000   1.0000
     1.0000   1.0000   1.0000   1.0000   1.0000   1.0000   1.0000   1.0000
     1.0000   1.0000   1.0000   1.0000   1.0000   1.0000   1.0000   1.0000
     1.0000   1.0000   1.0000   1.0000   1.0000   1.0000   1.0000   1.0000
     1.0000   1.0000   1.0000   1.0000   1.0000   1.0000   1.0000   1.0000
     1.0000   1.0000   1.0000   1.0000   1.0000   1.0000   1.0000   1.0000
     1.0000   1.0000   1.0000   1.0000   1.0000   1.0000   1.0000   1.0000
     1.0000   1.0000   1.0000   1.0000   1.0000   1.0000   1.0000   1.0000
     1.0000   1.0000   1.0000   1.0000   1.0000   1.0000   1.0000   1.0000
     1.0000   1.0000   1.0000   1.0000   1.0000   1.0000   1.0000   1.0000
     1.0000   1.0000   1.0000   1.0000   1.0000   1.0000   1.0000   1.0000
     1.0000   1.0000   1.0000   1.0000   1.0000   1.0000   1.0000   1.0000
     1.0000   1.0000   1.0000   1.0000   1.0000   1.0000   1.0000   1.0000
     1.0000   1.0000   1.0000   1.0000   1.0000   1.0000   1.0000   1.0000
     1.0000   1.0000   1.0000   1.0000   1.0000   1.0000   1.0000   1.0000
     1.0000   1.0000   1.0000   1.0000   1.0000   1.0000   1.0000   1.0000
     1.0000   1.0000   1.0000   1.0000   1.0000   1.0000   1.0000   1.0000
     1.0000   1.0000   1.0000   1.0000   1.0000   1.0000   1.0000   1.0000
     1.0000   1.0000   1.0000   1.0000   1.0000   1.0000   1.0000   1.0000
     1.0000   1.0000   1.0000   1.0000   1.0000   1.0000   1.0000   1.0000
     1.0000   1.0000   1.0000   1.0000   1.0000   1.0000   1.0000   1.0000
     1.0000   1.0000   1.0000   1.0000   1.0000   1.0000   1.0000   1.0000
     1.0000   1.0000   1.0000   1.0000   1.0000   1.0000   1.0000   1.0000
     1.0000   1.0000   1.0000   1.0000   1.0000   1.0000   1.0000   1.0000
     1.0000   1.0000   1.0000   1.0000   1.0000   1.0000   1.0000   1.0000
     1.0000   1.0000   1.0000   1.0000   1.0000   1.0000   1.0000   1.0000
     1.0000   1.0000   1.0000   1.0000   1.0000   1.0000   1.0000   1.0000
     1.0000   1.0000   1.0000   1.0000   1.0000   1.0000   1.0000   1.0000
     1.0000   1.0000   1.0000   1.0000   1.0000   1.0000   1.0000   1.0000
     1.0000   1.0000   1.0000   1.0000   1.0000   1.0000   1.0000   1.0000
     1.0000   1.0000   1.0000   1.0000   1.0000   1.0000   1.0000   1.0000
     1.0000   1.0000   1.0000   1.0000   1.0000   1.0000   1.0000   1.0000
     1.0000   1.0000   1.0000   1.0000   1.0000   1.0000   1.0000   1.0000
     1.0000   1.0000   1.0000   1.0000   1.0000   1.0000   1.0000   1.0000
     1.0000   1.0000   1.0000   1.0000   1.0000   1.0000   1.0000   1.0000
     1.0000   1.0000   1.0000   1.0000   1.0000   1.0000   1.0000   1.0000
     1.0000   1.0000   1.0000   1.0000   1.0000   1.0000   1.0000   1.0000
     1.0000   1.0000   1.0000   1.0000   1.0000   1.0000   1.0000   1.0000
     1.0000   1.0000   1.0000   1.0000   1.0000   1.0000   1.0000   1.0000
     1.0000   1.0000   1.0000   1.0000   1.0000   0.9976   0.0000   0.0000
     0.0000   0.0000   0.0000   0.0000   0.0000   0.0000   0.0000   0.0000
     0.0000   0.0000   0.0000   0.0000   0.0000   0.0000   0.0000   0.0000
     0.0000   0.0000   0.0000   0.0000   0.0000   0.0000   0.0000   0.0000
     0.0000   0.0000   0.0000   0.0000   0.0000   0.0000   0.0000   0.0000
     0.0000   0.0000   0.0000   0.0000   0.0000   0.0000   0.0000   0.0000
     0.0000   0.0000   0.0000   0.0000   0.0000   0.0000   0.0000   0.0000
     0.0000   0.0000   0.0000   0.0000   0.0000   0.0000   0.0000   0.0000
     0.0000   0.0000   0.0000   0.0000   0.0000   0.0000   0.0000   0.0000
     0.0000   0.0000   0.0000   0.0000   0.0000   0.0000   0.0000   0.0000

          k = 0.0000-0.5774-0.3067 ( 51244 PWs)   bands (ev):

    -6.2013  -6.1868  -6.1814  -6.1363  -5.8931  -5.8876  -5.8712  -5.8638
    -5.8403  -5.8395  -5.8241  -5.8015  -5.6777  -5.6719  -5.6707  -5.6691
    -5.6675  -5.6651  -5.6628  -5.6595  -5.6562  -5.6531  -5.6523  -5.6491
    -5.6453  -5.6427  -5.6370  -5.6356  -5.6228  -5.6088  -5.5820  -5.5814
    -5.5758  -5.5728  -5.5705  -5.5664  -5.5640  -5.5629  -5.5610  -5.5591
    -5.5581  -5.5492  -5.5468  -5.5459  -5.5455  -5.5432  -5.5377  -5.5361
    -5.5357  -5.5331  -5.5211  -5.4951  -5.4939  -4.2502  -4.1880  -4.1810
    -4.1793  -4.1787  -4.1719  -4.1700  -4.1687  -4.1642  -4.1637  -4.1621
    -4.1619  -4.1607  -4.1572  -4.1561  -4.1550  -4.1549  -4.1534  -4.1524
    -4.1513  -4.1495  -4.1459  -4.1455  -4.1442  -4.1435  -4.1421  -4.1420
    -4.1407  -4.1404  -4.1392  -4.1378  -4.1335  -4.1332  -4.1317  -4.1310
    -4.1301  -4.1290  -4.1273  -4.1246  -4.1235  -4.1231  -4.1196  -4.1185
    -4.1183  -4.1176  -4.1156  -4.1147  -4.1143  -4.1141  -4.1129  -4.1110
    -4.1106  -4.1081  -4.1079  -4.1058  -4.1048  -4.1031  -4.1004  -4.1002
    -4.0972  -4.0969  -4.0957  -4.0930  -4.0914  -4.0904  -4.0893  -4.0880
    -4.0865  -4.0836  -4.0805  -4.0760  -4.0733  -4.0700  -4.0681  -4.0668
    -4.0665  -4.0651  -4.0645  -4.0635  -4.0628  -4.0614  -4.0582  -4.0568
    -4.0535  -4.0524  -4.0502  -4.0488  -4.0447  -4.0441  -4.0427  -4.0420
    -4.0414  -4.0408  -4.0361  -4.0342  -4.0318  -4.0263  -4.0237  -4.0206
    -4.0201  -4.0127  -4.0112  -4.0091  -4.0054  -4.0054  -4.0042  -4.0036
    -4.0030  -4.0013  -4.0006  -3.9993  -3.9988  -3.9968  -3.9935  -3.9928
    -3.9915  -3.9912  -3.9889  -3.9879  -3.9871  -3.9858  -3.9847  -3.9843
    -3.9830  -3.9803  -3.9793  -3.9790  -3.9781  -3.9771  -3.9754  -3.9734
    -3.9723  -3.9703  -3.9686  -3.9684  -3.9670  -3.9660  -3.9649  -3.9644
    -3.9626  -3.9613  -3.9610  -3.9588  -3.9574  -3.9567  -3.9557  -3.9529
    -3.9519  -3.9517  -3.9486  -3.9479  -3.9469  -3.9458  -3.9417  -3.9397
    -3.9387  -3.9354  -3.9349  -3.9327  -3.9326  -3.9289  -3.9266  -3.9242
    -3.9242  -3.9217  -3.9216  -3.9196  -3.9176  -3.9169  -3.9158  -3.9140
    -3.9135  -3.9114  -3.9114  -3.9109  -3.9104  -3.9080  -3.9079  -3.9053
    -3.9039  -3.9025  -3.9016  -3.9015  -3.8997  -3.8965  -3.8964  -3.8957
    -3.8944  -3.8939  -3.8933  -3.8921  -3.8891  -3.8889  -3.8882  -3.8865
    -3.8860  -3.8844  -3.8827  -3.8799  -3.8773  -3.8765  -3.8729  -3.8677
    -3.8674  -3.8665  -3.8646  -3.8585  -3.8468  -3.8423  -3.8381  -3.8219
    -3.7916  -3.7878  -3.7723  -3.7675  -3.7471  -3.7459  -3.7336  -3.7326
    -3.6656  -3.6589  -3.6533  -3.6249  -3.6177  -3.6139  -3.5980  -3.5875
    -3.5814  -3.5566  -3.1924  -3.1886  -3.1883  -3.1587  -2.8427  -2.8389
    -2.8340  -2.8324  -2.8282  -2.8213  -2.8043  -2.7726  -2.7050  -2.7016
    -2.6890  -2.6812  -2.6725  -2.6337  -2.5219  -2.5193  -2.5184  -2.5089
    -2.5076  -2.5066  -2.5064  -2.4901  -2.4737  -2.4004  -2.3577  -2.3445
    -2.3409  -2.2701  -2.2281  -2.1838  -2.0926  -2.0864  -2.0792  -2.0781
    -2.0771  -2.0676  -2.0575  -0.1280   2.7798   2.7950   2.8210   2.8406
     3.1423   3.1563   3.1736   3.1839   3.1865   3.1966   3.2011   3.2059
     3.2081   3.2189   3.2219   3.2253   3.2259   3.2304   3.2369   3.2441
     3.2746   3.3068   3.3241   3.3436   3.5368   3.5533   3.5551   3.6109
     3.7725   3.8124   4.0602   4.0762   4.0772   4.0842   4.0911   4.1225
     4.1391   4.1808   4.4909   4.5101   4.5201   4.5822   5.2777   5.2835
     5.3092   5.3489   5.4258   5.4326   5.4334   5.4356   5.4398   5.4521
     5.4544   5.4779   5.4893   5.5056   5.5331   5.5968   5.6024   5.6046
     5.6243   5.6721   5.6838   5.6854   5.9985   6.0029   6.0083   6.0130
     6.0206   6.0235   6.0475   6.0981   6.2999   6.3016   6.3070   6.3092
     6.3147   6.3224   6.3670   6.3719   6.6911   6.6946   6.7019   6.7353
     6.7476   6.7608   6.8633   6.8724   6.8879   6.9628   7.2048   7.2076
     7.2152   7.2187   7.2197   7.2300   7.2448   7.2759   7.2981   7.3106
     7.3122   7.3138   7.3241   7.3404   7.3488   7.3853   7.3872   7.4160
     7.4262   7.4327   7.4426   7.4509   7.5011   7.5069   7.5099   7.5551
     7.6039   7.6197   7.6217   7.6281   7.6282   7.6316   7.6376   7.6446
     7.6472   7.6474   7.6484   7.6486   7.6601   7.6626   7.6724   7.6785
     7.6791   7.7019   7.8298   7.8424   7.8477   7.9065   7.9698   8.0516
     8.1210   8.1337   8.1414   8.1607   8.2097   8.3561   8.3575   8.3739
     8.3898   8.4200   8.4292   8.5061   8.5698   8.5922   8.7660   8.7910
     8.9030   8.9144   8.9316   8.9393   9.1170   9.3083  12.7882  12.8079
    12.8151  12.8950  13.5685  13.5892  13.8301  13.8427  13.9837  13.9844
    14.0154  14.0385  14.2161  14.2345  14.2547  14.2626  14.2861  14.3369
    14.5546  14.5561  14.5561  14.5690  14.5707  14.5766  14.5775  14.5943
    14.6128  14.6227  14.6274  14.6281  14.6306  14.6320  14.6370  14.6401
    14.6425  14.6633  14.7125  14.7645  14.7648  14.7920  14.8416  15.2161
    15.6661  15.6804  15.6813  15.7059  15.7126  15.7249  15.7456  15.7962
    15.8857  15.9010  15.9026  15.9683  16.0402  16.0526  16.0668  16.0677
    16.0759  16.1057  16.1427  16.1444  16.1872  16.2875  16.3902  16.4018
    16.4258  16.4721  16.7185  16.7359  16.7541  16.7768  16.8352  16.8414

     occupation numbers 
     1.0000   1.0000   1.0000   1.0000   1.0000   1.0000   1.0000   1.0000
     1.0000   1.0000   1.0000   1.0000   1.0000   1.0000   1.0000   1.0000
     1.0000   1.0000   1.0000   1.0000   1.0000   1.0000   1.0000   1.0000
     1.0000   1.0000   1.0000   1.0000   1.0000   1.0000   1.0000   1.0000
     1.0000   1.0000   1.0000   1.0000   1.0000   1.0000   1.0000   1.0000
     1.0000   1.0000   1.0000   1.0000   1.0000   1.0000   1.0000   1.0000
     1.0000   1.0000   1.0000   1.0000   1.0000   1.0000   1.0000   1.0000
     1.0000   1.0000   1.0000   1.0000   1.0000   1.0000   1.0000   1.0000
     1.0000   1.0000   1.0000   1.0000   1.0000   1.0000   1.0000   1.0000
     1.0000   1.0000   1.0000   1.0000   1.0000   1.0000   1.0000   1.0000
     1.0000   1.0000   1.0000   1.0000   1.0000   1.0000   1.0000   1.0000
     1.0000   1.0000   1.0000   1.0000   1.0000   1.0000   1.0000   1.0000
     1.0000   1.0000   1.0000   1.0000   1.0000   1.0000   1.0000   1.0000
     1.0000   1.0000   1.0000   1.0000   1.0000   1.0000   1.0000   1.0000
     1.0000   1.0000   1.0000   1.0000   1.0000   1.0000   1.0000   1.0000
     1.0000   1.0000   1.0000   1.0000   1.0000   1.0000   1.0000   1.0000
     1.0000   1.0000   1.0000   1.0000   1.0000   1.0000   1.0000   1.0000
     1.0000   1.0000   1.0000   1.0000   1.0000   1.0000   1.0000   1.0000
     1.0000   1.0000   1.0000   1.0000   1.0000   1.0000   1.0000   1.0000
     1.0000   1.0000   1.0000   1.0000   1.0000   1.0000   1.0000   1.0000
     1.0000   1.0000   1.0000   1.0000   1.0000   1.0000   1.0000   1.0000
     1.0000   1.0000   1.0000   1.0000   1.0000   1.0000   1.0000   1.0000
     1.0000   1.0000   1.0000   1.0000   1.0000   1.0000   1.0000   1.0000
     1.0000   1.0000   1.0000   1.0000   1.0000   1.0000   1.0000   1.0000
     1.0000   1.0000   1.0000   1.0000   1.0000   1.0000   1.0000   1.0000
     1.0000   1.0000   1.0000   1.0000   1.0000   1.0000   1.0000   1.0000
     1.0000   1.0000   1.0000   1.0000   1.0000   1.0000   1.0000   1.0000
     1.0000   1.0000   1.0000   1.0000   1.0000   1.0000   1.0000   1.0000
     1.0000   1.0000   1.0000   1.0000   1.0000   1.0000   1.0000   1.0000
     1.0000   1.0000   1.0000   1.0000   1.0000   1.0000   1.0000   1.0000
     1.0000   1.0000   1.0000   1.0000   1.0000   1.0000   1.0000   1.0000
     1.0000   1.0000   1.0000   1.0000   1.0000   1.0000   1.0000   1.0000
     1.0000   1.0000   1.0000   1.0000   1.0000   1.0000   1.0000   1.0000
     1.0000   1.0000   1.0000   1.0000   1.0000   1.0000   1.0000   1.0000
     1.0000   1.0000   1.0000   1.0000   1.0000   1.0000   1.0000   1.0000
     1.0000   1.0000   1.0000   1.0000   1.0000   1.0000   1.0000   1.0000
     1.0000   1.0000   1.0000   1.0000   1.0000   1.0000   1.0000   1.0000
     1.0000   1.0000   1.0000   1.0000   1.0000   1.0000   1.0000   1.0000
     1.0000   1.0000   1.0000   1.0000   1.0000   1.0000   1.0000   1.0000
     1.0000   1.0000   1.0000   1.0000   1.0000   1.0000   1.0000   1.0000
     1.0000   1.0000   1.0000   1.0000   1.0000   1.0000   1.0000   1.0000
     1.0000   1.0000   1.0000   1.0000   1.0000   1.0000   1.0000   1.0000
     1.0000   1.0000   1.0000   1.0000   1.0000   1.0000   1.0000   1.0000
     1.0000   1.0000   1.0000   1.0000   1.0000   1.0000   1.0000   1.0000
     1.0000   1.0000   1.0000   1.0000   1.0000   1.0000   1.0000   1.0000
     1.0000   1.0000   1.0000   1.0000   1.0000   1.0000   1.0000   1.0000
     1.0000   1.0000   1.0000   1.0000   1.0000   1.0000   1.0000   1.0000
     1.0000   1.0000   1.0000   1.0000   1.0000   1.0000   1.0000   1.0000
     1.0000   1.0000   1.0000   1.0000   1.0000   1.0000   1.0000   1.0000
     1.0000   1.0000   1.0000   1.0000   1.0000   1.0000   1.0000   1.0000
     1.0000   1.0000   1.0000   1.0000   1.0000   1.0000   1.0000   1.0000
     1.0000   1.0000   1.0000   1.0000   1.0000   1.0000   1.0000   1.0000
     1.0000   1.0000   1.0000   1.0000   1.0000   1.0000   1.0000   1.0000
     1.0000   1.0000   1.0000   1.0000   1.0000   1.0000   1.0000   1.0000
     1.0000   1.0000   1.0000   1.0000   1.0000   1.0000   1.0000   1.0000
     1.0000   1.0000   1.0000   1.0000   1.0000   1.0000   1.0000   1.0000
     1.0000   1.0000   1.0000   1.0000   1.0000   1.0000   1.0000   1.0000
     1.0000   1.0000   1.0000   1.0000   1.0000   1.0000   1.0000   1.0000
     1.0000   1.0000   1.0000   1.0000   1.0000   1.0000   1.0000   1.0000
     1.0000   1.0000   1.0000   1.0000   1.0000   1.0000   1.0000   1.0000
     1.0000   1.0000   1.0000   1.0000   1.0000   1.0027   0.0000   0.0000
     0.0000   0.0000   0.0000   0.0000   0.0000   0.0000   0.0000   0.0000
     0.0000   0.0000   0.0000   0.0000   0.0000   0.0000   0.0000   0.0000
     0.0000   0.0000   0.0000   0.0000   0.0000   0.0000   0.0000   0.0000
     0.0000   0.0000   0.0000   0.0000   0.0000   0.0000   0.0000   0.0000
     0.0000   0.0000   0.0000   0.0000   0.0000   0.0000   0.0000   0.0000
     0.0000   0.0000   0.0000   0.0000   0.0000   0.0000   0.0000   0.0000
     0.0000   0.0000   0.0000   0.0000   0.0000   0.0000   0.0000   0.0000
     0.0000   0.0000   0.0000   0.0000   0.0000   0.0000   0.0000   0.0000
     0.0000   0.0000   0.0000   0.0000   0.0000   0.0000   0.0000   0.0000

          k = 0.1250 0.2165 0.0000 ( 51323 PWs)   bands (ev):

    -6.4263  -6.1713  -6.1534  -5.9742  -5.9507  -5.8235  -5.8159  -5.8135
    -5.8093  -5.8019  -5.7864  -5.7715  -5.7633  -5.7433  -5.7272  -5.7071
    -5.7037  -5.6969  -5.6812  -5.6637  -5.6555  -5.6497  -5.6425  -5.6309
    -5.6219  -5.6181  -5.6105  -5.6073  -5.6066  -5.5975  -5.5831  -5.5794
    -5.5763  -5.5737  -5.5719  -5.5679  -5.5668  -5.5620  -5.5598  -5.5572
    -5.5565  -5.5522  -5.5518  -5.5503  -5.5473  -5.5465  -5.5401  -5.5380
    -5.5360  -5.5268  -5.5226  -5.4955  -5.4949  -4.2530  -4.2063  -4.1951
    -4.1917  -4.1904  -4.1896  -4.1830  -4.1796  -4.1740  -4.1713  -4.1680
    -4.1654  -4.1620  -4.1617  -4.1602  -4.1559  -4.1550  -4.1535  -4.1515
    -4.1509  -4.1503  -4.1496  -4.1476  -4.1471  -4.1461  -4.1453  -4.1437
    -4.1426  -4.1408  -4.1389  -4.1364  -4.1353  -4.1344  -4.1343  -4.1336
    -4.1325  -4.1306  -4.1297  -4.1268  -4.1249  -4.1239  -4.1226  -4.1206
    -4.1173  -4.1141  -4.1130  -4.1114  -4.1110  -4.1100  -4.1079  -4.1071
    -4.1065  -4.1058  -4.1047  -4.1033  -4.1017  -4.1000  -4.0989  -4.0970
    -4.0941  -4.0935  -4.0928  -4.0905  -4.0877  -4.0837  -4.0823  -4.0806
    -4.0792  -4.0783  -4.0745  -4.0736  -4.0706  -4.0687  -4.0669  -4.0646
    -4.0637  -4.0618  -4.0590  -4.0572  -4.0524  -4.0510  -4.0498  -4.0473
    -4.0439  -4.0419  -4.0405  -4.0380  -4.0375  -4.0359  -4.0340  -4.0303
    -4.0291  -4.0268  -4.0243  -4.0196  -4.0178  -4.0176  -4.0152  -4.0135
    -4.0119  -4.0098  -4.0087  -4.0079  -4.0069  -4.0045  -4.0043  -4.0028
    -4.0006  -3.9995  -3.9986  -3.9982  -3.9970  -3.9965  -3.9945  -3.9922
    -3.9911  -3.9903  -3.9887  -3.9883  -3.9872  -3.9861  -3.9852  -3.9846
    -3.9832  -3.9808  -3.9802  -3.9787  -3.9786  -3.9771  -3.9758  -3.9728
    -3.9716  -3.9708  -3.9704  -3.9683  -3.9677  -3.9658  -3.9643  -3.9628
    -3.9622  -3.9608  -3.9593  -3.9576  -3.9564  -3.9551  -3.9518  -3.9502
    -3.9492  -3.9484  -3.9449  -3.9437  -3.9422  -3.9421  -3.9402  -3.9394
    -3.9387  -3.9381  -3.9362  -3.9350  -3.9347  -3.9319  -3.9311  -3.9298
    -3.9289  -3.9252  -3.9238  -3.9234  -3.9216  -3.9208  -3.9197  -3.9178
    -3.9160  -3.9152  -3.9133  -3.9117  -3.9104  -3.9085  -3.9083  -3.9070
    -3.9066  -3.9042  -3.9030  -3.9007  -3.8996  -3.8987  -3.8969  -3.8955
    -3.8943  -3.8938  -3.8925  -3.8910  -3.8906  -3.8883  -3.8871  -3.8847
    -3.8810  -3.8791  -3.8781  -3.8768  -3.8741  -3.8725  -3.8707  -3.8694
    -3.8656  -3.8616  -3.8591  -3.8491  -3.8478  -3.8428  -3.8277  -3.8012
    -3.7933  -3.7810  -3.7736  -3.7544  -3.7450  -3.7412  -3.7375  -3.7315
    -3.7289  -3.6311  -3.6289  -3.5673  -3.5598  -3.5475  -3.5251  -3.4601
    -3.4427  -3.3534  -3.3409  -3.2555  -3.2528  -3.2392  -3.2088  -3.1554
    -3.1141  -2.9730  -2.9690  -2.9530  -2.9071  -2.8477  -2.8463  -2.8222
    -2.7731  -2.5966  -2.5877  -2.5860  -2.5723  -2.5406  -2.4807  -2.4322
    -2.4306  -2.4131  -2.4100  -2.3953  -2.3786  -2.3486  -2.3237  -2.2580
    -2.2166  -2.1958  -2.1668  -2.1615  -2.1491  -2.1107  -2.0869  -2.0752
    -2.0596  -2.0519  -2.0284  -0.1282   2.4639   3.0385   3.0450   3.0519
     3.0789   3.1652   3.1799   3.2192   3.2424   3.2546   3.2582   3.2722
     3.3048   3.4364   3.4440   3.4670   3.4719   3.4900   3.5062   3.5295
     3.5502   3.5615   3.5730   3.6211   3.7381   3.7442   3.7697   3.7709
     3.8350   3.9524   3.9574   3.9747   3.9849   4.0125   4.0680   4.1014
     4.1766   4.3658   4.3738   4.3755   4.3961   4.4037   4.4872   4.5935
     4.6132   4.6206   4.7070   4.9391   4.9684   4.9706   4.9935   5.0199
     5.0414   5.1045   5.1143   5.1249   5.1439   5.1477   5.2655   5.3613
     5.4231   5.8733   5.9915   6.0594   6.0655   6.0983   6.1023   6.1063
     6.1587   6.1988   6.2066   6.2250   6.2269   6.2524   6.2723   6.2757
     6.2996   6.3126   6.3327   6.3582   6.4177   6.6723   6.6876   6.6952
     6.7312   6.7552   6.8320   6.8761   6.8885   6.9221   6.9382   7.0208
     7.0296   7.0383   7.0504   7.0542   7.0568   7.0909   7.1368   7.1806
     7.1878   7.2204   7.2344   7.2543   7.2758   7.4953   7.5047   7.5336
     7.5566   7.5826   7.6186   7.6945   7.6977   7.7347   7.7369   7.7467
     7.7483   7.7593   7.7715   7.7764   7.8097   7.8254   7.8428   7.9079
     7.9547   7.9603   7.9709   7.9981   8.0168   8.0326   8.0465   8.0517
     8.0750   8.0801   8.0867   8.0933   8.1244   8.1565   8.1642   8.2216
     8.2548   8.2638   8.2776   8.2844   8.2927   8.3192   8.3520   8.3605
     8.3985   8.4384   8.5051   8.5494   8.6760   8.7092   8.7560   8.7706
     8.8434   8.9324   9.0873   9.1435   9.2851   9.4054  11.4947  12.9152
    12.9439  13.4713  13.4745  13.4866  13.5061  13.6046  13.6343  13.6708
    13.7357  13.7445  13.7603  13.7695  13.7852  13.7991  13.8172  13.8252
    13.8374  14.0100  14.2431  14.2657  14.2848  14.3695  14.4712  14.4790
    14.4865  14.5771  14.5864  14.5985  14.7858  14.8162  14.9624  14.9716
    14.9770  14.9807  14.9933  15.0117  15.0270  15.0398  15.0614  15.0900
    15.1254  15.1933  15.2258  15.3109  15.3394  15.3889  15.4332  15.4951
    15.5221  15.6252  15.8351  15.8655  15.9194  15.9964  16.3018  16.3152
    16.3253  16.3279  16.3379  16.3440  16.3569  16.3612  16.3689  16.3782
    16.3856  16.4070  16.4330  16.4977  16.5208  16.5341  16.5426  16.5591

     occupation numbers 
     1.0000   1.0000   1.0000   1.0000   1.0000   1.0000   1.0000   1.0000
     1.0000   1.0000   1.0000   1.0000   1.0000   1.0000   1.0000   1.0000
     1.0000   1.0000   1.0000   1.0000   1.0000   1.0000   1.0000   1.0000
     1.0000   1.0000   1.0000   1.0000   1.0000   1.0000   1.0000   1.0000
     1.0000   1.0000   1.0000   1.0000   1.0000   1.0000   1.0000   1.0000
     1.0000   1.0000   1.0000   1.0000   1.0000   1.0000   1.0000   1.0000
     1.0000   1.0000   1.0000   1.0000   1.0000   1.0000   1.0000   1.0000
     1.0000   1.0000   1.0000   1.0000   1.0000   1.0000   1.0000   1.0000
     1.0000   1.0000   1.0000   1.0000   1.0000   1.0000   1.0000   1.0000
     1.0000   1.0000   1.0000   1.0000   1.0000   1.0000   1.0000   1.0000
     1.0000   1.0000   1.0000   1.0000   1.0000   1.0000   1.0000   1.0000
     1.0000   1.0000   1.0000   1.0000   1.0000   1.0000   1.0000   1.0000
     1.0000   1.0000   1.0000   1.0000   1.0000   1.0000   1.0000   1.0000
     1.0000   1.0000   1.0000   1.0000   1.0000   1.0000   1.0000   1.0000
     1.0000   1.0000   1.0000   1.0000   1.0000   1.0000   1.0000   1.0000
     1.0000   1.0000   1.0000   1.0000   1.0000   1.0000   1.0000   1.0000
     1.0000   1.0000   1.0000   1.0000   1.0000   1.0000   1.0000   1.0000
     1.0000   1.0000   1.0000   1.0000   1.0000   1.0000   1.0000   1.0000
     1.0000   1.0000   1.0000   1.0000   1.0000   1.0000   1.0000   1.0000
     1.0000   1.0000   1.0000   1.0000   1.0000   1.0000   1.0000   1.0000
     1.0000   1.0000   1.0000   1.0000   1.0000   1.0000   1.0000   1.0000
     1.0000   1.0000   1.0000   1.0000   1.0000   1.0000   1.0000   1.0000
     1.0000   1.0000   1.0000   1.0000   1.0000   1.0000   1.0000   1.0000
     1.0000   1.0000   1.0000   1.0000   1.0000   1.0000   1.0000   1.0000
     1.0000   1.0000   1.0000   1.0000   1.0000   1.0000   1.0000   1.0000
     1.0000   1.0000   1.0000   1.0000   1.0000   1.0000   1.0000   1.0000
     1.0000   1.0000   1.0000   1.0000   1.0000   1.0000   1.0000   1.0000
     1.0000   1.0000   1.0000   1.0000   1.0000   1.0000   1.0000   1.0000
     1.0000   1.0000   1.0000   1.0000   1.0000   1.0000   1.0000   1.0000
     1.0000   1.0000   1.0000   1.0000   1.0000   1.0000   1.0000   1.0000
     1.0000   1.0000   1.0000   1.0000   1.0000   1.0000   1.0000   1.0000
     1.0000   1.0000   1.0000   1.0000   1.0000   1.0000   1.0000   1.0000
     1.0000   1.0000   1.0000   1.0000   1.0000   1.0000   1.0000   1.0000
     1.0000   1.0000   1.0000   1.0000   1.0000   1.0000   1.0000   1.0000
     1.0000   1.0000   1.0000   1.0000   1.0000   1.0000   1.0000   1.0000
     1.0000   1.0000   1.0000   1.0000   1.0000   1.0000   1.0000   1.0000
     1.0000   1.0000   1.0000   1.0000   1.0000   1.0000   1.0000   1.0000
     1.0000   1.0000   1.0000   1.0000   1.0000   1.0000   1.0000   1.0000
     1.0000   1.0000   1.0000   1.0000   1.0000   1.0000   1.0000   1.0000
     1.0000   1.0000   1.0000   1.0000   1.0000   1.0000   1.0000   1.0000
     1.0000   1.0000   1.0000   1.0000   1.0000   1.0000   1.0000   1.0000
     1.0000   1.0000   1.0000   1.0000   1.0000   1.0000   1.0000   1.0000
     1.0000   1.0000   1.0000   1.0000   1.0000   1.0000   1.0000   1.0000
     1.0000   1.0000   1.0000   1.0000   1.0000   1.0000   1.0000   1.0000
     1.0000   1.0000   1.0000   1.0000   1.0000   1.0000   1.0000   1.0000
     1.0000   1.0000   1.0000   1.0000   1.0000   1.0000   1.0000   1.0000
     1.0000   1.0000   1.0000   1.0000   1.0000   1.0000   1.0000   1.0000
     1.0000   1.0000   1.0000   1.0000   1.0000   1.0000   1.0000   1.0000
     1.0000   1.0000   1.0000   1.0000   1.0000   1.0000   1.0000   1.0000
     1.0000   1.0000   1.0000   1.0000   1.0000   1.0000   1.0000   1.0000
     1.0000   1.0000   1.0000   1.0000   1.0000   1.0000   1.0000   1.0000
     1.0000   1.0000   1.0000   1.0000   1.0000   1.0000   1.0000   1.0000
     1.0000   1.0000   1.0000   1.0000   1.0000   1.0000   1.0000   1.0000
     1.0000   1.0000   1.0000   1.0000   1.0000   1.0000   1.0000   1.0000
     1.0000   1.0000   1.0000   1.0000   1.0000   1.0000   1.0000   1.0000
     1.0000   1.0000   1.0000   1.0000   1.0000   1.0000   1.0000   1.0000
     1.0000   1.0000   1.0000   1.0000   1.0000   1.0000   1.0000   1.0000
     1.0000   1.0000   1.0000   1.0000   1.0000   1.0000   1.0000   1.0000
     1.0000   1.0000   1.0000   1.0000   1.0000   1.0000   1.0000   1.0000
     1.0000   1.0000   1.0000   1.0000   1.0000   1.0000   1.0000   1.0000
     1.0000   1.0000   1.0000   1.0000   1.0370  -0.0136   0.0000   0.0000
     0.0000   0.0000   0.0000   0.0000   0.0000   0.0000   0.0000   0.0000
     0.0000   0.0000   0.0000   0.0000   0.0000   0.0000   0.0000   0.0000
     0.0000   0.0000   0.0000   0.0000   0.0000   0.0000   0.0000   0.0000
     0.0000   0.0000   0.0000   0.0000   0.0000   0.0000   0.0000   0.0000
     0.0000   0.0000   0.0000   0.0000   0.0000   0.0000   0.0000   0.0000
     0.0000   0.0000   0.0000   0.0000   0.0000   0.0000   0.0000   0.0000
     0.0000   0.0000   0.0000   0.0000   0.0000   0.0000   0.0000   0.0000
     0.0000   0.0000   0.0000   0.0000   0.0000   0.0000   0.0000   0.0000
     0.0000   0.0000   0.0000   0.0000   0.0000   0.0000   0.0000   0.0000

          k = 0.1250 0.2165 0.1533 ( 51308 PWs)   bands (ev):

    -6.4086  -6.2664  -6.0487  -5.9626  -5.9406  -5.8754  -5.8573  -5.8387
    -5.8118  -5.7984  -5.7531  -5.7474  -5.7393  -5.7354  -5.7336  -5.7225
    -5.7113  -5.6851  -5.6702  -5.6665  -5.6611  -5.6524  -5.6471  -5.6359
    -5.6187  -5.6101  -5.6048  -5.6027  -5.5986  -5.5947  -5.5903  -5.5874
    -5.5801  -5.5770  -5.5736  -5.5708  -5.5670  -5.5656  -5.5627  -5.5597
    -5.5562  -5.5515  -5.5505  -5.5476  -5.5450  -5.5424  -5.5415  -5.5370
    -5.5356  -5.5272  -5.5227  -5.4955  -5.4949  -4.2530  -4.2039  -4.1949
    -4.1918  -4.1878  -4.1872  -4.1804  -4.1801  -4.1718  -4.1698  -4.1679
    -4.1651  -4.1633  -4.1615  -4.1603  -4.1585  -4.1571  -4.1563  -4.1546
    -4.1528  -4.1507  -4.1494  -4.1480  -4.1473  -4.1462  -4.1451  -4.1439
    -4.1430  -4.1416  -4.1403  -4.1394  -4.1373  -4.1364  -4.1351  -4.1336
    -4.1323  -4.1307  -4.1285  -4.1276  -4.1265  -4.1252  -4.1243  -4.1224
    -4.1205  -4.1197  -4.1181  -4.1174  -4.1157  -4.1134  -4.1118  -4.1109
    -4.1078  -4.1073  -4.1042  -4.1024  -4.0992  -4.0973  -4.0945  -4.0928
    -4.0900  -4.0882  -4.0872  -4.0850  -4.0832  -4.0822  -4.0808  -4.0797
    -4.0782  -4.0761  -4.0744  -4.0728  -4.0697  -4.0688  -4.0664  -4.0648
    -4.0612  -4.0586  -4.0566  -4.0543  -4.0529  -4.0514  -4.0487  -4.0472
    -4.0456  -4.0424  -4.0417  -4.0386  -4.0379  -4.0362  -4.0345  -4.0330
    -4.0307  -4.0274  -4.0237  -4.0222  -4.0183  -4.0153  -4.0137  -4.0130
    -4.0115  -4.0107  -4.0095  -4.0078  -4.0070  -4.0050  -4.0042  -4.0026
    -4.0014  -4.0006  -3.9995  -3.9979  -3.9971  -3.9960  -3.9943  -3.9930
    -3.9917  -3.9904  -3.9883  -3.9878  -3.9855  -3.9844  -3.9829  -3.9820
    -3.9814  -3.9800  -3.9793  -3.9782  -3.9755  -3.9743  -3.9733  -3.9725
    -3.9707  -3.9701  -3.9688  -3.9669  -3.9661  -3.9650  -3.9641  -3.9632
    -3.9624  -3.9613  -3.9590  -3.9574  -3.9569  -3.9553  -3.9523  -3.9506
    -3.9500  -3.9485  -3.9467  -3.9450  -3.9444  -3.9427  -3.9416  -3.9406
    -3.9387  -3.9382  -3.9362  -3.9340  -3.9325  -3.9313  -3.9283  -3.9273
    -3.9256  -3.9242  -3.9234  -3.9223  -3.9222  -3.9199  -3.9195  -3.9177
    -3.9159  -3.9140  -3.9132  -3.9126  -3.9106  -3.9087  -3.9086  -3.9067
    -3.9058  -3.9049  -3.9043  -3.9009  -3.9001  -3.8980  -3.8960  -3.8947
    -3.8944  -3.8930  -3.8916  -3.8909  -3.8883  -3.8866  -3.8854  -3.8838
    -3.8805  -3.8782  -3.8775  -3.8763  -3.8744  -3.8722  -3.8701  -3.8682
    -3.8643  -3.8615  -3.8593  -3.8493  -3.8480  -3.8432  -3.8267  -3.7999
    -3.7927  -3.7794  -3.7719  -3.7505  -3.7456  -3.7393  -3.7353  -3.7318
    -3.7256  -3.6627  -3.6347  -3.6255  -3.6156  -3.5740  -3.4514  -3.4424
    -3.4357  -3.4011  -3.3431  -3.3198  -3.1471  -3.1311  -3.1195  -3.1094
    -3.0757  -3.0723  -3.0531  -3.0448  -2.9787  -2.8626  -2.8173  -2.7800
    -2.7477  -2.6561  -2.6182  -2.5889  -2.5817  -2.5340  -2.4710  -2.4218
    -2.3974  -2.3907  -2.3711  -2.3481  -2.3179  -2.2851  -2.2815  -2.2685
    -2.2560  -2.2347  -2.2075  -2.1633  -2.1293  -2.1140  -2.1103  -2.0986
    -2.0848  -2.0760  -2.0396  -0.1306   2.5860   3.0311   3.0480   3.1253
     3.1335   3.1460   3.1759   3.1998   3.2191   3.2588   3.2936   3.3151
     3.3349   3.3495   3.3881   3.4232   3.4425   3.4488   3.4651   3.4848
     3.4996   3.5309   3.5625   3.6558   3.6726   3.6859   3.6998   3.7201
     3.7404   3.7683   3.9595   4.0128   4.0512   4.0862   4.1293   4.1663
     4.2391   4.2917   4.3716   4.4092   4.6095   4.6162   4.6351   4.6608
     4.6815   4.7044   4.7638   4.7936   4.8044   4.8416   4.9153   5.0945
     5.1158   5.1620   5.1809   5.1981   5.2320   5.3280   5.3404   5.3660
     5.4385   5.7305   5.7452   5.7738   5.7970   5.8148   5.8520   5.9370
     5.9508   6.0055   6.0412   6.0984   6.1271   6.2303   6.3535   6.4001
     6.6948   6.6970   6.7037   6.7053   6.7108   6.7270   6.7333   6.7492
     6.7624   6.7729   6.7946   6.8251   6.8305   6.8600   6.8722   6.8871
     6.9112   6.9366   6.9622   7.0069   7.2160   7.2190   7.2263   7.2494
     7.2836   7.3036   7.3888   7.3995   7.4397   7.5056   7.5109   7.5384
     7.5413   7.5610   7.5728   7.5821   7.6012   7.6243   7.6409   7.6621
     7.7055   7.7389   7.7625   7.7881   7.8110   7.8342   7.8410   7.8567
     7.8710   7.8909   7.9162   7.9437   7.9617   8.0072   8.0471   8.0533
     8.0621   8.0672   8.1000   8.1270   8.1406   8.1808   8.1992   8.2482
     8.2584   8.2840   8.2902   8.2940   8.3006   8.3571   8.3653   8.4283
     8.4406   8.4688   8.5007   8.5725   8.5874   8.6303   8.7211   8.7906
     8.8283   8.9075   9.1127   9.1317   9.2644   9.4002  11.6504  12.4819
    13.3123  13.5673  13.5727  13.5769  13.5818  13.5940  13.5982  13.6058
    13.6596  13.6931  13.7455  13.7846  13.8281  13.8886  13.9753  13.9931
    14.0048  14.0775  14.1430  14.1464  14.1596  14.1784  14.1856  14.3712
    14.6289  14.6341  14.6398  14.6533  14.6721  14.6777  14.7152  14.7233
    14.7300  14.8766  14.9390  15.0207  15.1349  15.1420  15.1463  15.1874
    15.1923  15.2021  15.2284  15.2415  15.2661  15.3329  15.4259  15.5806
    15.7259  15.7371  15.8134  15.9117  15.9496  16.1747  16.2007  16.2215
    16.2731  16.2898  16.3086  16.3470  16.3590  16.3769  16.4128  16.4247
    16.4721  16.5129  16.5557  16.5989  16.6201  16.6326  16.6603  16.6842

     occupation numbers 
     1.0000   1.0000   1.0000   1.0000   1.0000   1.0000   1.0000   1.0000
     1.0000   1.0000   1.0000   1.0000   1.0000   1.0000   1.0000   1.0000
     1.0000   1.0000   1.0000   1.0000   1.0000   1.0000   1.0000   1.0000
     1.0000   1.0000   1.0000   1.0000   1.0000   1.0000   1.0000   1.0000
     1.0000   1.0000   1.0000   1.0000   1.0000   1.0000   1.0000   1.0000
     1.0000   1.0000   1.0000   1.0000   1.0000   1.0000   1.0000   1.0000
     1.0000   1.0000   1.0000   1.0000   1.0000   1.0000   1.0000   1.0000
     1.0000   1.0000   1.0000   1.0000   1.0000   1.0000   1.0000   1.0000
     1.0000   1.0000   1.0000   1.0000   1.0000   1.0000   1.0000   1.0000
     1.0000   1.0000   1.0000   1.0000   1.0000   1.0000   1.0000   1.0000
     1.0000   1.0000   1.0000   1.0000   1.0000   1.0000   1.0000   1.0000
     1.0000   1.0000   1.0000   1.0000   1.0000   1.0000   1.0000   1.0000
     1.0000   1.0000   1.0000   1.0000   1.0000   1.0000   1.0000   1.0000
     1.0000   1.0000   1.0000   1.0000   1.0000   1.0000   1.0000   1.0000
     1.0000   1.0000   1.0000   1.0000   1.0000   1.0000   1.0000   1.0000
     1.0000   1.0000   1.0000   1.0000   1.0000   1.0000   1.0000   1.0000
     1.0000   1.0000   1.0000   1.0000   1.0000   1.0000   1.0000   1.0000
     1.0000   1.0000   1.0000   1.0000   1.0000   1.0000   1.0000   1.0000
     1.0000   1.0000   1.0000   1.0000   1.0000   1.0000   1.0000   1.0000
     1.0000   1.0000   1.0000   1.0000   1.0000   1.0000   1.0000   1.0000
     1.0000   1.0000   1.0000   1.0000   1.0000   1.0000   1.0000   1.0000
     1.0000   1.0000   1.0000   1.0000   1.0000   1.0000   1.0000   1.0000
     1.0000   1.0000   1.0000   1.0000   1.0000   1.0000   1.0000   1.0000
     1.0000   1.0000   1.0000   1.0000   1.0000   1.0000   1.0000   1.0000
     1.0000   1.0000   1.0000   1.0000   1.0000   1.0000   1.0000   1.0000
     1.0000   1.0000   1.0000   1.0000   1.0000   1.0000   1.0000   1.0000
     1.0000   1.0000   1.0000   1.0000   1.0000   1.0000   1.0000   1.0000
     1.0000   1.0000   1.0000   1.0000   1.0000   1.0000   1.0000   1.0000
     1.0000   1.0000   1.0000   1.0000   1.0000   1.0000   1.0000   1.0000
     1.0000   1.0000   1.0000   1.0000   1.0000   1.0000   1.0000   1.0000
     1.0000   1.0000   1.0000   1.0000   1.0000   1.0000   1.0000   1.0000
     1.0000   1.0000   1.0000   1.0000   1.0000   1.0000   1.0000   1.0000
     1.0000   1.0000   1.0000   1.0000   1.0000   1.0000   1.0000   1.0000
     1.0000   1.0000   1.0000   1.0000   1.0000   1.0000   1.0000   1.0000
     1.0000   1.0000   1.0000   1.0000   1.0000   1.0000   1.0000   1.0000
     1.0000   1.0000   1.0000   1.0000   1.0000   1.0000   1.0000   1.0000
     1.0000   1.0000   1.0000   1.0000   1.0000   1.0000   1.0000   1.0000
     1.0000   1.0000   1.0000   1.0000   1.0000   1.0000   1.0000   1.0000
     1.0000   1.0000   1.0000   1.0000   1.0000   1.0000   1.0000   1.0000
     1.0000   1.0000   1.0000   1.0000   1.0000   1.0000   1.0000   1.0000
     1.0000   1.0000   1.0000   1.0000   1.0000   1.0000   1.0000   1.0000
     1.0000   1.0000   1.0000   1.0000   1.0000   1.0000   1.0000   1.0000
     1.0000   1.0000   1.0000   1.0000   1.0000   1.0000   1.0000   1.0000
     1.0000   1.0000   1.0000   1.0000   1.0000   1.0000   1.0000   1.0000
     1.0000   1.0000   1.0000   1.0000   1.0000   1.0000   1.0000   1.0000
     1.0000   1.0000   1.0000   1.0000   1.0000   1.0000   1.0000   1.0000
     1.0000   1.0000   1.0000   1.0000   1.0000   1.0000   1.0000   1.0000
     1.0000   1.0000   1.0000   1.0000   1.0000   1.0000   1.0000   1.0000
     1.0000   1.0000   1.0000   1.0000   1.0000   1.0000   1.0000   1.0000
     1.0000   1.0000   1.0000   1.0000   1.0000   1.0000   1.0000   1.0000
     1.0000   1.0000   1.0000   1.0000   1.0000   1.0000   1.0000   1.0000
     1.0000   1.0000   1.0000   1.0000   1.0000   1.0000   1.0000   1.0000
     1.0000   1.0000   1.0000   1.0000   1.0000   1.0000   1.0000   1.0000
     1.0000   1.0000   1.0000   1.0000   1.0000   1.0000   1.0000   1.0000
     1.0000   1.0000   1.0000   1.0000   1.0000   1.0000   1.0000   1.0000
     1.0000   1.0000   1.0000   1.0000   1.0000   1.0000   1.0000   1.0000
     1.0000   1.0000   1.0000   1.0000   1.0000   1.0000   1.0000   1.0000
     1.0000   1.0000   1.0000   1.0000   1.0000   1.0000   1.0000   1.0000
     1.0000   1.0000   1.0000   1.0000   1.0000   1.0000   1.0000   1.0000
     1.0000   1.0000   1.0000   1.0000   1.0000   1.0000   1.0000   1.0000
     1.0000   1.0000   1.0000   1.0000   1.0374  -0.0503   0.0000   0.0000
     0.0000   0.0000   0.0000   0.0000   0.0000   0.0000   0.0000   0.0000
     0.0000   0.0000   0.0000   0.0000   0.0000   0.0000   0.0000   0.0000
     0.0000   0.0000   0.0000   0.0000   0.0000   0.0000   0.0000   0.0000
     0.0000   0.0000   0.0000   0.0000   0.0000   0.0000   0.0000   0.0000
     0.0000   0.0000   0.0000   0.0000   0.0000   0.0000   0.0000   0.0000
     0.0000   0.0000   0.0000   0.0000   0.0000   0.0000   0.0000   0.0000
     0.0000   0.0000   0.0000   0.0000   0.0000   0.0000   0.0000   0.0000
     0.0000   0.0000   0.0000   0.0000   0.0000   0.0000   0.0000   0.0000
     0.0000   0.0000   0.0000   0.0000   0.0000   0.0000   0.0000   0.0000

          k = 0.1250 0.2165-0.3067 ( 51238 PWs)   bands (ev):

    -6.3706  -6.3342  -5.9428  -5.9399  -5.9358  -5.9225  -5.9180  -5.8808
    -5.7948  -5.7869  -5.7772  -5.7570  -5.7246  -5.7134  -5.7075  -5.6986
    -5.6962  -5.6939  -5.6905  -5.6824  -5.6770  -5.6633  -5.6271  -5.6260
    -5.6156  -5.6118  -5.6012  -5.5994  -5.5958  -5.5912  -5.5899  -5.5870
    -5.5852  -5.5838  -5.5797  -5.5780  -5.5688  -5.5663  -5.5638  -5.5618
    -5.5560  -5.5507  -5.5481  -5.5468  -5.5450  -5.5423  -5.5402  -5.5345
    -5.5341  -5.5283  -5.5230  -5.4956  -5.4949  -4.2530  -4.2004  -4.1948
    -4.1936  -4.1828  -4.1815  -4.1794  -4.1743  -4.1723  -4.1696  -4.1682
    -4.1678  -4.1667  -4.1646  -4.1637  -4.1625  -4.1605  -4.1589  -4.1561
    -4.1531  -4.1521  -4.1490  -4.1474  -4.1469  -4.1448  -4.1441  -4.1435
    -4.1424  -4.1413  -4.1405  -4.1389  -4.1377  -4.1372  -4.1364  -4.1341
    -4.1333  -4.1325  -4.1309  -4.1296  -4.1290  -4.1278  -4.1273  -4.1251
    -4.1244  -4.1236  -4.1211  -4.1205  -4.1192  -4.1177  -4.1154  -4.1135
    -4.1101  -4.1089  -4.0969  -4.0950  -4.0937  -4.0926  -4.0917  -4.0898
    -4.0893  -4.0862  -4.0845  -4.0821  -4.0806  -4.0784  -4.0742  -4.0732
    -4.0719  -4.0705  -4.0702  -4.0684  -4.0670  -4.0653  -4.0646  -4.0628
    -4.0618  -4.0603  -4.0592  -4.0573  -4.0565  -4.0550  -4.0531  -4.0505
    -4.0480  -4.0469  -4.0444  -4.0417  -4.0409  -4.0399  -4.0362  -4.0336
    -4.0306  -4.0277  -4.0252  -4.0236  -4.0230  -4.0182  -4.0161  -4.0145
    -4.0135  -4.0120  -4.0105  -4.0092  -4.0068  -4.0052  -4.0036  -4.0023
    -4.0010  -3.9998  -3.9997  -3.9975  -3.9964  -3.9953  -3.9943  -3.9934
    -3.9905  -3.9885  -3.9875  -3.9843  -3.9830  -3.9826  -3.9820  -3.9816
    -3.9792  -3.9786  -3.9765  -3.9758  -3.9742  -3.9717  -3.9711  -3.9700
    -3.9699  -3.9693  -3.9663  -3.9658  -3.9645  -3.9639  -3.9629  -3.9619
    -3.9610  -3.9605  -3.9590  -3.9583  -3.9560  -3.9538  -3.9528  -3.9500
    -3.9492  -3.9486  -3.9477  -3.9461  -3.9447  -3.9445  -3.9431  -3.9418
    -3.9407  -3.9390  -3.9371  -3.9344  -3.9316  -3.9303  -3.9271  -3.9262
    -3.9249  -3.9232  -3.9223  -3.9210  -3.9204  -3.9194  -3.9188  -3.9165
    -3.9153  -3.9146  -3.9128  -3.9127  -3.9118  -3.9100  -3.9086  -3.9067
    -3.9059  -3.9042  -3.9038  -3.9020  -3.9007  -3.8996  -3.8961  -3.8950
    -3.8932  -3.8924  -3.8918  -3.8908  -3.8871  -3.8860  -3.8856  -3.8833
    -3.8803  -3.8781  -3.8766  -3.8743  -3.8731  -3.8713  -3.8695  -3.8634
    -3.8616  -3.8599  -3.8496  -3.8482  -3.8437  -3.8352  -3.8043  -3.7936
    -3.7885  -3.7790  -3.7708  -3.7559  -3.7438  -3.7423  -3.7337  -3.7287
    -3.7259  -3.7076  -3.7003  -3.6669  -3.6251  -3.6201  -3.4227  -3.4184
    -3.3971  -3.3738  -3.2749  -3.2712  -3.2512  -3.2218  -3.1189  -3.1052
    -3.1037  -3.0457  -2.9694  -2.9676  -2.9535  -2.9136  -2.8431  -2.8250
    -2.7325  -2.7312  -2.7080  -2.6478  -2.4661  -2.4408  -2.4210  -2.4054
    -2.3958  -2.3892  -2.3772  -2.3457  -2.2698  -2.2650  -2.2488  -2.2476
    -2.2313  -2.2216  -2.2108  -2.1956  -2.1728  -2.1573  -2.1493  -2.1216
    -2.1036  -2.0762  -2.0571  -0.1328   2.9208   2.9318   3.0798   3.0875
     3.0930   3.1172   3.1604   3.1762   3.2320   3.2395   3.2812   3.2888
     3.3054   3.3340   3.3948   3.4091   3.4220   3.4304   3.4381   3.4525
     3.4755   3.4908   3.5056   3.5293   3.5475   3.6058   3.8343   3.8556
     3.8749   3.8812   3.8847   3.9147   3.9244   3.9758   4.2299   4.2415
     4.2562   4.3263   4.5274   4.5345   4.5557   4.6047   4.6546   4.6686
     4.6962   4.7096   4.7329   4.7385   4.7964   4.8522   5.2870   5.2924
     5.3135   5.3332   5.3594   5.3714   5.3770   5.3866   5.3900   5.4002
     5.4194   5.4280   5.4523   5.4857   5.4889   5.5201   5.5358   5.5537
     5.9034   5.9132   5.9325   6.0357   6.3026   6.3270   6.4170   6.4534
     6.6043   6.6160   6.6364   6.6462   6.7505   6.7554   6.7605   6.7694
     6.7728   6.7821   6.8274   6.8765   7.1235   7.1250   7.1282   7.1398
     7.1522   7.1695   7.2052   7.2094   7.2114   7.2206   7.2214   7.2330
     7.2360   7.2496   7.2544   7.2609   7.2692   7.3154   7.3553   7.3648
     7.5219   7.5251   7.5328   7.5417   7.5457   7.5777   7.5926   7.6432
     7.7611   7.7758   7.7780   7.7794   7.7828   7.8009   7.8087   7.8689
     7.8739   7.8920   7.9238   7.9406   7.9505   8.0087   8.0681   8.0743
     8.0862   8.1075   8.1430   8.1664   8.1876   8.1958   8.2017   8.2044
     8.2134   8.2311   8.2448   8.2953   8.3307   8.3603   8.4088   8.4198
     8.4416   8.4652   8.5228   8.5472   8.5515   8.6062   8.6652   8.8018
     8.8052   8.8859   9.1346   9.1411   9.2413   9.3946  11.9967  12.0555
    13.5507  13.5639  13.5679  13.5805  13.5873  13.6345  13.7025  13.7384
    13.8231  13.8302  13.8372  13.8432  13.8481  13.8575  13.8629  13.9026
    13.9664  13.9702  13.9799  14.1186  14.2635  14.2709  14.2839  14.3199
    14.3462  14.3557  14.3950  14.5380  14.6723  14.6862  14.6951  14.7884
    14.7945  14.8214  14.8711  14.8849  15.1443  15.1480  15.1732  15.1769
    15.2069  15.2212  15.2432  15.2461  15.2598  15.2627  15.2979  15.5720
    16.0249  16.0390  16.0414  16.0662  16.0757  16.0956  16.1075  16.1308
    16.1484  16.1783  16.1879  16.2858  16.3294  16.3475  16.3850  16.4027
    16.7149  16.7252  16.7351  16.7504  16.7651  16.7884  16.8004  16.8209

     occupation numbers 
     1.0000   1.0000   1.0000   1.0000   1.0000   1.0000   1.0000   1.0000
     1.0000   1.0000   1.0000   1.0000   1.0000   1.0000   1.0000   1.0000
     1.0000   1.0000   1.0000   1.0000   1.0000   1.0000   1.0000   1.0000
     1.0000   1.0000   1.0000   1.0000   1.0000   1.0000   1.0000   1.0000
     1.0000   1.0000   1.0000   1.0000   1.0000   1.0000   1.0000   1.0000
     1.0000   1.0000   1.0000   1.0000   1.0000   1.0000   1.0000   1.0000
     1.0000   1.0000   1.0000   1.0000   1.0000   1.0000   1.0000   1.0000
     1.0000   1.0000   1.0000   1.0000   1.0000   1.0000   1.0000   1.0000
     1.0000   1.0000   1.0000   1.0000   1.0000   1.0000   1.0000   1.0000
     1.0000   1.0000   1.0000   1.0000   1.0000   1.0000   1.0000   1.0000
     1.0000   1.0000   1.0000   1.0000   1.0000   1.0000   1.0000   1.0000
     1.0000   1.0000   1.0000   1.0000   1.0000   1.0000   1.0000   1.0000
     1.0000   1.0000   1.0000   1.0000   1.0000   1.0000   1.0000   1.0000
     1.0000   1.0000   1.0000   1.0000   1.0000   1.0000   1.0000   1.0000
     1.0000   1.0000   1.0000   1.0000   1.0000   1.0000   1.0000   1.0000
     1.0000   1.0000   1.0000   1.0000   1.0000   1.0000   1.0000   1.0000
     1.0000   1.0000   1.0000   1.0000   1.0000   1.0000   1.0000   1.0000
     1.0000   1.0000   1.0000   1.0000   1.0000   1.0000   1.0000   1.0000
     1.0000   1.0000   1.0000   1.0000   1.0000   1.0000   1.0000   1.0000
     1.0000   1.0000   1.0000   1.0000   1.0000   1.0000   1.0000   1.0000
     1.0000   1.0000   1.0000   1.0000   1.0000   1.0000   1.0000   1.0000
     1.0000   1.0000   1.0000   1.0000   1.0000   1.0000   1.0000   1.0000
     1.0000   1.0000   1.0000   1.0000   1.0000   1.0000   1.0000   1.0000
     1.0000   1.0000   1.0000   1.0000   1.0000   1.0000   1.0000   1.0000
     1.0000   1.0000   1.0000   1.0000   1.0000   1.0000   1.0000   1.0000
     1.0000   1.0000   1.0000   1.0000   1.0000   1.0000   1.0000   1.0000
     1.0000   1.0000   1.0000   1.0000   1.0000   1.0000   1.0000   1.0000
     1.0000   1.0000   1.0000   1.0000   1.0000   1.0000   1.0000   1.0000
     1.0000   1.0000   1.0000   1.0000   1.0000   1.0000   1.0000   1.0000
     1.0000   1.0000   1.0000   1.0000   1.0000   1.0000   1.0000   1.0000
     1.0000   1.0000   1.0000   1.0000   1.0000   1.0000   1.0000   1.0000
     1.0000   1.0000   1.0000   1.0000   1.0000   1.0000   1.0000   1.0000
     1.0000   1.0000   1.0000   1.0000   1.0000   1.0000   1.0000   1.0000
     1.0000   1.0000   1.0000   1.0000   1.0000   1.0000   1.0000   1.0000
     1.0000   1.0000   1.0000   1.0000   1.0000   1.0000   1.0000   1.0000
     1.0000   1.0000   1.0000   1.0000   1.0000   1.0000   1.0000   1.0000
     1.0000   1.0000   1.0000   1.0000   1.0000   1.0000   1.0000   1.0000
     1.0000   1.0000   1.0000   1.0000   1.0000   1.0000   1.0000   1.0000
     1.0000   1.0000   1.0000   1.0000   1.0000   1.0000   1.0000   1.0000
     1.0000   1.0000   1.0000   1.0000   1.0000   1.0000   1.0000   1.0000
     1.0000   1.0000   1.0000   1.0000   1.0000   1.0000   1.0000   1.0000
     1.0000   1.0000   1.0000   1.0000   1.0000   1.0000   1.0000   1.0000
     1.0000   1.0000   1.0000   1.0000   1.0000   1.0000   1.0000   1.0000
     1.0000   1.0000   1.0000   1.0000   1.0000   1.0000   1.0000   1.0000
     1.0000   1.0000   1.0000   1.0000   1.0000   1.0000   1.0000   1.0000
     1.0000   1.0000   1.0000   1.0000   1.0000   1.0000   1.0000   1.0000
     1.0000   1.0000   1.0000   1.0000   1.0000   1.0000   1.0000   1.0000
     1.0000   1.0000   1.0000   1.0000   1.0000   1.0000   1.0000   1.0000
     1.0000   1.0000   1.0000   1.0000   1.0000   1.0000   1.0000   1.0000
     1.0000   1.0000   1.0000   1.0000   1.0000   1.0000   1.0000   1.0000
     1.0000   1.0000   1.0000   1.0000   1.0000   1.0000   1.0000   1.0000
     1.0000   1.0000   1.0000   1.0000   1.0000   1.0000   1.0000   1.0000
     1.0000   1.0000   1.0000   1.0000   1.0000   1.0000   1.0000   1.0000
     1.0000   1.0000   1.0000   1.0000   1.0000   1.0000   1.0000   1.0000
     1.0000   1.0000   1.0000   1.0000   1.0000   1.0000   1.0000   1.0000
     1.0000   1.0000   1.0000   1.0000   1.0000   1.0000   1.0000   1.0000
     1.0000   1.0000   1.0000   1.0000   1.0000   1.0000   1.0000   1.0000
     1.0000   1.0000   1.0000   1.0000   1.0000   1.0000   1.0000   1.0000
     1.0000   1.0000   1.0000   1.0000   1.0000   1.0000   1.0000   1.0000
     1.0000   1.0000   1.0000   1.0000   1.0000   1.0000   1.0000   1.0000
     1.0000   1.0000   1.0000   1.0000   1.0497  -0.0743   0.0000   0.0000
     0.0000   0.0000   0.0000   0.0000   0.0000   0.0000   0.0000   0.0000
     0.0000   0.0000   0.0000   0.0000   0.0000   0.0000   0.0000   0.0000
     0.0000   0.0000   0.0000   0.0000   0.0000   0.0000   0.0000   0.0000
     0.0000   0.0000   0.0000   0.0000   0.0000   0.0000   0.0000   0.0000
     0.0000   0.0000   0.0000   0.0000   0.0000   0.0000   0.0000   0.0000
     0.0000   0.0000   0.0000   0.0000   0.0000   0.0000   0.0000   0.0000
     0.0000   0.0000   0.0000   0.0000   0.0000   0.0000   0.0000   0.0000
     0.0000   0.0000   0.0000   0.0000   0.0000   0.0000   0.0000   0.0000
     0.0000   0.0000   0.0000   0.0000   0.0000   0.0000   0.0000   0.0000

          k = 0.1250 0.3608 0.0000 ( 51320 PWs)   bands (ev):

    -6.3662  -6.1217  -6.1091  -6.0673  -5.9909  -5.8887  -5.8792  -5.8332
    -5.8287  -5.8137  -5.7607  -5.7491  -5.7435  -5.7153  -5.7112  -5.7041
    -5.6934  -5.6656  -5.6576  -5.6525  -5.6485  -5.6442  -5.6361  -5.6326
    -5.6280  -5.6256  -5.6226  -5.6196  -5.6169  -5.6044  -5.5928  -5.5841
    -5.5804  -5.5775  -5.5753  -5.5724  -5.5700  -5.5653  -5.5625  -5.5575
    -5.5539  -5.5516  -5.5472  -5.5458  -5.5446  -5.5426  -5.5386  -5.5358
    -5.5342  -5.5277  -5.5207  -5.4952  -5.4938  -4.2513  -4.1994  -4.1882
    -4.1858  -4.1835  -4.1822  -4.1781  -4.1721  -4.1704  -4.1660  -4.1640
    -4.1630  -4.1613  -4.1580  -4.1565  -4.1550  -4.1535  -4.1526  -4.1513
    -4.1500  -4.1490  -4.1478  -4.1461  -4.1454  -4.1441  -4.1432  -4.1405
    -4.1399  -4.1389  -4.1373  -4.1359  -4.1339  -4.1330  -4.1327  -4.1306
    -4.1295  -4.1285  -4.1274  -4.1257  -4.1248  -4.1227  -4.1214  -4.1210
    -4.1186  -4.1172  -4.1160  -4.1154  -4.1130  -4.1123  -4.1114  -4.1100
    -4.1090  -4.1078  -4.1064  -4.1039  -4.1019  -4.1008  -4.1004  -4.0983
    -4.0970  -4.0952  -4.0936  -4.0915  -4.0893  -4.0880  -4.0871  -4.0861
    -4.0845  -4.0837  -4.0817  -4.0807  -4.0792  -4.0756  -4.0739  -4.0714
    -4.0676  -4.0666  -4.0623  -4.0598  -4.0577  -4.0566  -4.0556  -4.0523
    -4.0507  -4.0477  -4.0457  -4.0436  -4.0402  -4.0372  -4.0326  -4.0320
    -4.0283  -4.0261  -4.0244  -4.0221  -4.0204  -4.0175  -4.0152  -4.0132
    -4.0124  -4.0111  -4.0105  -4.0090  -4.0078  -4.0070  -4.0058  -4.0047
    -4.0032  -4.0011  -3.9997  -3.9993  -3.9985  -3.9961  -3.9952  -3.9930
    -3.9925  -3.9912  -3.9894  -3.9880  -3.9859  -3.9850  -3.9840  -3.9833
    -3.9824  -3.9816  -3.9797  -3.9789  -3.9776  -3.9767  -3.9761  -3.9747
    -3.9729  -3.9724  -3.9717  -3.9705  -3.9692  -3.9681  -3.9668  -3.9650
    -3.9635  -3.9616  -3.9598  -3.9589  -3.9573  -3.9561  -3.9535  -3.9499
    -3.9490  -3.9484  -3.9464  -3.9447  -3.9417  -3.9407  -3.9400  -3.9385
    -3.9361  -3.9352  -3.9339  -3.9332  -3.9315  -3.9298  -3.9279  -3.9269
    -3.9251  -3.9242  -3.9236  -3.9224  -3.9210  -3.9190  -3.9182  -3.9165
    -3.9155  -3.9132  -3.9117  -3.9097  -3.9078  -3.9065  -3.9056  -3.9039
    -3.9036  -3.9027  -3.9012  -3.9002  -3.8992  -3.8987  -3.8978  -3.8967
    -3.8950  -3.8941  -3.8926  -3.8915  -3.8899  -3.8885  -3.8864  -3.8858
    -3.8844  -3.8817  -3.8788  -3.8767  -3.8752  -3.8741  -3.8719  -3.8705
    -3.8671  -3.8622  -3.8594  -3.8571  -3.8486  -3.8427  -3.8404  -3.8233
    -3.8095  -3.7931  -3.7827  -3.7705  -3.7605  -3.7473  -3.7409  -3.7333
    -3.7294  -3.6981  -3.6769  -3.6331  -3.6217  -3.5939  -3.5798  -3.4982
    -3.3037  -3.2978  -3.2937  -3.2862  -3.2526  -3.0888  -3.0688  -2.9920
    -2.9805  -2.9701  -2.9058  -2.8781  -2.8657  -2.8268  -2.8079  -2.7630
    -2.7244  -2.6707  -2.6094  -2.6005  -2.5443  -2.5401  -2.5247  -2.5060
    -2.4683  -2.4533  -2.4192  -2.4011  -2.3642  -2.3610  -2.3399  -2.3097
    -2.2717  -2.2285  -2.1927  -2.1906  -2.1821  -2.1205  -2.0873  -2.0818
    -2.0586  -2.0286  -1.9866  -0.1252   2.5574   2.8124   2.8280   2.9544
     2.9711   3.0395   3.0530   3.0679   3.0796   3.1907   3.2138   3.2329
     3.2542   3.3835   3.3972   3.4086   3.4292   3.4403   3.4536   3.4668
     3.5019   3.5241   3.5842   3.5989   3.6090   3.6308   3.6649   3.7049
     3.7408   4.0434   4.0505   4.0811   4.0838   4.1020   4.1231   4.1330
     4.1477   4.1876   4.2198   4.2739   4.3462   4.5460   4.5733   4.6244
     4.8064   4.9397   5.0465   5.0669   5.0949   5.1750   5.2424   5.2723
     5.3055   5.3227   5.3360   5.3612   5.4163   5.4466   5.6061   5.6341
     5.6568   5.7396   5.8444   6.1987   6.2261   6.2345   6.2602   6.2676
     6.2944   6.3055   6.3172   6.3303   6.3372   6.3729   6.3816   6.3958
     6.4102   6.4326   6.4425   6.4599   6.5160   6.5391   6.5939   6.6076
     6.6532   6.7287   6.7465   6.7587   6.8037   6.8438   6.8767   6.8898
     6.9068   6.9488   6.9838   7.0065   7.0198   7.0265   7.0609   7.1190
     7.1237   7.1568   7.1808   7.2369   7.3372   7.4157   7.4185   7.4258
     7.4366   7.4465   7.4612   7.4874   7.5183   7.5495   7.6099   7.6557
     7.6894   7.6937   7.7098   7.7604   7.7754   7.7801   7.7944   7.8366
     7.8499   7.8633   7.8681   7.9008   7.9059   7.9537   7.9656   7.9793
     8.0210   8.0563   8.0643   8.0783   8.0813   8.1093   8.1193   8.1232
     8.1384   8.1509   8.2198   8.2259   8.2561   8.2668   8.2949   8.3487
     8.4024   8.4259   8.4438   8.5398   8.5664   8.6186   8.6220   8.7864
     8.8397   8.8516   8.9439   9.0223   9.2374   9.3390  11.9169  13.1526
    13.1734  13.2511  13.4067  13.4311  13.5858  13.6481  13.6702  13.7391
    13.7727  13.8981  13.9319  14.0317  14.0638  14.0715  14.1095  14.1149
    14.1259  14.2228  14.3291  14.3345  14.3540  14.4512  14.5957  14.6104
    14.6255  14.6489  14.6542  14.7177  14.7375  14.7863  14.8192  15.0130
    15.0318  15.0381  15.0468  15.0676  15.1387  15.1578  15.2032  15.2408
    15.2749  15.2930  15.3261  15.3483  15.3559  15.3921  15.4141  15.5132
    15.5690  15.6404  15.6720  15.7140  15.8211  15.9374  15.9970  16.1101
    16.3428  16.3524  16.3761  16.3873  16.4116  16.4330  16.4434  16.4623
    16.4873  16.5176  16.5755  16.5840  16.6156  16.6290  16.6564  16.7090

     occupation numbers 
     1.0000   1.0000   1.0000   1.0000   1.0000   1.0000   1.0000   1.0000
     1.0000   1.0000   1.0000   1.0000   1.0000   1.0000   1.0000   1.0000
     1.0000   1.0000   1.0000   1.0000   1.0000   1.0000   1.0000   1.0000
     1.0000   1.0000   1.0000   1.0000   1.0000   1.0000   1.0000   1.0000
     1.0000   1.0000   1.0000   1.0000   1.0000   1.0000   1.0000   1.0000
     1.0000   1.0000   1.0000   1.0000   1.0000   1.0000   1.0000   1.0000
     1.0000   1.0000   1.0000   1.0000   1.0000   1.0000   1.0000   1.0000
     1.0000   1.0000   1.0000   1.0000   1.0000   1.0000   1.0000   1.0000
     1.0000   1.0000   1.0000   1.0000   1.0000   1.0000   1.0000   1.0000
     1.0000   1.0000   1.0000   1.0000   1.0000   1.0000   1.0000   1.0000
     1.0000   1.0000   1.0000   1.0000   1.0000   1.0000   1.0000   1.0000
     1.0000   1.0000   1.0000   1.0000   1.0000   1.0000   1.0000   1.0000
     1.0000   1.0000   1.0000   1.0000   1.0000   1.0000   1.0000   1.0000
     1.0000   1.0000   1.0000   1.0000   1.0000   1.0000   1.0000   1.0000
     1.0000   1.0000   1.0000   1.0000   1.0000   1.0000   1.0000   1.0000
     1.0000   1.0000   1.0000   1.0000   1.0000   1.0000   1.0000   1.0000
     1.0000   1.0000   1.0000   1.0000   1.0000   1.0000   1.0000   1.0000
     1.0000   1.0000   1.0000   1.0000   1.0000   1.0000   1.0000   1.0000
     1.0000   1.0000   1.0000   1.0000   1.0000   1.0000   1.0000   1.0000
     1.0000   1.0000   1.0000   1.0000   1.0000   1.0000   1.0000   1.0000
     1.0000   1.0000   1.0000   1.0000   1.0000   1.0000   1.0000   1.0000
     1.0000   1.0000   1.0000   1.0000   1.0000   1.0000   1.0000   1.0000
     1.0000   1.0000   1.0000   1.0000   1.0000   1.0000   1.0000   1.0000
     1.0000   1.0000   1.0000   1.0000   1.0000   1.0000   1.0000   1.0000
     1.0000   1.0000   1.0000   1.0000   1.0000   1.0000   1.0000   1.0000
     1.0000   1.0000   1.0000   1.0000   1.0000   1.0000   1.0000   1.0000
     1.0000   1.0000   1.0000   1.0000   1.0000   1.0000   1.0000   1.0000
     1.0000   1.0000   1.0000   1.0000   1.0000   1.0000   1.0000   1.0000
     1.0000   1.0000   1.0000   1.0000   1.0000   1.0000   1.0000   1.0000
     1.0000   1.0000   1.0000   1.0000   1.0000   1.0000   1.0000   1.0000
     1.0000   1.0000   1.0000   1.0000   1.0000   1.0000   1.0000   1.0000
     1.0000   1.0000   1.0000   1.0000   1.0000   1.0000   1.0000   1.0000
     1.0000   1.0000   1.0000   1.0000   1.0000   1.0000   1.0000   1.0000
     1.0000   1.0000   1.0000   1.0000   1.0000   1.0000   1.0000   1.0000
     1.0000   1.0000   1.0000   1.0000   1.0000   1.0000   1.0000   1.0000
     1.0000   1.0000   1.0000   1.0000   1.0000   1.0000   1.0000   1.0000
     1.0000   1.0000   1.0000   1.0000   1.0000   1.0000   1.0000   1.0000
     1.0000   1.0000   1.0000   1.0000   1.0000   1.0000   1.0000   1.0000
     1.0000   1.0000   1.0000   1.0000   1.0000   1.0000   1.0000   1.0000
     1.0000   1.0000   1.0000   1.0000   1.0000   1.0000   1.0000   1.0000
     1.0000   1.0000   1.0000   1.0000   1.0000   1.0000   1.0000   1.0000
     1.0000   1.0000   1.0000   1.0000   1.0000   1.0000   1.0000   1.0000
     1.0000   1.0000   1.0000   1.0000   1.0000   1.0000   1.0000   1.0000
     1.0000   1.0000   1.0000   1.0000   1.0000   1.0000   1.0000   1.0000
     1.0000   1.0000   1.0000   1.0000   1.0000   1.0000   1.0000   1.0000
     1.0000   1.0000   1.0000   1.0000   1.0000   1.0000   1.0000   1.0000
     1.0000   1.0000   1.0000   1.0000   1.0000   1.0000   1.0000   1.0000
     1.0000   1.0000   1.0000   1.0000   1.0000   1.0000   1.0000   1.0000
     1.0000   1.0000   1.0000   1.0000   1.0000   1.0000   1.0000   1.0000
     1.0000   1.0000   1.0000   1.0000   1.0000   1.0000   1.0000   1.0000
     1.0000   1.0000   1.0000   1.0000   1.0000   1.0000   1.0000   1.0000
     1.0000   1.0000   1.0000   1.0000   1.0000   1.0000   1.0000   1.0000
     1.0000   1.0000   1.0000   1.0000   1.0000   1.0000   1.0000   1.0000
     1.0000   1.0000   1.0000   1.0000   1.0000   1.0000   1.0000   1.0000
     1.0000   1.0000   1.0000   1.0000   1.0000   1.0000   1.0000   1.0000
     1.0000   1.0000   1.0000   1.0000   1.0000   1.0000   1.0000   1.0000
     1.0000   1.0000   1.0000   1.0000   1.0000   1.0000   1.0000   1.0000
     1.0000   1.0000   1.0000   1.0000   1.0000   1.0000   1.0000   1.0000
     1.0000   1.0000   1.0000   1.0000   1.0000   1.0000   1.0000   1.0000
     1.0000   1.0000   1.0000   1.0000   1.0000   1.0000   1.0000   1.0000
     1.0000   1.0000   1.0000   1.0000   1.0000   0.3859   0.0000   0.0000
     0.0000   0.0000   0.0000   0.0000   0.0000   0.0000   0.0000   0.0000
     0.0000   0.0000   0.0000   0.0000   0.0000   0.0000   0.0000   0.0000
     0.0000   0.0000   0.0000   0.0000   0.0000   0.0000   0.0000   0.0000
     0.0000   0.0000   0.0000   0.0000   0.0000   0.0000   0.0000   0.0000
     0.0000   0.0000   0.0000   0.0000   0.0000   0.0000   0.0000   0.0000
     0.0000   0.0000   0.0000   0.0000   0.0000   0.0000   0.0000   0.0000
     0.0000   0.0000   0.0000   0.0000   0.0000   0.0000   0.0000   0.0000
     0.0000   0.0000   0.0000   0.0000   0.0000   0.0000   0.0000   0.0000
     0.0000   0.0000   0.0000   0.0000   0.0000   0.0000   0.0000   0.0000

          k = 0.1250 0.3608 0.1533 ( 51279 PWs)   bands (ev):

    -6.3491  -6.2132  -6.0580  -6.0075  -5.9807  -5.9516  -5.8864  -5.8235
    -5.8144  -5.8047  -5.7626  -5.7568  -5.7461  -5.7052  -5.7019  -5.6991
    -5.6898  -5.6843  -5.6650  -5.6590  -5.6565  -5.6508  -5.6429  -5.6305
    -5.6278  -5.6219  -5.6174  -5.6040  -5.6004  -5.5992  -5.5943  -5.5929
    -5.5908  -5.5815  -5.5750  -5.5730  -5.5683  -5.5624  -5.5599  -5.5566
    -5.5539  -5.5512  -5.5478  -5.5464  -5.5431  -5.5419  -5.5393  -5.5363
    -5.5346  -5.5294  -5.5212  -5.4954  -5.4940  -4.2513  -4.1978  -4.1874
    -4.1863  -4.1827  -4.1810  -4.1739  -4.1727  -4.1703  -4.1644  -4.1631
    -4.1622  -4.1604  -4.1577  -4.1569  -4.1556  -4.1543  -4.1531  -4.1519
    -4.1510  -4.1501  -4.1486  -4.1474  -4.1459  -4.1450  -4.1434  -4.1424
    -4.1411  -4.1400  -4.1391  -4.1381  -4.1361  -4.1338  -4.1331  -4.1326
    -4.1299  -4.1293  -4.1284  -4.1271  -4.1252  -4.1233  -4.1223  -4.1218
    -4.1205  -4.1195  -4.1173  -4.1163  -4.1151  -4.1134  -4.1115  -4.1108
    -4.1095  -4.1083  -4.1072  -4.1048  -4.1035  -4.1019  -4.0989  -4.0976
    -4.0959  -4.0946  -4.0921  -4.0910  -4.0893  -4.0867  -4.0850  -4.0833
    -4.0821  -4.0799  -4.0777  -4.0767  -4.0746  -4.0729  -4.0718  -4.0696
    -4.0671  -4.0651  -4.0637  -4.0617  -4.0588  -4.0571  -4.0548  -4.0529
    -4.0502  -4.0467  -4.0440  -4.0431  -4.0404  -4.0378  -4.0360  -4.0305
    -4.0298  -4.0277  -4.0271  -4.0244  -4.0208  -4.0185  -4.0168  -4.0153
    -4.0131  -4.0110  -4.0100  -4.0089  -4.0076  -4.0067  -4.0056  -4.0044
    -4.0026  -4.0011  -4.0000  -3.9988  -3.9982  -3.9963  -3.9954  -3.9945
    -3.9928  -3.9914  -3.9906  -3.9886  -3.9866  -3.9852  -3.9833  -3.9826
    -3.9817  -3.9805  -3.9794  -3.9783  -3.9776  -3.9757  -3.9747  -3.9733
    -3.9718  -3.9704  -3.9696  -3.9687  -3.9680  -3.9659  -3.9654  -3.9636
    -3.9625  -3.9619  -3.9605  -3.9589  -3.9571  -3.9559  -3.9535  -3.9518
    -3.9496  -3.9489  -3.9473  -3.9452  -3.9433  -3.9425  -3.9409  -3.9399
    -3.9383  -3.9377  -3.9344  -3.9324  -3.9303  -3.9283  -3.9273  -3.9257
    -3.9246  -3.9232  -3.9227  -3.9218  -3.9202  -3.9180  -3.9168  -3.9147
    -3.9143  -3.9131  -3.9124  -3.9110  -3.9082  -3.9069  -3.9055  -3.9054
    -3.9042  -3.9028  -3.9005  -3.8999  -3.8990  -3.8980  -3.8964  -3.8955
    -3.8938  -3.8930  -3.8922  -3.8906  -3.8898  -3.8887  -3.8863  -3.8852
    -3.8834  -3.8803  -3.8783  -3.8767  -3.8759  -3.8723  -3.8704  -3.8683
    -3.8622  -3.8599  -3.8574  -3.8492  -3.8444  -3.8430  -3.8403  -3.8216
    -3.8060  -3.7994  -3.7807  -3.7718  -3.7659  -3.7553  -3.7459  -3.7387
    -3.7330  -3.7254  -3.6759  -3.6274  -3.6244  -3.5681  -3.5206  -3.4888
    -3.4639  -3.3794  -3.2741  -3.2083  -3.1739  -3.1533  -3.0956  -3.0331
    -2.9798  -2.9563  -2.9067  -2.8813  -2.8225  -2.7950  -2.7373  -2.7223
    -2.6762  -2.6640  -2.6464  -2.6305  -2.6067  -2.5726  -2.5080  -2.4878
    -2.4693  -2.4582  -2.4229  -2.3981  -2.3622  -2.3362  -2.2985  -2.2877
    -2.2632  -2.2547  -2.2437  -2.1743  -2.1350  -2.1179  -2.1098  -2.0936
    -2.0754  -2.0587  -2.0015  -0.1276   2.6752   2.8376   2.8764   2.9696
     3.0148   3.0333   3.0417   3.1187   3.1424   3.1574   3.2017   3.2351
     3.2483   3.2884   3.3153   3.3378   3.3666   3.3829   3.4265   3.4551
     3.4965   3.5126   3.5382   3.5775   3.6079   3.6797   3.7184   3.7266
     3.7837   3.7996   3.8550   3.9052   3.9204   4.0732   4.1161   4.1721
     4.2744   4.3358   4.3670   4.4142   4.5396   4.6103   4.7550   4.8168
     4.8784   4.9540   5.0246   5.0510   5.1148   5.1402   5.1746   5.1992
     5.2294   5.3173   5.4076   5.4462   5.4806   5.5489   5.5989   5.7195
     5.7424   5.7991   5.8195   5.8846   5.8921   5.9552   5.9741   6.0220
     6.0742   6.1096   6.1248   6.1954   6.3138   6.3486   6.4291   6.4677
     6.5206   6.5741   6.5886   6.6039   6.6214   6.6481   6.6647   6.6729
     6.6926   6.7091   6.7225   6.7536   6.8063   6.8373   6.8845   6.9164
     6.9784   6.9925   7.0384   7.0776   7.1345   7.1885   7.2253   7.2341
     7.2410   7.2600   7.3024   7.3270   7.3472   7.3971   7.4151   7.4379
     7.4532   7.4859   7.4939   7.5036   7.5336   7.5521   7.5778   7.6030
     7.6460   7.6779   7.6893   7.7080   7.7342   7.7418   7.7762   7.7941
     7.8249   7.8358   7.8506   7.8606   7.8737   7.8909   7.9069   7.9208
     7.9519   7.9666   7.9958   8.0130   8.0440   8.0493   8.0921   8.1158
     8.1717   8.1885   8.2086   8.2233   8.2523   8.3041   8.3145   8.3498
     8.4036   8.4580   8.4899   8.5325   8.5897   8.6231   8.6825   8.7271
     8.8032   8.8639   8.9972   9.0406   9.1995   9.3332  12.0335  12.7412
    13.2667  13.4703  13.5032  13.5450  13.5687  13.6082  13.7108  13.7381
    13.8009  14.0328  14.0444  14.0675  14.0767  14.0964  14.1125  14.1543
    14.1793  14.2163  14.2454  14.2917  14.3256  14.3739  14.4490  14.5068
    14.5670  14.6052  14.6498  14.6924  14.7424  14.7914  14.8212  14.8465
    14.8554  14.9212  14.9315  14.9843  15.0524  15.0759  15.1136  15.1806
    15.2247  15.3214  15.3859  15.4253  15.4787  15.5449  15.5733  15.6167
    15.6465  15.6937  15.7427  15.8228  15.9484  15.9670  16.0288  16.1112
    16.1988  16.2192  16.3500  16.3696  16.4237  16.4415  16.4838  16.5014
    16.5108  16.5549  16.5652  16.6422  16.6853  16.6999  16.7284  16.7537

     occupation numbers 
     1.0000   1.0000   1.0000   1.0000   1.0000   1.0000   1.0000   1.0000
     1.0000   1.0000   1.0000   1.0000   1.0000   1.0000   1.0000   1.0000
     1.0000   1.0000   1.0000   1.0000   1.0000   1.0000   1.0000   1.0000
     1.0000   1.0000   1.0000   1.0000   1.0000   1.0000   1.0000   1.0000
     1.0000   1.0000   1.0000   1.0000   1.0000   1.0000   1.0000   1.0000
     1.0000   1.0000   1.0000   1.0000   1.0000   1.0000   1.0000   1.0000
     1.0000   1.0000   1.0000   1.0000   1.0000   1.0000   1.0000   1.0000
     1.0000   1.0000   1.0000   1.0000   1.0000   1.0000   1.0000   1.0000
     1.0000   1.0000   1.0000   1.0000   1.0000   1.0000   1.0000   1.0000
     1.0000   1.0000   1.0000   1.0000   1.0000   1.0000   1.0000   1.0000
     1.0000   1.0000   1.0000   1.0000   1.0000   1.0000   1.0000   1.0000
     1.0000   1.0000   1.0000   1.0000   1.0000   1.0000   1.0000   1.0000
     1.0000   1.0000   1.0000   1.0000   1.0000   1.0000   1.0000   1.0000
     1.0000   1.0000   1.0000   1.0000   1.0000   1.0000   1.0000   1.0000
     1.0000   1.0000   1.0000   1.0000   1.0000   1.0000   1.0000   1.0000
     1.0000   1.0000   1.0000   1.0000   1.0000   1.0000   1.0000   1.0000
     1.0000   1.0000   1.0000   1.0000   1.0000   1.0000   1.0000   1.0000
     1.0000   1.0000   1.0000   1.0000   1.0000   1.0000   1.0000   1.0000
     1.0000   1.0000   1.0000   1.0000   1.0000   1.0000   1.0000   1.0000
     1.0000   1.0000   1.0000   1.0000   1.0000   1.0000   1.0000   1.0000
     1.0000   1.0000   1.0000   1.0000   1.0000   1.0000   1.0000   1.0000
     1.0000   1.0000   1.0000   1.0000   1.0000   1.0000   1.0000   1.0000
     1.0000   1.0000   1.0000   1.0000   1.0000   1.0000   1.0000   1.0000
     1.0000   1.0000   1.0000   1.0000   1.0000   1.0000   1.0000   1.0000
     1.0000   1.0000   1.0000   1.0000   1.0000   1.0000   1.0000   1.0000
     1.0000   1.0000   1.0000   1.0000   1.0000   1.0000   1.0000   1.0000
     1.0000   1.0000   1.0000   1.0000   1.0000   1.0000   1.0000   1.0000
     1.0000   1.0000   1.0000   1.0000   1.0000   1.0000   1.0000   1.0000
     1.0000   1.0000   1.0000   1.0000   1.0000   1.0000   1.0000   1.0000
     1.0000   1.0000   1.0000   1.0000   1.0000   1.0000   1.0000   1.0000
     1.0000   1.0000   1.0000   1.0000   1.0000   1.0000   1.0000   1.0000
     1.0000   1.0000   1.0000   1.0000   1.0000   1.0000   1.0000   1.0000
     1.0000   1.0000   1.0000   1.0000   1.0000   1.0000   1.0000   1.0000
     1.0000   1.0000   1.0000   1.0000   1.0000   1.0000   1.0000   1.0000
     1.0000   1.0000   1.0000   1.0000   1.0000   1.0000   1.0000   1.0000
     1.0000   1.0000   1.0000   1.0000   1.0000   1.0000   1.0000   1.0000
     1.0000   1.0000   1.0000   1.0000   1.0000   1.0000   1.0000   1.0000
     1.0000   1.0000   1.0000   1.0000   1.0000   1.0000   1.0000   1.0000
     1.0000   1.0000   1.0000   1.0000   1.0000   1.0000   1.0000   1.0000
     1.0000   1.0000   1.0000   1.0000   1.0000   1.0000   1.0000   1.0000
     1.0000   1.0000   1.0000   1.0000   1.0000   1.0000   1.0000   1.0000
     1.0000   1.0000   1.0000   1.0000   1.0000   1.0000   1.0000   1.0000
     1.0000   1.0000   1.0000   1.0000   1.0000   1.0000   1.0000   1.0000
     1.0000   1.0000   1.0000   1.0000   1.0000   1.0000   1.0000   1.0000
     1.0000   1.0000   1.0000   1.0000   1.0000   1.0000   1.0000   1.0000
     1.0000   1.0000   1.0000   1.0000   1.0000   1.0000   1.0000   1.0000
     1.0000   1.0000   1.0000   1.0000   1.0000   1.0000   1.0000   1.0000
     1.0000   1.0000   1.0000   1.0000   1.0000   1.0000   1.0000   1.0000
     1.0000   1.0000   1.0000   1.0000   1.0000   1.0000   1.0000   1.0000
     1.0000   1.0000   1.0000   1.0000   1.0000   1.0000   1.0000   1.0000
     1.0000   1.0000   1.0000   1.0000   1.0000   1.0000   1.0000   1.0000
     1.0000   1.0000   1.0000   1.0000   1.0000   1.0000   1.0000   1.0000
     1.0000   1.0000   1.0000   1.0000   1.0000   1.0000   1.0000   1.0000
     1.0000   1.0000   1.0000   1.0000   1.0000   1.0000   1.0000   1.0000
     1.0000   1.0000   1.0000   1.0000   1.0000   1.0000   1.0000   1.0000
     1.0000   1.0000   1.0000   1.0000   1.0000   1.0000   1.0000   1.0000
     1.0000   1.0000   1.0000   1.0000   1.0000   1.0000   1.0000   1.0000
     1.0000   1.0000   1.0000   1.0000   1.0000   1.0000   1.0000   1.0000
     1.0000   1.0000   1.0000   1.0000   1.0000   1.0000   1.0000   1.0000
     1.0000   1.0000   1.0000   1.0000   1.0000   1.0000   1.0000   1.0000
     1.0000   1.0000   1.0000   1.0000   1.0000   0.5072   0.0000   0.0000
     0.0000   0.0000   0.0000   0.0000   0.0000   0.0000   0.0000   0.0000
     0.0000   0.0000   0.0000   0.0000   0.0000   0.0000   0.0000   0.0000
     0.0000   0.0000   0.0000   0.0000   0.0000   0.0000   0.0000   0.0000
     0.0000   0.0000   0.0000   0.0000   0.0000   0.0000   0.0000   0.0000
     0.0000   0.0000   0.0000   0.0000   0.0000   0.0000   0.0000   0.0000
     0.0000   0.0000   0.0000   0.0000   0.0000   0.0000   0.0000   0.0000
     0.0000   0.0000   0.0000   0.0000   0.0000   0.0000   0.0000   0.0000
     0.0000   0.0000   0.0000   0.0000   0.0000   0.0000   0.0000   0.0000
     0.0000   0.0000   0.0000   0.0000   0.0000   0.0000   0.0000   0.0000

          k = 0.1250 0.3608-0.3067 ( 51274 PWs)   bands (ev):

    -6.3122  -6.2782  -6.0298  -6.0053  -5.9576  -5.9315  -5.9040  -5.8916
    -5.8050  -5.7832  -5.7426  -5.7413  -5.7383  -5.7216  -5.7022  -5.6990
    -5.6936  -5.6831  -5.6796  -5.6760  -5.6618  -5.6552  -5.6291  -5.6283
    -5.6234  -5.6162  -5.6113  -5.6060  -5.6016  -5.5982  -5.5967  -5.5924
    -5.5872  -5.5798  -5.5769  -5.5731  -5.5689  -5.5660  -5.5624  -5.5562
    -5.5527  -5.5506  -5.5466  -5.5451  -5.5412  -5.5403  -5.5393  -5.5366
    -5.5351  -5.5329  -5.5218  -5.4955  -5.4941  -4.2513  -4.1955  -4.1892
    -4.1869  -4.1776  -4.1762  -4.1729  -4.1712  -4.1674  -4.1664  -4.1649
    -4.1634  -4.1618  -4.1607  -4.1587  -4.1572  -4.1558  -4.1544  -4.1520
    -4.1500  -4.1488  -4.1473  -4.1466  -4.1456  -4.1444  -4.1432  -4.1427
    -4.1413  -4.1403  -4.1396  -4.1389  -4.1375  -4.1353  -4.1333  -4.1328
    -4.1318  -4.1308  -4.1295  -4.1287  -4.1275  -4.1261  -4.1254  -4.1237
    -4.1229  -4.1207  -4.1199  -4.1193  -4.1173  -4.1153  -4.1146  -4.1138
    -4.1103  -4.1099  -4.1059  -4.1037  -4.1025  -4.1010  -4.0992  -4.0965
    -4.0953  -4.0938  -4.0920  -4.0897  -4.0880  -4.0843  -4.0818  -4.0796
    -4.0771  -4.0760  -4.0730  -4.0715  -4.0693  -4.0685  -4.0672  -4.0660
    -4.0645  -4.0624  -4.0614  -4.0589  -4.0578  -4.0558  -4.0531  -4.0523
    -4.0515  -4.0496  -4.0483  -4.0460  -4.0453  -4.0417  -4.0384  -4.0373
    -4.0337  -4.0308  -4.0282  -4.0273  -4.0233  -4.0223  -4.0195  -4.0173
    -4.0146  -4.0131  -4.0123  -4.0092  -4.0079  -4.0060  -4.0054  -4.0036
    -4.0014  -4.0006  -3.9990  -3.9982  -3.9971  -3.9955  -3.9948  -3.9932
    -3.9922  -3.9899  -3.9884  -3.9877  -3.9852  -3.9847  -3.9831  -3.9815
    -3.9811  -3.9795  -3.9782  -3.9761  -3.9757  -3.9749  -3.9733  -3.9712
    -3.9707  -3.9701  -3.9694  -3.9678  -3.9673  -3.9657  -3.9650  -3.9638
    -3.9623  -3.9605  -3.9599  -3.9585  -3.9580  -3.9561  -3.9551  -3.9529
    -3.9508  -3.9479  -3.9470  -3.9458  -3.9451  -3.9438  -3.9417  -3.9398
    -3.9386  -3.9379  -3.9346  -3.9330  -3.9304  -3.9281  -3.9259  -3.9249
    -3.9233  -3.9225  -3.9215  -3.9204  -3.9195  -3.9173  -3.9165  -3.9155
    -3.9140  -3.9133  -3.9116  -3.9105  -3.9097  -3.9076  -3.9060  -3.9054
    -3.9033  -3.9026  -3.9007  -3.8996  -3.8994  -3.8977  -3.8965  -3.8957
    -3.8937  -3.8930  -3.8916  -3.8906  -3.8898  -3.8883  -3.8863  -3.8854
    -3.8836  -3.8807  -3.8781  -3.8770  -3.8759  -3.8716  -3.8702  -3.8659
    -3.8611  -3.8592  -3.8531  -3.8494  -3.8464  -3.8406  -3.8314  -3.8237
    -3.8000  -3.7843  -3.7757  -3.7693  -3.7623  -3.7509  -3.7438  -3.7380
    -3.7338  -3.7137  -3.7011  -3.6871  -3.6259  -3.6204  -3.4664  -3.4380
    -3.4142  -3.3962  -3.3097  -3.2956  -3.2508  -3.2087  -3.0035  -2.9950
    -2.9591  -2.9326  -2.8828  -2.8514  -2.8184  -2.8103  -2.7891  -2.7615
    -2.6546  -2.6326  -2.6148  -2.6056  -2.5731  -2.5519  -2.5181  -2.5097
    -2.4949  -2.4663  -2.4343  -2.4126  -2.3700  -2.3447  -2.3093  -2.2817
    -2.2341  -2.2171  -2.1789  -2.1656  -2.1545  -2.1438  -2.1332  -2.1163
    -2.0988  -2.0540  -2.0325  -0.1300   2.9044   2.9264   2.9951   2.9989
     3.0109   3.0156   3.0328   3.0591   3.0982   3.1129   3.1614   3.1795
     3.2263   3.2621   3.2887   3.3027   3.3777   3.3833   3.3907   3.4040
     3.4369   3.4542   3.4774   3.5059   3.5303   3.5763   3.6888   3.7177
     3.8984   3.9278   3.9451   3.9613   3.9758   4.0177   4.0669   4.0843
     4.1050   4.1807   4.5399   4.5876   4.7016   4.7434   4.9005   4.9143
     4.9221   4.9901   5.0013   5.0171   5.0433   5.0779   5.4036   5.4127
     5.4278   5.4397   5.4578   5.4688   5.4806   5.5002   5.5213   5.5425
     5.5827   5.6185   5.7226   5.7454   5.8003   5.8127   5.8236   5.8825
     6.0229   6.0619   6.0862   6.1041   6.2606   6.2975   6.3791   6.3916
     6.4185   6.4640   6.4970   6.5440   6.6094   6.6598   6.6744   6.7221
     6.8200   6.8468   6.8700   6.8798   6.8962   6.9254   6.9865   7.0069
     7.0522   7.0799   7.2198   7.2262   7.2337   7.2564   7.2656   7.2753
     7.2918   7.3009   7.3253   7.3543   7.4397   7.4512   7.4798   7.4946
     7.4978   7.5024   7.5133   7.5199   7.5383   7.5407   7.5520   7.5633
     7.5693   7.5874   7.6084   7.6402   7.6512   7.6747   7.7339   7.7456
     7.7623   7.7715   7.7949   7.8128   7.8170   7.8464   7.8726   7.9154
     7.9686   7.9821   7.9907   8.0207   8.0500   8.0630   8.0851   8.0904
     8.1199   8.1314   8.1426   8.1680   8.2203   8.2823   8.3198   8.3599
     8.4566   8.5113   8.5485   8.5556   8.5620   8.6202   8.6860   8.7363
     8.7833   8.8527   9.0573   9.0737   9.1314   9.3269  12.3092  12.3676
    13.3223  13.3651  13.5977  13.6376  13.7164  13.7364  13.8539  13.8613
    13.8765  13.9024  13.9761  13.9978  14.0566  14.0645  14.0748  14.1290
    14.1698  14.2228  14.3020  14.3593  14.4274  14.4453  14.4552  14.4806
    14.5087  14.5343  14.5461  14.5684  14.6039  14.7166  14.7279  14.7555
    14.8399  14.8693  14.8940  14.9664  14.9700  14.9839  15.0670  15.0980
    15.1302  15.2810  15.4089  15.4881  15.5427  15.5876  15.7053  15.7389
    15.7463  15.8485  15.9592  15.9838  16.0263  16.0329  16.0618  16.0939
    16.1034  16.1446  16.1533  16.2461  16.3576  16.4010  16.4437  16.4558
    16.6166  16.6330  16.6911  16.7057  16.7160  16.7644  16.8663  16.8759

     occupation numbers 
     1.0000   1.0000   1.0000   1.0000   1.0000   1.0000   1.0000   1.0000
     1.0000   1.0000   1.0000   1.0000   1.0000   1.0000   1.0000   1.0000
     1.0000   1.0000   1.0000   1.0000   1.0000   1.0000   1.0000   1.0000
     1.0000   1.0000   1.0000   1.0000   1.0000   1.0000   1.0000   1.0000
     1.0000   1.0000   1.0000   1.0000   1.0000   1.0000   1.0000   1.0000
     1.0000   1.0000   1.0000   1.0000   1.0000   1.0000   1.0000   1.0000
     1.0000   1.0000   1.0000   1.0000   1.0000   1.0000   1.0000   1.0000
     1.0000   1.0000   1.0000   1.0000   1.0000   1.0000   1.0000   1.0000
     1.0000   1.0000   1.0000   1.0000   1.0000   1.0000   1.0000   1.0000
     1.0000   1.0000   1.0000   1.0000   1.0000   1.0000   1.0000   1.0000
     1.0000   1.0000   1.0000   1.0000   1.0000   1.0000   1.0000   1.0000
     1.0000   1.0000   1.0000   1.0000   1.0000   1.0000   1.0000   1.0000
     1.0000   1.0000   1.0000   1.0000   1.0000   1.0000   1.0000   1.0000
     1.0000   1.0000   1.0000   1.0000   1.0000   1.0000   1.0000   1.0000
     1.0000   1.0000   1.0000   1.0000   1.0000   1.0000   1.0000   1.0000
     1.0000   1.0000   1.0000   1.0000   1.0000   1.0000   1.0000   1.0000
     1.0000   1.0000   1.0000   1.0000   1.0000   1.0000   1.0000   1.0000
     1.0000   1.0000   1.0000   1.0000   1.0000   1.0000   1.0000   1.0000
     1.0000   1.0000   1.0000   1.0000   1.0000   1.0000   1.0000   1.0000
     1.0000   1.0000   1.0000   1.0000   1.0000   1.0000   1.0000   1.0000
     1.0000   1.0000   1.0000   1.0000   1.0000   1.0000   1.0000   1.0000
     1.0000   1.0000   1.0000   1.0000   1.0000   1.0000   1.0000   1.0000
     1.0000   1.0000   1.0000   1.0000   1.0000   1.0000   1.0000   1.0000
     1.0000   1.0000   1.0000   1.0000   1.0000   1.0000   1.0000   1.0000
     1.0000   1.0000   1.0000   1.0000   1.0000   1.0000   1.0000   1.0000
     1.0000   1.0000   1.0000   1.0000   1.0000   1.0000   1.0000   1.0000
     1.0000   1.0000   1.0000   1.0000   1.0000   1.0000   1.0000   1.0000
     1.0000   1.0000   1.0000   1.0000   1.0000   1.0000   1.0000   1.0000
     1.0000   1.0000   1.0000   1.0000   1.0000   1.0000   1.0000   1.0000
     1.0000   1.0000   1.0000   1.0000   1.0000   1.0000   1.0000   1.0000
     1.0000   1.0000   1.0000   1.0000   1.0000   1.0000   1.0000   1.0000
     1.0000   1.0000   1.0000   1.0000   1.0000   1.0000   1.0000   1.0000
     1.0000   1.0000   1.0000   1.0000   1.0000   1.0000   1.0000   1.0000
     1.0000   1.0000   1.0000   1.0000   1.0000   1.0000   1.0000   1.0000
     1.0000   1.0000   1.0000   1.0000   1.0000   1.0000   1.0000   1.0000
     1.0000   1.0000   1.0000   1.0000   1.0000   1.0000   1.0000   1.0000
     1.0000   1.0000   1.0000   1.0000   1.0000   1.0000   1.0000   1.0000
     1.0000   1.0000   1.0000   1.0000   1.0000   1.0000   1.0000   1.0000
     1.0000   1.0000   1.0000   1.0000   1.0000   1.0000   1.0000   1.0000
     1.0000   1.0000   1.0000   1.0000   1.0000   1.0000   1.0000   1.0000
     1.0000   1.0000   1.0000   1.0000   1.0000   1.0000   1.0000   1.0000
     1.0000   1.0000   1.0000   1.0000   1.0000   1.0000   1.0000   1.0000
     1.0000   1.0000   1.0000   1.0000   1.0000   1.0000   1.0000   1.0000
     1.0000   1.0000   1.0000   1.0000   1.0000   1.0000   1.0000   1.0000
     1.0000   1.0000   1.0000   1.0000   1.0000   1.0000   1.0000   1.0000
     1.0000   1.0000   1.0000   1.0000   1.0000   1.0000   1.0000   1.0000
     1.0000   1.0000   1.0000   1.0000   1.0000   1.0000   1.0000   1.0000
     1.0000   1.0000   1.0000   1.0000   1.0000   1.0000   1.0000   1.0000
     1.0000   1.0000   1.0000   1.0000   1.0000   1.0000   1.0000   1.0000
     1.0000   1.0000   1.0000   1.0000   1.0000   1.0000   1.0000   1.0000
     1.0000   1.0000   1.0000   1.0000   1.0000   1.0000   1.0000   1.0000
     1.0000   1.0000   1.0000   1.0000   1.0000   1.0000   1.0000   1.0000
     1.0000   1.0000   1.0000   1.0000   1.0000   1.0000   1.0000   1.0000
     1.0000   1.0000   1.0000   1.0000   1.0000   1.0000   1.0000   1.0000
     1.0000   1.0000   1.0000   1.0000   1.0000   1.0000   1.0000   1.0000
     1.0000   1.0000   1.0000   1.0000   1.0000   1.0000   1.0000   1.0000
     1.0000   1.0000   1.0000   1.0000   1.0000   1.0000   1.0000   1.0000
     1.0000   1.0000   1.0000   1.0000   1.0000   1.0000   1.0000   1.0000
     1.0000   1.0000   1.0000   1.0000   1.0000   1.0000   1.0000   1.0000
     1.0000   1.0000   1.0000   1.0000   1.0000   1.0000   1.0000   1.0000
     1.0000   1.0000   1.0000   1.0000   1.0000   0.6456   0.0000   0.0000
     0.0000   0.0000   0.0000   0.0000   0.0000   0.0000   0.0000   0.0000
     0.0000   0.0000   0.0000   0.0000   0.0000   0.0000   0.0000   0.0000
     0.0000   0.0000   0.0000   0.0000   0.0000   0.0000   0.0000   0.0000
     0.0000   0.0000   0.0000   0.0000   0.0000   0.0000   0.0000   0.0000
     0.0000   0.0000   0.0000   0.0000   0.0000   0.0000   0.0000   0.0000
     0.0000   0.0000   0.0000   0.0000   0.0000   0.0000   0.0000   0.0000
     0.0000   0.0000   0.0000   0.0000   0.0000   0.0000   0.0000   0.0000
     0.0000   0.0000   0.0000   0.0000   0.0000   0.0000   0.0000   0.0000
     0.0000   0.0000   0.0000   0.0000   0.0000   0.0000   0.0000   0.0000

          k = 0.1250 0.5052 0.0000 ( 51251 PWs)   bands (ev):

    -6.2830  -6.1786  -6.0534  -6.0433  -6.0095  -5.9710  -5.9511  -5.8444
    -5.8390  -5.8241  -5.7217  -5.7209  -5.7162  -5.7139  -5.7059  -5.6882
    -5.6807  -5.6782  -5.6754  -5.6625  -5.6482  -5.6355  -5.6342  -5.6306
    -5.6265  -5.6218  -5.6170  -5.6125  -5.6092  -5.6065  -5.6030  -5.5987
    -5.5918  -5.5877  -5.5806  -5.5794  -5.5747  -5.5681  -5.5581  -5.5558
    -5.5520  -5.5477  -5.5439  -5.5425  -5.5416  -5.5411  -5.5373  -5.5345
    -5.5336  -5.5301  -5.5198  -5.4951  -5.4932  -4.2501  -4.1904  -4.1819
    -4.1788  -4.1778  -4.1750  -4.1726  -4.1722  -4.1679  -4.1669  -4.1648
    -4.1632  -4.1615  -4.1577  -4.1568  -4.1559  -4.1544  -4.1512  -4.1496
    -4.1486  -4.1472  -4.1449  -4.1441  -4.1429  -4.1415  -4.1401  -4.1386
    -4.1370  -4.1364  -4.1346  -4.1335  -4.1320  -4.1313  -4.1299  -4.1289
    -4.1275  -4.1262  -4.1252  -4.1247  -4.1238  -4.1227  -4.1216  -4.1190
    -4.1176  -4.1165  -4.1157  -4.1148  -4.1131  -4.1124  -4.1102  -4.1094
    -4.1087  -4.1073  -4.1067  -4.1059  -4.1043  -4.1036  -4.1015  -4.0992
    -4.0976  -4.0963  -4.0961  -4.0944  -4.0935  -4.0923  -4.0904  -4.0897
    -4.0888  -4.0866  -4.0851  -4.0839  -4.0834  -4.0810  -4.0792  -4.0769
    -4.0750  -4.0739  -4.0721  -4.0668  -4.0657  -4.0622  -4.0595  -4.0561
    -4.0540  -4.0501  -4.0485  -4.0391  -4.0374  -4.0350  -4.0333  -4.0322
    -4.0304  -4.0291  -4.0254  -4.0240  -4.0224  -4.0216  -4.0201  -4.0170
    -4.0144  -4.0135  -4.0122  -4.0111  -4.0102  -4.0090  -4.0077  -4.0064
    -4.0056  -4.0037  -4.0018  -4.0000  -3.9990  -3.9975  -3.9960  -3.9957
    -3.9939  -3.9930  -3.9907  -3.9884  -3.9880  -3.9867  -3.9853  -3.9832
    -3.9825  -3.9814  -3.9805  -3.9794  -3.9783  -3.9773  -3.9752  -3.9745
    -3.9731  -3.9721  -3.9706  -3.9701  -3.9695  -3.9671  -3.9656  -3.9643
    -3.9634  -3.9611  -3.9599  -3.9589  -3.9575  -3.9564  -3.9526  -3.9507
    -3.9487  -3.9483  -3.9476  -3.9455  -3.9433  -3.9420  -3.9410  -3.9385
    -3.9376  -3.9362  -3.9339  -3.9328  -3.9305  -3.9286  -3.9275  -3.9266
    -3.9241  -3.9228  -3.9211  -3.9193  -3.9175  -3.9167  -3.9151  -3.9147
    -3.9137  -3.9114  -3.9097  -3.9086  -3.9084  -3.9072  -3.9057  -3.9046
    -3.9041  -3.9033  -3.9013  -3.9002  -3.8991  -3.8981  -3.8966  -3.8958
    -3.8951  -3.8940  -3.8934  -3.8902  -3.8885  -3.8871  -3.8862  -3.8853
    -3.8836  -3.8821  -3.8797  -3.8763  -3.8755  -3.8729  -3.8688  -3.8675
    -3.8649  -3.8635  -3.8563  -3.8527  -3.8477  -3.8417  -3.8385  -3.8259
    -3.8201  -3.8162  -3.7940  -3.7821  -3.7754  -3.7634  -3.7485  -3.7418
    -3.7391  -3.7327  -3.7189  -3.6401  -3.6285  -3.6066  -3.5990  -3.5197
    -3.3177  -3.2993  -3.2141  -3.2022  -3.1075  -3.1028  -3.0810  -2.9142
    -2.9100  -2.8981  -2.8943  -2.8654  -2.8200  -2.7383  -2.7223  -2.7081
    -2.6835  -2.6721  -2.6600  -2.6307  -2.6270  -2.6222  -2.5763  -2.5413
    -2.4980  -2.4670  -2.3923  -2.3595  -2.3572  -2.3346  -2.3214  -2.2901
    -2.2832  -2.2561  -2.2519  -2.2429  -2.2312  -2.1748  -2.1015  -2.0809
    -2.0557  -2.0005  -1.9716  -0.1232   2.6855   2.6968   2.7084   2.8709
     2.9212   2.9330   2.9567   2.9697   2.9896   3.1843   3.1973   3.2382
     3.2483   3.2605   3.2704   3.2911   3.3089   3.3405   3.4391   3.4571
     3.4911   3.5000   3.5217   3.5341   3.5697   3.7343   3.7578   3.7882
     3.8188   3.9189   3.9473   4.0841   4.0948   4.0999   4.1255   4.1291
     4.1794   4.2071   4.2262   4.2695   4.3343   4.4891   4.6549   4.7197
     5.0430   5.1461   5.1674   5.1800   5.2126   5.2769   5.3138   5.4431
     5.4871   5.5356   5.6219   5.6312   5.6688   5.7068   5.7319   5.8149
     5.9153   6.0101   6.0416   6.0527   6.0796   6.0963   6.1046   6.1333
     6.1877   6.3046   6.3491   6.3633   6.4641   6.4730   6.4811   6.4889
     6.5152   6.5348   6.5551   6.5715   6.5919   6.6111   6.6495   6.6621
     6.6767   6.7033   6.7517   6.7771   6.8534   6.8593   6.8753   6.8824
     6.8976   6.9156   6.9453   6.9671   6.9879   7.0002   7.0230   7.0535
     7.0942   7.1189   7.1533   7.1604   7.1854   7.1919   7.2619   7.2868
     7.3200   7.3418   7.3455   7.3519   7.4176   7.4353   7.4750   7.5080
     7.5759   7.6116   7.6378   7.6598   7.6719   7.6877   7.7311   7.8170
     7.8348   7.8363   7.8561   7.8624   7.8987   7.9084   7.9136   7.9385
     7.9542   7.9681   7.9985   8.0218   8.0471   8.0525   8.0718   8.0931
     8.1241   8.1367   8.1556   8.1829   8.1956   8.2200   8.2277   8.3209
     8.3311   8.3558   8.4713   8.4990   8.5694   8.6165   8.6830   8.7186
     8.7754   8.8460   8.9127   8.9870   9.1871   9.2815  12.3747  12.8278
    13.3679  13.3754  13.4088  13.4497  13.5804  13.6241  13.6731  13.9157
    13.9325  14.0079  14.0485  14.2396  14.2515  14.2610  14.2821  14.3283
    14.3335  14.3604  14.3724  14.3875  14.4375  14.4726  14.5119  14.6095
    14.6892  14.7067  14.7595  14.8351  14.8600  14.9184  14.9436  14.9590
    14.9986  15.0375  15.0571  15.1617  15.1999  15.2429  15.2991  15.3115
    15.3169  15.3269  15.3399  15.3698  15.3801  15.3919  15.4045  15.4328
    15.4983  15.5325  15.5761  15.6111  15.7886  15.9356  15.9811  16.0528
    16.2431  16.3746  16.4028  16.4703  16.5530  16.5652  16.5781  16.5999
    16.6249  16.6446  16.6532  16.6603  16.6859  16.6986  16.7081  16.7323

     occupation numbers 
     1.0000   1.0000   1.0000   1.0000   1.0000   1.0000   1.0000   1.0000
     1.0000   1.0000   1.0000   1.0000   1.0000   1.0000   1.0000   1.0000
     1.0000   1.0000   1.0000   1.0000   1.0000   1.0000   1.0000   1.0000
     1.0000   1.0000   1.0000   1.0000   1.0000   1.0000   1.0000   1.0000
     1.0000   1.0000   1.0000   1.0000   1.0000   1.0000   1.0000   1.0000
     1.0000   1.0000   1.0000   1.0000   1.0000   1.0000   1.0000   1.0000
     1.0000   1.0000   1.0000   1.0000   1.0000   1.0000   1.0000   1.0000
     1.0000   1.0000   1.0000   1.0000   1.0000   1.0000   1.0000   1.0000
     1.0000   1.0000   1.0000   1.0000   1.0000   1.0000   1.0000   1.0000
     1.0000   1.0000   1.0000   1.0000   1.0000   1.0000   1.0000   1.0000
     1.0000   1.0000   1.0000   1.0000   1.0000   1.0000   1.0000   1.0000
     1.0000   1.0000   1.0000   1.0000   1.0000   1.0000   1.0000   1.0000
     1.0000   1.0000   1.0000   1.0000   1.0000   1.0000   1.0000   1.0000
     1.0000   1.0000   1.0000   1.0000   1.0000   1.0000   1.0000   1.0000
     1.0000   1.0000   1.0000   1.0000   1.0000   1.0000   1.0000   1.0000
     1.0000   1.0000   1.0000   1.0000   1.0000   1.0000   1.0000   1.0000
     1.0000   1.0000   1.0000   1.0000   1.0000   1.0000   1.0000   1.0000
     1.0000   1.0000   1.0000   1.0000   1.0000   1.0000   1.0000   1.0000
     1.0000   1.0000   1.0000   1.0000   1.0000   1.0000   1.0000   1.0000
     1.0000   1.0000   1.0000   1.0000   1.0000   1.0000   1.0000   1.0000
     1.0000   1.0000   1.0000   1.0000   1.0000   1.0000   1.0000   1.0000
     1.0000   1.0000   1.0000   1.0000   1.0000   1.0000   1.0000   1.0000
     1.0000   1.0000   1.0000   1.0000   1.0000   1.0000   1.0000   1.0000
     1.0000   1.0000   1.0000   1.0000   1.0000   1.0000   1.0000   1.0000
     1.0000   1.0000   1.0000   1.0000   1.0000   1.0000   1.0000   1.0000
     1.0000   1.0000   1.0000   1.0000   1.0000   1.0000   1.0000   1.0000
     1.0000   1.0000   1.0000   1.0000   1.0000   1.0000   1.0000   1.0000
     1.0000   1.0000   1.0000   1.0000   1.0000   1.0000   1.0000   1.0000
     1.0000   1.0000   1.0000   1.0000   1.0000   1.0000   1.0000   1.0000
     1.0000   1.0000   1.0000   1.0000   1.0000   1.0000   1.0000   1.0000
     1.0000   1.0000   1.0000   1.0000   1.0000   1.0000   1.0000   1.0000
     1.0000   1.0000   1.0000   1.0000   1.0000   1.0000   1.0000   1.0000
     1.0000   1.0000   1.0000   1.0000   1.0000   1.0000   1.0000   1.0000
     1.0000   1.0000   1.0000   1.0000   1.0000   1.0000   1.0000   1.0000
     1.0000   1.0000   1.0000   1.0000   1.0000   1.0000   1.0000   1.0000
     1.0000   1.0000   1.0000   1.0000   1.0000   1.0000   1.0000   1.0000
     1.0000   1.0000   1.0000   1.0000   1.0000   1.0000   1.0000   1.0000
     1.0000   1.0000   1.0000   1.0000   1.0000   1.0000   1.0000   1.0000
     1.0000   1.0000   1.0000   1.0000   1.0000   1.0000   1.0000   1.0000
     1.0000   1.0000   1.0000   1.0000   1.0000   1.0000   1.0000   1.0000
     1.0000   1.0000   1.0000   1.0000   1.0000   1.0000   1.0000   1.0000
     1.0000   1.0000   1.0000   1.0000   1.0000   1.0000   1.0000   1.0000
     1.0000   1.0000   1.0000   1.0000   1.0000   1.0000   1.0000   1.0000
     1.0000   1.0000   1.0000   1.0000   1.0000   1.0000   1.0000   1.0000
     1.0000   1.0000   1.0000   1.0000   1.0000   1.0000   1.0000   1.0000
     1.0000   1.0000   1.0000   1.0000   1.0000   1.0000   1.0000   1.0000
     1.0000   1.0000   1.0000   1.0000   1.0000   1.0000   1.0000   1.0000
     1.0000   1.0000   1.0000   1.0000   1.0000   1.0000   1.0000   1.0000
     1.0000   1.0000   1.0000   1.0000   1.0000   1.0000   1.0000   1.0000
     1.0000   1.0000   1.0000   1.0000   1.0000   1.0000   1.0000   1.0000
     1.0000   1.0000   1.0000   1.0000   1.0000   1.0000   1.0000   1.0000
     1.0000   1.0000   1.0000   1.0000   1.0000   1.0000   1.0000   1.0000
     1.0000   1.0000   1.0000   1.0000   1.0000   1.0000   1.0000   1.0000
     1.0000   1.0000   1.0000   1.0000   1.0000   1.0000   1.0000   1.0000
     1.0000   1.0000   1.0000   1.0000   1.0000   1.0000   1.0000   1.0000
     1.0000   1.0000   1.0000   1.0000   1.0000   1.0000   1.0000   1.0000
     1.0000   1.0000   1.0000   1.0000   1.0000   1.0000   1.0000   1.0000
     1.0000   1.0000   1.0000   1.0000   1.0000   1.0000   1.0000   1.0000
     1.0000   1.0000   1.0000   1.0000   1.0000   1.0000   1.0000   1.0000
     1.0000   1.0000   1.0000   1.0000   1.0000   1.0000   1.0000   1.0000
     1.0000   1.0000   1.0000   1.0000   1.0000   1.0841   0.0000   0.0000
     0.0000   0.0000   0.0000   0.0000   0.0000   0.0000   0.0000   0.0000
     0.0000   0.0000   0.0000   0.0000   0.0000   0.0000   0.0000   0.0000
     0.0000   0.0000   0.0000   0.0000   0.0000   0.0000   0.0000   0.0000
     0.0000   0.0000   0.0000   0.0000   0.0000   0.0000   0.0000   0.0000
     0.0000   0.0000   0.0000   0.0000   0.0000   0.0000   0.0000   0.0000
     0.0000   0.0000   0.0000   0.0000   0.0000   0.0000   0.0000   0.0000
     0.0000   0.0000   0.0000   0.0000   0.0000   0.0000   0.0000   0.0000
     0.0000   0.0000   0.0000   0.0000   0.0000   0.0000   0.0000   0.0000
     0.0000   0.0000   0.0000   0.0000   0.0000   0.0000   0.0000   0.0000

          k = 0.1250 0.5052 0.1533 ( 51231 PWs)   bands (ev):

    -6.2668  -6.1668  -6.1359  -6.0479  -5.9964  -5.9467  -5.9018  -5.8742
    -5.8272  -5.7765  -5.7698  -5.7589  -5.7265  -5.7071  -5.6839  -5.6785
    -5.6736  -5.6693  -5.6638  -5.6610  -5.6559  -5.6485  -5.6430  -5.6395
    -5.6350  -5.6295  -5.6162  -5.6132  -5.6078  -5.6037  -5.6022  -5.5928
    -5.5885  -5.5820  -5.5773  -5.5721  -5.5697  -5.5620  -5.5603  -5.5576
    -5.5517  -5.5495  -5.5457  -5.5437  -5.5426  -5.5417  -5.5373  -5.5357
    -5.5338  -5.5322  -5.5204  -5.4953  -5.4934  -4.2501  -4.1895  -4.1806
    -4.1798  -4.1766  -4.1749  -4.1732  -4.1694  -4.1673  -4.1659  -4.1629
    -4.1617  -4.1607  -4.1576  -4.1567  -4.1542  -4.1520  -4.1511  -4.1502
    -4.1487  -4.1479  -4.1468  -4.1453  -4.1451  -4.1435  -4.1420  -4.1415
    -4.1391  -4.1384  -4.1378  -4.1373  -4.1351  -4.1335  -4.1312  -4.1303
    -4.1291  -4.1273  -4.1255  -4.1248  -4.1229  -4.1216  -4.1202  -4.1193
    -4.1184  -4.1172  -4.1164  -4.1154  -4.1143  -4.1128  -4.1119  -4.1095
    -4.1082  -4.1071  -4.1064  -4.1054  -4.1049  -4.1039  -4.1020  -4.1016
    -4.0998  -4.0980  -4.0977  -4.0945  -4.0932  -4.0900  -4.0879  -4.0863
    -4.0847  -4.0841  -4.0814  -4.0800  -4.0783  -4.0764  -4.0750  -4.0732
    -4.0713  -4.0696  -4.0673  -4.0654  -4.0643  -4.0611  -4.0596  -4.0550
    -4.0526  -4.0499  -4.0479  -4.0452  -4.0413  -4.0399  -4.0379  -4.0359
    -4.0326  -4.0301  -4.0287  -4.0261  -4.0224  -4.0216  -4.0204  -4.0180
    -4.0173  -4.0150  -4.0125  -4.0115  -4.0097  -4.0083  -4.0071  -4.0065
    -4.0050  -4.0034  -4.0012  -3.9998  -3.9985  -3.9965  -3.9954  -3.9946
    -3.9939  -3.9927  -3.9915  -3.9903  -3.9887  -3.9864  -3.9848  -3.9841
    -3.9827  -3.9808  -3.9805  -3.9793  -3.9777  -3.9766  -3.9752  -3.9743
    -3.9722  -3.9713  -3.9709  -3.9685  -3.9673  -3.9666  -3.9658  -3.9635
    -3.9627  -3.9610  -3.9600  -3.9593  -3.9573  -3.9562  -3.9539  -3.9522
    -3.9498  -3.9486  -3.9474  -3.9465  -3.9426  -3.9421  -3.9411  -3.9394
    -3.9383  -3.9368  -3.9340  -3.9318  -3.9302  -3.9289  -3.9280  -3.9250
    -3.9248  -3.9232  -3.9213  -3.9196  -3.9176  -3.9169  -3.9157  -3.9151
    -3.9139  -3.9127  -3.9108  -3.9103  -3.9089  -3.9074  -3.9068  -3.9053
    -3.9042  -3.9027  -3.9016  -3.9001  -3.8986  -3.8973  -3.8961  -3.8956
    -3.8947  -3.8944  -3.8929  -3.8907  -3.8895  -3.8877  -3.8870  -3.8864
    -3.8840  -3.8822  -3.8809  -3.8790  -3.8758  -3.8733  -3.8715  -3.8682
    -3.8664  -3.8631  -3.8617  -3.8564  -3.8479  -3.8404  -3.8391  -3.8224
    -3.8133  -3.8003  -3.7837  -3.7749  -3.7649  -3.7617  -3.7476  -3.7412
    -3.7333  -3.7232  -3.6939  -3.6740  -3.6266  -3.6213  -3.5112  -3.4870
    -3.4436  -3.4003  -3.3297  -3.1787  -3.1248  -3.0819  -2.9839  -2.9551
    -2.8801  -2.8523  -2.8310  -2.8169  -2.7950  -2.7795  -2.7437  -2.7186
    -2.6712  -2.6653  -2.6462  -2.6164  -2.5977  -2.5814  -2.5491  -2.5361
    -2.4992  -2.4667  -2.4537  -2.4198  -2.4100  -2.3870  -2.3424  -2.3107
    -2.2824  -2.2491  -2.2064  -2.1890  -2.1676  -2.1490  -2.1287  -2.0968
    -2.0699  -2.0246  -1.9935  -0.1257   2.7271   2.7424   2.8049   2.9319
     2.9525   2.9665   2.9744   2.9841   3.0189   3.0437   3.1536   3.2145
     3.2370   3.2560   3.2698   3.2760   3.3080   3.3152   3.3853   3.4626
     3.4992   3.5238   3.5500   3.5660   3.5800   3.6455   3.6800   3.7032
     3.7222   3.7640   3.8034   3.9481   3.9870   4.0338   4.1267   4.1646
     4.1921   4.2688   4.4271   4.4413   4.4901   4.6820   4.7736   4.9147
     5.0985   5.1530   5.2298   5.2503   5.2695   5.3028   5.3168   5.3542
     5.4865   5.5195   5.6005   5.6788   5.6888   5.7468   5.7949   5.8124
     5.8425   5.8866   5.9039   5.9259   5.9572   5.9766   6.0499   6.0973
     6.1196   6.1626   6.2410   6.2576   6.3136   6.3267   6.3515   6.3730
     6.4296   6.4941   6.5076   6.5372   6.5551   6.5825   6.5986   6.7346
     6.7551   6.7827   6.8031   6.8802   6.8863   6.9023   6.9060   6.9197
     6.9509   6.9755   7.0314   7.0970   7.1636   7.1829   7.1937   7.2167
     7.2311   7.2339   7.2423   7.2613   7.2730   7.2855   7.2959   7.3246
     7.3483   7.3633   7.3876   7.4174   7.4474   7.4589   7.4943   7.5179
     7.5710   7.5863   7.6155   7.6419   7.6799   7.7016   7.7169   7.7399
     7.7613   7.7840   7.8011   7.8139   7.8364   7.8441   7.8454   7.8595
     7.8694   7.8878   7.9111   7.9383   7.9535   7.9625   7.9747   8.0183
     8.0474   8.1056   8.1386   8.1701   8.2197   8.2386   8.3133   8.3361
     8.3567   8.4464   8.4816   8.5320   8.5924   8.6212   8.7041   8.7515
     8.7757   8.8780   8.9260   8.9713   9.1602   9.2761  12.4583  12.8799
    13.0321  13.3012  13.4285  13.5507  13.6052  13.7927  13.8211  13.9749
    13.9952  14.0162  14.0718  14.2748  14.2894  14.3179  14.3411  14.3689
    14.3824  14.3955  14.4087  14.4350  14.4427  14.4589  14.4885  14.5169
    14.5754  14.6369  14.6830  14.7114  14.7648  14.8024  14.8128  14.8641
    14.8967  14.9367  14.9681  15.0132  15.0437  15.0854  15.1195  15.1965
    15.2498  15.3593  15.4895  15.5529  15.5593  15.5740  15.5892  15.6174
    15.6261  15.6378  15.6758  15.7126  15.8362  15.9203  15.9846  16.0820
    16.2729  16.3231  16.4153  16.4278  16.4537  16.4825  16.5002  16.5128
    16.6202  16.6394  16.6609  16.6873  16.7141  16.7429  16.8112  16.8253

     occupation numbers 
     1.0000   1.0000   1.0000   1.0000   1.0000   1.0000   1.0000   1.0000
     1.0000   1.0000   1.0000   1.0000   1.0000   1.0000   1.0000   1.0000
     1.0000   1.0000   1.0000   1.0000   1.0000   1.0000   1.0000   1.0000
     1.0000   1.0000   1.0000   1.0000   1.0000   1.0000   1.0000   1.0000
     1.0000   1.0000   1.0000   1.0000   1.0000   1.0000   1.0000   1.0000
     1.0000   1.0000   1.0000   1.0000   1.0000   1.0000   1.0000   1.0000
     1.0000   1.0000   1.0000   1.0000   1.0000   1.0000   1.0000   1.0000
     1.0000   1.0000   1.0000   1.0000   1.0000   1.0000   1.0000   1.0000
     1.0000   1.0000   1.0000   1.0000   1.0000   1.0000   1.0000   1.0000
     1.0000   1.0000   1.0000   1.0000   1.0000   1.0000   1.0000   1.0000
     1.0000   1.0000   1.0000   1.0000   1.0000   1.0000   1.0000   1.0000
     1.0000   1.0000   1.0000   1.0000   1.0000   1.0000   1.0000   1.0000
     1.0000   1.0000   1.0000   1.0000   1.0000   1.0000   1.0000   1.0000
     1.0000   1.0000   1.0000   1.0000   1.0000   1.0000   1.0000   1.0000
     1.0000   1.0000   1.0000   1.0000   1.0000   1.0000   1.0000   1.0000
     1.0000   1.0000   1.0000   1.0000   1.0000   1.0000   1.0000   1.0000
     1.0000   1.0000   1.0000   1.0000   1.0000   1.0000   1.0000   1.0000
     1.0000   1.0000   1.0000   1.0000   1.0000   1.0000   1.0000   1.0000
     1.0000   1.0000   1.0000   1.0000   1.0000   1.0000   1.0000   1.0000
     1.0000   1.0000   1.0000   1.0000   1.0000   1.0000   1.0000   1.0000
     1.0000   1.0000   1.0000   1.0000   1.0000   1.0000   1.0000   1.0000
     1.0000   1.0000   1.0000   1.0000   1.0000   1.0000   1.0000   1.0000
     1.0000   1.0000   1.0000   1.0000   1.0000   1.0000   1.0000   1.0000
     1.0000   1.0000   1.0000   1.0000   1.0000   1.0000   1.0000   1.0000
     1.0000   1.0000   1.0000   1.0000   1.0000   1.0000   1.0000   1.0000
     1.0000   1.0000   1.0000   1.0000   1.0000   1.0000   1.0000   1.0000
     1.0000   1.0000   1.0000   1.0000   1.0000   1.0000   1.0000   1.0000
     1.0000   1.0000   1.0000   1.0000   1.0000   1.0000   1.0000   1.0000
     1.0000   1.0000   1.0000   1.0000   1.0000   1.0000   1.0000   1.0000
     1.0000   1.0000   1.0000   1.0000   1.0000   1.0000   1.0000   1.0000
     1.0000   1.0000   1.0000   1.0000   1.0000   1.0000   1.0000   1.0000
     1.0000   1.0000   1.0000   1.0000   1.0000   1.0000   1.0000   1.0000
     1.0000   1.0000   1.0000   1.0000   1.0000   1.0000   1.0000   1.0000
     1.0000   1.0000   1.0000   1.0000   1.0000   1.0000   1.0000   1.0000
     1.0000   1.0000   1.0000   1.0000   1.0000   1.0000   1.0000   1.0000
     1.0000   1.0000   1.0000   1.0000   1.0000   1.0000   1.0000   1.0000
     1.0000   1.0000   1.0000   1.0000   1.0000   1.0000   1.0000   1.0000
     1.0000   1.0000   1.0000   1.0000   1.0000   1.0000   1.0000   1.0000
     1.0000   1.0000   1.0000   1.0000   1.0000   1.0000   1.0000   1.0000
     1.0000   1.0000   1.0000   1.0000   1.0000   1.0000   1.0000   1.0000
     1.0000   1.0000   1.0000   1.0000   1.0000   1.0000   1.0000   1.0000
     1.0000   1.0000   1.0000   1.0000   1.0000   1.0000   1.0000   1.0000
     1.0000   1.0000   1.0000   1.0000   1.0000   1.0000   1.0000   1.0000
     1.0000   1.0000   1.0000   1.0000   1.0000   1.0000   1.0000   1.0000
     1.0000   1.0000   1.0000   1.0000   1.0000   1.0000   1.0000   1.0000
     1.0000   1.0000   1.0000   1.0000   1.0000   1.0000   1.0000   1.0000
     1.0000   1.0000   1.0000   1.0000   1.0000   1.0000   1.0000   1.0000
     1.0000   1.0000   1.0000   1.0000   1.0000   1.0000   1.0000   1.0000
     1.0000   1.0000   1.0000   1.0000   1.0000   1.0000   1.0000   1.0000
     1.0000   1.0000   1.0000   1.0000   1.0000   1.0000   1.0000   1.0000
     1.0000   1.0000   1.0000   1.0000   1.0000   1.0000   1.0000   1.0000
     1.0000   1.0000   1.0000   1.0000   1.0000   1.0000   1.0000   1.0000
     1.0000   1.0000   1.0000   1.0000   1.0000   1.0000   1.0000   1.0000
     1.0000   1.0000   1.0000   1.0000   1.0000   1.0000   1.0000   1.0000
     1.0000   1.0000   1.0000   1.0000   1.0000   1.0000   1.0000   1.0000
     1.0000   1.0000   1.0000   1.0000   1.0000   1.0000   1.0000   1.0000
     1.0000   1.0000   1.0000   1.0000   1.0000   1.0000   1.0000   1.0000
     1.0000   1.0000   1.0000   1.0000   1.0000   1.0000   1.0000   1.0000
     1.0000   1.0000   1.0000   1.0000   1.0000   1.0000   1.0000   1.0000
     1.0000   1.0000   1.0000   1.0000   1.0000   1.0000   1.0000   1.0000
     1.0000   1.0000   1.0000   1.0000   1.0000   1.0636   0.0000   0.0000
     0.0000   0.0000   0.0000   0.0000   0.0000   0.0000   0.0000   0.0000
     0.0000   0.0000   0.0000   0.0000   0.0000   0.0000   0.0000   0.0000
     0.0000   0.0000   0.0000   0.0000   0.0000   0.0000   0.0000   0.0000
     0.0000   0.0000   0.0000   0.0000   0.0000   0.0000   0.0000   0.0000
     0.0000   0.0000   0.0000   0.0000   0.0000   0.0000   0.0000   0.0000
     0.0000   0.0000   0.0000   0.0000   0.0000   0.0000   0.0000   0.0000
     0.0000   0.0000   0.0000   0.0000   0.0000   0.0000   0.0000   0.0000
     0.0000   0.0000   0.0000   0.0000   0.0000   0.0000   0.0000   0.0000
     0.0000   0.0000   0.0000   0.0000   0.0000   0.0000   0.0000   0.0000

          k = 0.1250 0.5052-0.3067 ( 51258 PWs)   bands (ev):

    -6.2312  -6.2030  -6.1323  -6.0991  -5.9733  -5.9435  -5.8556  -5.8517
    -5.8134  -5.8003  -5.7969  -5.7771  -5.7115  -5.7084  -5.6964  -5.6790
    -5.6733  -5.6646  -5.6600  -5.6574  -5.6542  -5.6464  -5.6437  -5.6388
    -5.6341  -5.6332  -5.6293  -5.6255  -5.6151  -5.6070  -5.5960  -5.5809
    -5.5794  -5.5763  -5.5730  -5.5700  -5.5659  -5.5642  -5.5586  -5.5561
    -5.5520  -5.5500  -5.5475  -5.5463  -5.5442  -5.5420  -5.5376  -5.5368
    -5.5353  -5.5339  -5.5210  -5.4955  -5.4936  -4.2501  -4.1885  -4.1819
    -4.1793  -4.1763  -4.1718  -4.1702  -4.1686  -4.1653  -4.1641  -4.1611
    -4.1606  -4.1591  -4.1586  -4.1573  -4.1553  -4.1547  -4.1522  -4.1507
    -4.1496  -4.1485  -4.1477  -4.1467  -4.1456  -4.1452  -4.1442  -4.1433
    -4.1415  -4.1405  -4.1395  -4.1374  -4.1356  -4.1335  -4.1314  -4.1311
    -4.1293  -4.1268  -4.1263  -4.1250  -4.1243  -4.1233  -4.1219  -4.1206
    -4.1192  -4.1188  -4.1171  -4.1157  -4.1144  -4.1138  -4.1121  -4.1107
    -4.1094  -4.1083  -4.1076  -4.1063  -4.1050  -4.1034  -4.1014  -4.1005
    -4.0990  -4.0985  -4.0973  -4.0955  -4.0914  -4.0901  -4.0867  -4.0849
    -4.0840  -4.0818  -4.0803  -4.0772  -4.0760  -4.0726  -4.0705  -4.0681
    -4.0663  -4.0635  -4.0629  -4.0613  -4.0585  -4.0563  -4.0535  -4.0526
    -4.0500  -4.0496  -4.0482  -4.0454  -4.0441  -4.0434  -4.0420  -4.0413
    -4.0397  -4.0370  -4.0356  -4.0323  -4.0304  -4.0248  -4.0239  -4.0215
    -4.0188  -4.0139  -4.0133  -4.0098  -4.0094  -4.0081  -4.0059  -4.0052
    -4.0038  -4.0025  -4.0001  -3.9985  -3.9982  -3.9969  -3.9953  -3.9942
    -3.9919  -3.9913  -3.9896  -3.9883  -3.9867  -3.9857  -3.9842  -3.9834
    -3.9823  -3.9814  -3.9804  -3.9791  -3.9777  -3.9763  -3.9754  -3.9741
    -3.9734  -3.9711  -3.9699  -3.9682  -3.9673  -3.9661  -3.9656  -3.9648
    -3.9633  -3.9611  -3.9605  -3.9593  -3.9587  -3.9569  -3.9556  -3.9547
    -3.9497  -3.9476  -3.9461  -3.9450  -3.9442  -3.9433  -3.9413  -3.9393
    -3.9377  -3.9367  -3.9341  -3.9330  -3.9307  -3.9295  -3.9258  -3.9246
    -3.9238  -3.9223  -3.9213  -3.9199  -3.9188  -3.9177  -3.9158  -3.9152
    -3.9142  -3.9125  -3.9119  -3.9112  -3.9094  -3.9084  -3.9068  -3.9058
    -3.9049  -3.9033  -3.9014  -3.8997  -3.8982  -3.8969  -3.8962  -3.8959
    -3.8949  -3.8943  -3.8935  -3.8915  -3.8901  -3.8893  -3.8877  -3.8871
    -3.8845  -3.8832  -3.8816  -3.8805  -3.8761  -3.8747  -3.8721  -3.8697
    -3.8674  -3.8654  -3.8624  -3.8572  -3.8483  -3.8418  -3.8392  -3.8221
    -3.8034  -3.7896  -3.7824  -3.7713  -3.7678  -3.7476  -3.7450  -3.7348
    -3.7333  -3.7210  -3.6544  -3.6286  -3.6240  -3.6055  -3.5362  -3.5250
    -3.4861  -3.4473  -3.3328  -3.3141  -3.0628  -3.0392  -3.0216  -2.9994
    -2.8583  -2.8331  -2.7992  -2.7724  -2.7250  -2.7203  -2.7142  -2.6939
    -2.6620  -2.6555  -2.6389  -2.6294  -2.6187  -2.5877  -2.5200  -2.5143
    -2.5073  -2.5004  -2.4829  -2.4695  -2.4478  -2.4217  -2.3942  -2.3147
    -2.2429  -2.2317  -2.2108  -2.1841  -2.1242  -2.1159  -2.1079  -2.0990
    -2.0857  -2.0631  -2.0433  -0.1281   2.8092   2.8256   2.8528   2.8701
     3.0315   3.0467   3.0592   3.0681   3.0855   3.0916   3.1073   3.1119
     3.1325   3.1606   3.2511   3.2645   3.3512   3.3601   3.3650   3.3733
     3.3982   3.4179   3.4637   3.4878   3.5143   3.5591   3.5739   3.6136
     3.8017   3.8417   3.9243   3.9595   3.9885   4.0245   4.1182   4.1566
     4.1799   4.2326   4.3258   4.3911   4.7905   4.8309   5.0428   5.0915
     5.1894   5.2263   5.3369   5.3487   5.3695   5.3786   5.3971   5.4273
     5.4734   5.4875   5.5048   5.5145   5.5337   5.5594   5.6140   5.6559
     5.7926   5.8373   5.8685   5.9086   5.9841   5.9893   6.0187   6.0564
     6.0816   6.1054   6.1490   6.1823   6.2044   6.2258   6.2346   6.2750
     6.3810   6.4379   6.4815   6.4924   6.5180   6.5766   6.6165   6.6354
     6.6431   6.7052   6.8895   6.9405   6.9718   6.9820   6.9939   7.0416
     7.1195   7.1516   7.1938   7.2000   7.2079   7.2121   7.2299   7.2793
     7.3146   7.3253   7.3620   7.4103   7.4238   7.4313   7.4544   7.4575
     7.4608   7.4693   7.4713   7.4802   7.4925   7.5046   7.5119   7.5309
     7.5448   7.5632   7.5905   7.6001   7.6289   7.6445   7.6609   7.6660
     7.6762   7.6788   7.6903   7.6989   7.7105   7.7166   7.7390   7.7713
     7.7824   7.7965   7.8321   7.8441   7.8602   7.8848   7.9283   7.9874
     8.0563   8.0929   8.1290   8.1641   8.2353   8.2682   8.3116   8.3484
     8.3924   8.4094   8.5062   8.5614   8.6078   8.6217   8.7596   8.7675
     8.8299   8.8738   8.9488   8.9548   9.1232   9.2703  12.6656  12.7189
    13.0157  13.0723  13.6350  13.6517  13.6537  13.7098  13.8933  13.9122
    14.1507  14.1628  14.2160  14.2435  14.3081  14.3215  14.3322  14.3470
    14.3788  14.3874  14.4134  14.4457  14.4914  14.5139  14.5303  14.5559
    14.5714  14.5937  14.6412  14.6593  14.6667  14.6905  14.7051  14.7543
    14.7945  14.8402  14.8632  14.8724  14.8984  14.9387  14.9510  15.1971
    15.2672  15.3505  15.5687  15.5810  15.6018  15.6213  15.6399  15.7228
    15.7551  15.8200  15.8518  15.8933  16.0578  16.0763  16.0959  16.1138
    16.1394  16.1515  16.1769  16.2607  16.3376  16.4168  16.5308  16.5538
    16.5818  16.5985  16.6650  16.6931  16.7578  16.7730  16.8472  16.8732

     occupation numbers 
     1.0000   1.0000   1.0000   1.0000   1.0000   1.0000   1.0000   1.0000
     1.0000   1.0000   1.0000   1.0000   1.0000   1.0000   1.0000   1.0000
     1.0000   1.0000   1.0000   1.0000   1.0000   1.0000   1.0000   1.0000
     1.0000   1.0000   1.0000   1.0000   1.0000   1.0000   1.0000   1.0000
     1.0000   1.0000   1.0000   1.0000   1.0000   1.0000   1.0000   1.0000
     1.0000   1.0000   1.0000   1.0000   1.0000   1.0000   1.0000   1.0000
     1.0000   1.0000   1.0000   1.0000   1.0000   1.0000   1.0000   1.0000
     1.0000   1.0000   1.0000   1.0000   1.0000   1.0000   1.0000   1.0000
     1.0000   1.0000   1.0000   1.0000   1.0000   1.0000   1.0000   1.0000
     1.0000   1.0000   1.0000   1.0000   1.0000   1.0000   1.0000   1.0000
     1.0000   1.0000   1.0000   1.0000   1.0000   1.0000   1.0000   1.0000
     1.0000   1.0000   1.0000   1.0000   1.0000   1.0000   1.0000   1.0000
     1.0000   1.0000   1.0000   1.0000   1.0000   1.0000   1.0000   1.0000
     1.0000   1.0000   1.0000   1.0000   1.0000   1.0000   1.0000   1.0000
     1.0000   1.0000   1.0000   1.0000   1.0000   1.0000   1.0000   1.0000
     1.0000   1.0000   1.0000   1.0000   1.0000   1.0000   1.0000   1.0000
     1.0000   1.0000   1.0000   1.0000   1.0000   1.0000   1.0000   1.0000
     1.0000   1.0000   1.0000   1.0000   1.0000   1.0000   1.0000   1.0000
     1.0000   1.0000   1.0000   1.0000   1.0000   1.0000   1.0000   1.0000
     1.0000   1.0000   1.0000   1.0000   1.0000   1.0000   1.0000   1.0000
     1.0000   1.0000   1.0000   1.0000   1.0000   1.0000   1.0000   1.0000
     1.0000   1.0000   1.0000   1.0000   1.0000   1.0000   1.0000   1.0000
     1.0000   1.0000   1.0000   1.0000   1.0000   1.0000   1.0000   1.0000
     1.0000   1.0000   1.0000   1.0000   1.0000   1.0000   1.0000   1.0000
     1.0000   1.0000   1.0000   1.0000   1.0000   1.0000   1.0000   1.0000
     1.0000   1.0000   1.0000   1.0000   1.0000   1.0000   1.0000   1.0000
     1.0000   1.0000   1.0000   1.0000   1.0000   1.0000   1.0000   1.0000
     1.0000   1.0000   1.0000   1.0000   1.0000   1.0000   1.0000   1.0000
     1.0000   1.0000   1.0000   1.0000   1.0000   1.0000   1.0000   1.0000
     1.0000   1.0000   1.0000   1.0000   1.0000   1.0000   1.0000   1.0000
     1.0000   1.0000   1.0000   1.0000   1.0000   1.0000   1.0000   1.0000
     1.0000   1.0000   1.0000   1.0000   1.0000   1.0000   1.0000   1.0000
     1.0000   1.0000   1.0000   1.0000   1.0000   1.0000   1.0000   1.0000
     1.0000   1.0000   1.0000   1.0000   1.0000   1.0000   1.0000   1.0000
     1.0000   1.0000   1.0000   1.0000   1.0000   1.0000   1.0000   1.0000
     1.0000   1.0000   1.0000   1.0000   1.0000   1.0000   1.0000   1.0000
     1.0000   1.0000   1.0000   1.0000   1.0000   1.0000   1.0000   1.0000
     1.0000   1.0000   1.0000   1.0000   1.0000   1.0000   1.0000   1.0000
     1.0000   1.0000   1.0000   1.0000   1.0000   1.0000   1.0000   1.0000
     1.0000   1.0000   1.0000   1.0000   1.0000   1.0000   1.0000   1.0000
     1.0000   1.0000   1.0000   1.0000   1.0000   1.0000   1.0000   1.0000
     1.0000   1.0000   1.0000   1.0000   1.0000   1.0000   1.0000   1.0000
     1.0000   1.0000   1.0000   1.0000   1.0000   1.0000   1.0000   1.0000
     1.0000   1.0000   1.0000   1.0000   1.0000   1.0000   1.0000   1.0000
     1.0000   1.0000   1.0000   1.0000   1.0000   1.0000   1.0000   1.0000
     1.0000   1.0000   1.0000   1.0000   1.0000   1.0000   1.0000   1.0000
     1.0000   1.0000   1.0000   1.0000   1.0000   1.0000   1.0000   1.0000
     1.0000   1.0000   1.0000   1.0000   1.0000   1.0000   1.0000   1.0000
     1.0000   1.0000   1.0000   1.0000   1.0000   1.0000   1.0000   1.0000
     1.0000   1.0000   1.0000   1.0000   1.0000   1.0000   1.0000   1.0000
     1.0000   1.0000   1.0000   1.0000   1.0000   1.0000   1.0000   1.0000
     1.0000   1.0000   1.0000   1.0000   1.0000   1.0000   1.0000   1.0000
     1.0000   1.0000   1.0000   1.0000   1.0000   1.0000   1.0000   1.0000
     1.0000   1.0000   1.0000   1.0000   1.0000   1.0000   1.0000   1.0000
     1.0000   1.0000   1.0000   1.0000   1.0000   1.0000   1.0000   1.0000
     1.0000   1.0000   1.0000   1.0000   1.0000   1.0000   1.0000   1.0000
     1.0000   1.0000   1.0000   1.0000   1.0000   1.0000   1.0000   1.0000
     1.0000   1.0000   1.0000   1.0000   1.0000   1.0000   1.0000   1.0000
     1.0000   1.0000   1.0000   1.0000   1.0000   1.0000   1.0000   1.0000
     1.0000   1.0000   1.0000   1.0000   1.0000   1.0000   1.0000   1.0000
     1.0000   1.0000   1.0000   1.0000   1.0000   1.0342   0.0000   0.0000
     0.0000   0.0000   0.0000   0.0000   0.0000   0.0000   0.0000   0.0000
     0.0000   0.0000   0.0000   0.0000   0.0000   0.0000   0.0000   0.0000
     0.0000   0.0000   0.0000   0.0000   0.0000   0.0000   0.0000   0.0000
     0.0000   0.0000   0.0000   0.0000   0.0000   0.0000   0.0000   0.0000
     0.0000   0.0000   0.0000   0.0000   0.0000   0.0000   0.0000   0.0000
     0.0000   0.0000   0.0000   0.0000   0.0000   0.0000   0.0000   0.0000
     0.0000   0.0000   0.0000   0.0000   0.0000   0.0000   0.0000   0.0000
     0.0000   0.0000   0.0000   0.0000   0.0000   0.0000   0.0000   0.0000
     0.0000   0.0000   0.0000   0.0000   0.0000   0.0000   0.0000   0.0000

          k = 0.2500 0.4330 0.0000 ( 51293 PWs)   bands (ev):

    -6.2958  -6.1130  -6.0923  -6.0630  -6.0429  -5.9193  -5.9133  -5.9032
    -5.8728  -5.7730  -5.7609  -5.7234  -5.7189  -5.6885  -5.6794  -5.6748
    -5.6719  -5.6681  -5.6649  -5.6610  -5.6591  -5.6558  -5.6483  -5.6467
    -5.6357  -5.6305  -5.6174  -5.6125  -5.6096  -5.6036  -5.6009  -5.5979
    -5.5886  -5.5847  -5.5826  -5.5733  -5.5694  -5.5633  -5.5614  -5.5565
    -5.5533  -5.5454  -5.5443  -5.5439  -5.5421  -5.5416  -5.5381  -5.5351
    -5.5337  -5.5296  -5.5197  -5.4954  -5.4929  -4.2501  -4.1910  -4.1827
    -4.1795  -4.1763  -4.1750  -4.1733  -4.1719  -4.1672  -4.1648  -4.1627
    -4.1611  -4.1592  -4.1579  -4.1566  -4.1553  -4.1545  -4.1527  -4.1523
    -4.1513  -4.1496  -4.1474  -4.1464  -4.1445  -4.1422  -4.1404  -4.1396
    -4.1372  -4.1355  -4.1348  -4.1336  -4.1323  -4.1305  -4.1291  -4.1288
    -4.1279  -4.1263  -4.1256  -4.1251  -4.1238  -4.1230  -4.1205  -4.1199
    -4.1184  -4.1168  -4.1163  -4.1153  -4.1136  -4.1132  -4.1119  -4.1096
    -4.1071  -4.1061  -4.1056  -4.1050  -4.1035  -4.1019  -4.1018  -4.0991
    -4.0975  -4.0965  -4.0959  -4.0948  -4.0941  -4.0932  -4.0911  -4.0905
    -4.0897  -4.0888  -4.0865  -4.0841  -4.0826  -4.0800  -4.0788  -4.0758
    -4.0745  -4.0723  -4.0692  -4.0681  -4.0611  -4.0601  -4.0564  -4.0520
    -4.0513  -4.0470  -4.0417  -4.0408  -4.0399  -4.0386  -4.0346  -4.0304
    -4.0296  -4.0282  -4.0245  -4.0231  -4.0207  -4.0189  -4.0156  -4.0146
    -4.0144  -4.0128  -4.0119  -4.0116  -4.0101  -4.0092  -4.0087  -4.0059
    -4.0049  -4.0041  -4.0024  -4.0009  -4.0000  -3.9982  -3.9976  -3.9962
    -3.9954  -3.9916  -3.9895  -3.9874  -3.9862  -3.9848  -3.9839  -3.9832
    -3.9819  -3.9810  -3.9796  -3.9786  -3.9777  -3.9770  -3.9751  -3.9746
    -3.9736  -3.9728  -3.9713  -3.9704  -3.9699  -3.9692  -3.9684  -3.9669
    -3.9662  -3.9652  -3.9623  -3.9612  -3.9596  -3.9586  -3.9571  -3.9504
    -3.9492  -3.9475  -3.9465  -3.9464  -3.9445  -3.9393  -3.9391  -3.9368
    -3.9359  -3.9344  -3.9323  -3.9320  -3.9314  -3.9281  -3.9277  -3.9273
    -3.9238  -3.9231  -3.9210  -3.9205  -3.9191  -3.9173  -3.9162  -3.9152
    -3.9138  -3.9127  -3.9096  -3.9092  -3.9083  -3.9057  -3.9053  -3.9049
    -3.9034  -3.9029  -3.9018  -3.9008  -3.9002  -3.8994  -3.8983  -3.8962
    -3.8959  -3.8928  -3.8926  -3.8900  -3.8880  -3.8874  -3.8865  -3.8855
    -3.8843  -3.8819  -3.8811  -3.8777  -3.8751  -3.8725  -3.8713  -3.8685
    -3.8642  -3.8608  -3.8584  -3.8557  -3.8516  -3.8485  -3.8400  -3.8395
    -3.8208  -3.8015  -3.7894  -3.7736  -3.7688  -3.7518  -3.7457  -3.7381
    -3.7349  -3.7259  -3.7112  -3.7017  -3.6837  -3.6225  -3.6195  -3.3294
    -3.3140  -3.2283  -3.2187  -3.1254  -3.1222  -3.1102  -3.0852  -3.0275
    -3.0271  -3.0024  -2.9678  -2.8913  -2.7892  -2.7645  -2.7271  -2.7096
    -2.6629  -2.6590  -2.6469  -2.5996  -2.5608  -2.4964  -2.4897  -2.4881
    -2.4819  -2.4789  -2.4613  -2.4101  -2.3385  -2.3253  -2.3231  -2.3183
    -2.3053  -2.2841  -2.2484  -2.2449  -2.2309  -2.1480  -2.1190  -2.1019
    -2.0443  -2.0139  -1.9641  -0.1233   2.6707   2.7750   2.7830   2.7907
     2.8116   2.9068   2.9236   2.9956   3.0384   3.0568   3.0765   3.2260
     3.3025   3.3135   3.3544   3.3619   3.3653   3.3725   3.3908   3.4170
     3.5321   3.5405   3.5521   3.5645   3.5840   3.6220   3.6547   3.7738
     3.8058   4.1138   4.1157   4.1290   4.1310   4.1404   4.1565   4.1759
     4.2013   4.2093   4.2597   4.2675   4.2866   4.3006   4.4241   4.7216
     4.7498   5.1315   5.1479   5.1626   5.1707   5.2095   5.3522   5.4074
     5.5469   5.5776   5.6645   5.6858   5.7854   5.7995   5.8095   5.8658
     5.8775   5.9561   6.0024   6.1928   6.2083   6.2303   6.2418   6.2532
     6.2825   6.3125   6.3232   6.3300   6.3388   6.3588   6.3856   6.5097
     6.5181   6.5263   6.5402   6.5468   6.5595   6.5726   6.5929   6.6374
     6.6438   6.6597   6.6727   6.6945   6.7063   6.7303   6.8066   6.8581
     6.8644   6.9158   6.9403   6.9418   6.9568   7.0084   7.0325   7.0615
     7.0686   7.1937   7.2327   7.2418   7.2471   7.2524   7.2695   7.3236
     7.4161   7.4218   7.4311   7.4352   7.4373   7.4618   7.4782   7.4784
     7.5204   7.5661   7.5905   7.6441   7.6567   7.6977   7.7456   7.8021
     7.8048   7.8150   7.8587   7.8605   7.8685   7.8810   7.9080   7.9320
     7.9496   7.9659   8.0025   8.0489   8.0561   8.0740   8.0760   8.0825
     8.0920   8.1296   8.1490   8.1873   8.1948   8.2110   8.2991   8.3540
     8.3691   8.4023   8.4089   8.4943   8.5451   8.6309   8.7053   8.7216
     8.7301   8.8796   8.9113   8.9326   9.1920   9.2322  12.3152  13.1600
    13.2002  13.3849  13.4098  13.5847  13.5924  13.5980  13.6427  13.7844
    13.8009  13.8266  13.8953  14.2204  14.2528  14.3717  14.3794  14.3885
    14.4018  14.4322  14.4674  14.5020  14.5452  14.5552  14.5607  14.6247
    14.6780  14.7142  14.8014  14.8694  14.8851  14.9426  14.9488  14.9634
    15.0167  15.0233  15.1270  15.1368  15.1452  15.1660  15.2019  15.2081
    15.2168  15.2345  15.2498  15.2998  15.3151  15.3217  15.3424  15.3635
    15.4172  15.5621  15.6236  15.6603  15.6662  15.7546  15.9670  16.1162
    16.1673  16.4697  16.4858  16.4902  16.5015  16.5655  16.5720  16.5892
    16.6166  16.6600  16.6770  16.6806  16.7093  16.8267  16.8490  16.8853

     occupation numbers 
     1.0000   1.0000   1.0000   1.0000   1.0000   1.0000   1.0000   1.0000
     1.0000   1.0000   1.0000   1.0000   1.0000   1.0000   1.0000   1.0000
     1.0000   1.0000   1.0000   1.0000   1.0000   1.0000   1.0000   1.0000
     1.0000   1.0000   1.0000   1.0000   1.0000   1.0000   1.0000   1.0000
     1.0000   1.0000   1.0000   1.0000   1.0000   1.0000   1.0000   1.0000
     1.0000   1.0000   1.0000   1.0000   1.0000   1.0000   1.0000   1.0000
     1.0000   1.0000   1.0000   1.0000   1.0000   1.0000   1.0000   1.0000
     1.0000   1.0000   1.0000   1.0000   1.0000   1.0000   1.0000   1.0000
     1.0000   1.0000   1.0000   1.0000   1.0000   1.0000   1.0000   1.0000
     1.0000   1.0000   1.0000   1.0000   1.0000   1.0000   1.0000   1.0000
     1.0000   1.0000   1.0000   1.0000   1.0000   1.0000   1.0000   1.0000
     1.0000   1.0000   1.0000   1.0000   1.0000   1.0000   1.0000   1.0000
     1.0000   1.0000   1.0000   1.0000   1.0000   1.0000   1.0000   1.0000
     1.0000   1.0000   1.0000   1.0000   1.0000   1.0000   1.0000   1.0000
     1.0000   1.0000   1.0000   1.0000   1.0000   1.0000   1.0000   1.0000
     1.0000   1.0000   1.0000   1.0000   1.0000   1.0000   1.0000   1.0000
     1.0000   1.0000   1.0000   1.0000   1.0000   1.0000   1.0000   1.0000
     1.0000   1.0000   1.0000   1.0000   1.0000   1.0000   1.0000   1.0000
     1.0000   1.0000   1.0000   1.0000   1.0000   1.0000   1.0000   1.0000
     1.0000   1.0000   1.0000   1.0000   1.0000   1.0000   1.0000   1.0000
     1.0000   1.0000   1.0000   1.0000   1.0000   1.0000   1.0000   1.0000
     1.0000   1.0000   1.0000   1.0000   1.0000   1.0000   1.0000   1.0000
     1.0000   1.0000   1.0000   1.0000   1.0000   1.0000   1.0000   1.0000
     1.0000   1.0000   1.0000   1.0000   1.0000   1.0000   1.0000   1.0000
     1.0000   1.0000   1.0000   1.0000   1.0000   1.0000   1.0000   1.0000
     1.0000   1.0000   1.0000   1.0000   1.0000   1.0000   1.0000   1.0000
     1.0000   1.0000   1.0000   1.0000   1.0000   1.0000   1.0000   1.0000
     1.0000   1.0000   1.0000   1.0000   1.0000   1.0000   1.0000   1.0000
     1.0000   1.0000   1.0000   1.0000   1.0000   1.0000   1.0000   1.0000
     1.0000   1.0000   1.0000   1.0000   1.0000   1.0000   1.0000   1.0000
     1.0000   1.0000   1.0000   1.0000   1.0000   1.0000   1.0000   1.0000
     1.0000   1.0000   1.0000   1.0000   1.0000   1.0000   1.0000   1.0000
     1.0000   1.0000   1.0000   1.0000   1.0000   1.0000   1.0000   1.0000
     1.0000   1.0000   1.0000   1.0000   1.0000   1.0000   1.0000   1.0000
     1.0000   1.0000   1.0000   1.0000   1.0000   1.0000   1.0000   1.0000
     1.0000   1.0000   1.0000   1.0000   1.0000   1.0000   1.0000   1.0000
     1.0000   1.0000   1.0000   1.0000   1.0000   1.0000   1.0000   1.0000
     1.0000   1.0000   1.0000   1.0000   1.0000   1.0000   1.0000   1.0000
     1.0000   1.0000   1.0000   1.0000   1.0000   1.0000   1.0000   1.0000
     1.0000   1.0000   1.0000   1.0000   1.0000   1.0000   1.0000   1.0000
     1.0000   1.0000   1.0000   1.0000   1.0000   1.0000   1.0000   1.0000
     1.0000   1.0000   1.0000   1.0000   1.0000   1.0000   1.0000   1.0000
     1.0000   1.0000   1.0000   1.0000   1.0000   1.0000   1.0000   1.0000
     1.0000   1.0000   1.0000   1.0000   1.0000   1.0000   1.0000   1.0000
     1.0000   1.0000   1.0000   1.0000   1.0000   1.0000   1.0000   1.0000
     1.0000   1.0000   1.0000   1.0000   1.0000   1.0000   1.0000   1.0000
     1.0000   1.0000   1.0000   1.0000   1.0000   1.0000   1.0000   1.0000
     1.0000   1.0000   1.0000   1.0000   1.0000   1.0000   1.0000   1.0000
     1.0000   1.0000   1.0000   1.0000   1.0000   1.0000   1.0000   1.0000
     1.0000   1.0000   1.0000   1.0000   1.0000   1.0000   1.0000   1.0000
     1.0000   1.0000   1.0000   1.0000   1.0000   1.0000   1.0000   1.0000
     1.0000   1.0000   1.0000   1.0000   1.0000   1.0000   1.0000   1.0000
     1.0000   1.0000   1.0000   1.0000   1.0000   1.0000   1.0000   1.0000
     1.0000   1.0000   1.0000   1.0000   1.0000   1.0000   1.0000   1.0000
     1.0000   1.0000   1.0000   1.0000   1.0000   1.0000   1.0000   1.0000
     1.0000   1.0000   1.0000   1.0000   1.0000   1.0000   1.0000   1.0000
     1.0000   1.0000   1.0000   1.0000   1.0000   1.0000   1.0000   1.0000
     1.0000   1.0000   1.0000   1.0000   1.0000   1.0000   1.0000   1.0000
     1.0000   1.0000   1.0000   1.0000   1.0000   1.0000   1.0000   1.0000
     1.0000   1.0000   1.0000   1.0000   1.0000   1.0000   1.0000   1.0000
     1.0000   1.0000   1.0000   1.0000   1.0000   1.0640   0.0000   0.0000
     0.0000   0.0000   0.0000   0.0000   0.0000   0.0000   0.0000   0.0000
     0.0000   0.0000   0.0000   0.0000   0.0000   0.0000   0.0000   0.0000
     0.0000   0.0000   0.0000   0.0000   0.0000   0.0000   0.0000   0.0000
     0.0000   0.0000   0.0000   0.0000   0.0000   0.0000   0.0000   0.0000
     0.0000   0.0000   0.0000   0.0000   0.0000   0.0000   0.0000   0.0000
     0.0000   0.0000   0.0000   0.0000   0.0000   0.0000   0.0000   0.0000
     0.0000   0.0000   0.0000   0.0000   0.0000   0.0000   0.0000   0.0000
     0.0000   0.0000   0.0000   0.0000   0.0000   0.0000   0.0000   0.0000
     0.0000   0.0000   0.0000   0.0000   0.0000   0.0000   0.0000   0.0000

          k = 0.2500 0.4330 0.1533 ( 51293 PWs)   bands (ev):

    -6.2795  -6.1524  -6.0986  -6.0714  -5.9925  -5.9686  -5.9463  -5.8368
    -5.8130  -5.7813  -5.7654  -5.7536  -5.7110  -5.7033  -5.6993  -5.6864
    -5.6827  -5.6798  -5.6722  -5.6591  -5.6428  -5.6408  -5.6387  -5.6343
    -5.6315  -5.6298  -5.6272  -5.6190  -5.6105  -5.6034  -5.5992  -5.5895
    -5.5866  -5.5821  -5.5803  -5.5757  -5.5655  -5.5626  -5.5596  -5.5569
    -5.5533  -5.5464  -5.5451  -5.5443  -5.5432  -5.5415  -5.5387  -5.5357
    -5.5345  -5.5316  -5.5203  -5.4955  -5.4931  -4.2501  -4.1901  -4.1811
    -4.1796  -4.1770  -4.1742  -4.1729  -4.1680  -4.1669  -4.1641  -4.1621
    -4.1608  -4.1589  -4.1586  -4.1562  -4.1546  -4.1535  -4.1518  -4.1514
    -4.1502  -4.1492  -4.1478  -4.1471  -4.1450  -4.1443  -4.1434  -4.1426
    -4.1403  -4.1387  -4.1369  -4.1363  -4.1345  -4.1326  -4.1315  -4.1305
    -4.1292  -4.1277  -4.1261  -4.1248  -4.1234  -4.1224  -4.1210  -4.1202
    -4.1201  -4.1181  -4.1167  -4.1146  -4.1135  -4.1126  -4.1113  -4.1100
    -4.1098  -4.1081  -4.1069  -4.1061  -4.1041  -4.1029  -4.1017  -4.1010
    -4.0994  -4.0973  -4.0968  -4.0953  -4.0926  -4.0917  -4.0893  -4.0874
    -4.0851  -4.0834  -4.0814  -4.0789  -4.0774  -4.0758  -4.0742  -4.0724
    -4.0697  -4.0690  -4.0674  -4.0650  -4.0616  -4.0606  -4.0573  -4.0546
    -4.0532  -4.0490  -4.0457  -4.0420  -4.0400  -4.0372  -4.0357  -4.0315
    -4.0292  -4.0273  -4.0265  -4.0252  -4.0232  -4.0216  -4.0196  -4.0181
    -4.0167  -4.0144  -4.0134  -4.0127  -4.0107  -4.0096  -4.0088  -4.0059
    -4.0052  -4.0029  -4.0011  -4.0001  -3.9987  -3.9974  -3.9966  -3.9956
    -3.9938  -3.9931  -3.9913  -3.9892  -3.9881  -3.9860  -3.9855  -3.9834
    -3.9822  -3.9801  -3.9791  -3.9781  -3.9772  -3.9764  -3.9759  -3.9737
    -3.9729  -3.9717  -3.9712  -3.9696  -3.9690  -3.9673  -3.9666  -3.9648
    -3.9639  -3.9620  -3.9615  -3.9606  -3.9590  -3.9579  -3.9549  -3.9511
    -3.9495  -3.9483  -3.9465  -3.9449  -3.9434  -3.9418  -3.9399  -3.9374
    -3.9362  -3.9345  -3.9343  -3.9317  -3.9311  -3.9291  -3.9278  -3.9267
    -3.9252  -3.9232  -3.9209  -3.9199  -3.9192  -3.9186  -3.9165  -3.9150
    -3.9140  -3.9137  -3.9112  -3.9102  -3.9091  -3.9070  -3.9056  -3.9047
    -3.9038  -3.9026  -3.9011  -3.9005  -3.8990  -3.8987  -3.8983  -3.8967
    -3.8956  -3.8931  -3.8914  -3.8903  -3.8893  -3.8885  -3.8877  -3.8873
    -3.8841  -3.8828  -3.8807  -3.8771  -3.8754  -3.8733  -3.8708  -3.8688
    -3.8630  -3.8606  -3.8579  -3.8550  -3.8493  -3.8422  -3.8400  -3.8260
    -3.8210  -3.8138  -3.7986  -3.7786  -3.7742  -3.7610  -3.7496  -3.7411
    -3.7380  -3.7319  -3.7202  -3.6382  -3.6269  -3.6011  -3.5819  -3.4542
    -3.3174  -3.3035  -3.2605  -3.2352  -3.2112  -3.1742  -2.9964  -2.9894
    -2.9551  -2.8854  -2.7994  -2.7837  -2.7791  -2.7657  -2.7424  -2.7161
    -2.6894  -2.6684  -2.6507  -2.6141  -2.5879  -2.5680  -2.5577  -2.5352
    -2.4868  -2.4237  -2.4152  -2.3979  -2.3867  -2.3837  -2.3363  -2.3094
    -2.2946  -2.2664  -2.2390  -2.1950  -2.1607  -2.1363  -2.1295  -2.1120
    -2.0731  -2.0491  -1.9858  -0.1258   2.7813   2.8106   2.8198   2.8283
     2.8473   2.9232   2.9721   3.0089   3.0280   3.0851   3.1221   3.1287
     3.1423   3.1680   3.2000   3.3405   3.3615   3.4869   3.4989   3.5327
     3.5464   3.5637   3.5857   3.6013   3.6224   3.6301   3.6498   3.6802
     3.7074   3.7215   3.7814   3.9786   4.0392   4.0483   4.0899   4.1035
     4.1380   4.2511   4.4932   4.5129   4.5784   4.6315   4.7257   4.7393
     4.8225   5.1934   5.2096   5.2339   5.2747   5.3123   5.3809   5.4136
     5.4466   5.4627   5.4876   5.5128   5.7574   5.8675   5.8887   5.9082
     5.9473   5.9543   5.9611   5.9904   6.0056   6.0326   6.0827   6.1335
     6.1908   6.2093   6.2660   6.2799   6.2975   6.3242   6.3755   6.3817
     6.4303   6.4337   6.4625   6.4806   6.5265   6.5921   6.6246   6.6396
     6.6456   6.6641   6.6818   6.7133   6.8542   6.8743   6.9044   6.9844
     7.0014   7.0220   7.0324   7.0716   7.0791   7.1443   7.1522   7.1789
     7.1990   7.2212   7.2653   7.2760   7.2769   7.2923   7.3115   7.3472
     7.4078   7.4402   7.4605   7.4896   7.5035   7.5127   7.5264   7.5439
     7.5690   7.5846   7.5958   7.6160   7.6385   7.6763   7.7109   7.7389
     7.7699   7.8055   7.8081   7.8217   7.8385   7.8432   7.8539   7.8692
     7.8793   7.9096   7.9250   7.9414   7.9616   7.9906   8.0045   8.0245
     8.0451   8.0725   8.1174   8.1306   8.1534   8.2367   8.2921   8.3224
     8.3771   8.4464   8.5442   8.5750   8.6004   8.6422   8.6882   8.7072
     8.7704   8.8464   8.9265   8.9628   9.1662   9.2260  12.4036  12.9983
    13.1938  13.2383  13.5027  13.5539  13.6436  13.6668  13.7472  13.7601
    13.8295  14.1487  14.1921  14.2318  14.2432  14.2877  14.3540  14.3679
    14.4130  14.4226  14.4459  14.4751  14.4792  14.4866  14.4960  14.6073
    14.7089  14.7225  14.7368  14.7560  14.7726  14.7880  14.8559  14.8778
    14.8907  14.9037  14.9808  15.0299  15.0589  15.1015  15.1418  15.1655
    15.2034  15.2193  15.2448  15.2724  15.4451  15.5571  15.5821  15.6030
    15.6200  15.6371  15.6556  15.6951  15.7493  15.7829  15.9837  16.1450
    16.1893  16.3850  16.4192  16.5059  16.5223  16.5391  16.5672  16.6017
    16.6159  16.6286  16.7449  16.7631  16.7847  16.8122  16.8667  16.8719

     occupation numbers 
     1.0000   1.0000   1.0000   1.0000   1.0000   1.0000   1.0000   1.0000
     1.0000   1.0000   1.0000   1.0000   1.0000   1.0000   1.0000   1.0000
     1.0000   1.0000   1.0000   1.0000   1.0000   1.0000   1.0000   1.0000
     1.0000   1.0000   1.0000   1.0000   1.0000   1.0000   1.0000   1.0000
     1.0000   1.0000   1.0000   1.0000   1.0000   1.0000   1.0000   1.0000
     1.0000   1.0000   1.0000   1.0000   1.0000   1.0000   1.0000   1.0000
     1.0000   1.0000   1.0000   1.0000   1.0000   1.0000   1.0000   1.0000
     1.0000   1.0000   1.0000   1.0000   1.0000   1.0000   1.0000   1.0000
     1.0000   1.0000   1.0000   1.0000   1.0000   1.0000   1.0000   1.0000
     1.0000   1.0000   1.0000   1.0000   1.0000   1.0000   1.0000   1.0000
     1.0000   1.0000   1.0000   1.0000   1.0000   1.0000   1.0000   1.0000
     1.0000   1.0000   1.0000   1.0000   1.0000   1.0000   1.0000   1.0000
     1.0000   1.0000   1.0000   1.0000   1.0000   1.0000   1.0000   1.0000
     1.0000   1.0000   1.0000   1.0000   1.0000   1.0000   1.0000   1.0000
     1.0000   1.0000   1.0000   1.0000   1.0000   1.0000   1.0000   1.0000
     1.0000   1.0000   1.0000   1.0000   1.0000   1.0000   1.0000   1.0000
     1.0000   1.0000   1.0000   1.0000   1.0000   1.0000   1.0000   1.0000
     1.0000   1.0000   1.0000   1.0000   1.0000   1.0000   1.0000   1.0000
     1.0000   1.0000   1.0000   1.0000   1.0000   1.0000   1.0000   1.0000
     1.0000   1.0000   1.0000   1.0000   1.0000   1.0000   1.0000   1.0000
     1.0000   1.0000   1.0000   1.0000   1.0000   1.0000   1.0000   1.0000
     1.0000   1.0000   1.0000   1.0000   1.0000   1.0000   1.0000   1.0000
     1.0000   1.0000   1.0000   1.0000   1.0000   1.0000   1.0000   1.0000
     1.0000   1.0000   1.0000   1.0000   1.0000   1.0000   1.0000   1.0000
     1.0000   1.0000   1.0000   1.0000   1.0000   1.0000   1.0000   1.0000
     1.0000   1.0000   1.0000   1.0000   1.0000   1.0000   1.0000   1.0000
     1.0000   1.0000   1.0000   1.0000   1.0000   1.0000   1.0000   1.0000
     1.0000   1.0000   1.0000   1.0000   1.0000   1.0000   1.0000   1.0000
     1.0000   1.0000   1.0000   1.0000   1.0000   1.0000   1.0000   1.0000
     1.0000   1.0000   1.0000   1.0000   1.0000   1.0000   1.0000   1.0000
     1.0000   1.0000   1.0000   1.0000   1.0000   1.0000   1.0000   1.0000
     1.0000   1.0000   1.0000   1.0000   1.0000   1.0000   1.0000   1.0000
     1.0000   1.0000   1.0000   1.0000   1.0000   1.0000   1.0000   1.0000
     1.0000   1.0000   1.0000   1.0000   1.0000   1.0000   1.0000   1.0000
     1.0000   1.0000   1.0000   1.0000   1.0000   1.0000   1.0000   1.0000
     1.0000   1.0000   1.0000   1.0000   1.0000   1.0000   1.0000   1.0000
     1.0000   1.0000   1.0000   1.0000   1.0000   1.0000   1.0000   1.0000
     1.0000   1.0000   1.0000   1.0000   1.0000   1.0000   1.0000   1.0000
     1.0000   1.0000   1.0000   1.0000   1.0000   1.0000   1.0000   1.0000
     1.0000   1.0000   1.0000   1.0000   1.0000   1.0000   1.0000   1.0000
     1.0000   1.0000   1.0000   1.0000   1.0000   1.0000   1.0000   1.0000
     1.0000   1.0000   1.0000   1.0000   1.0000   1.0000   1.0000   1.0000
     1.0000   1.0000   1.0000   1.0000   1.0000   1.0000   1.0000   1.0000
     1.0000   1.0000   1.0000   1.0000   1.0000   1.0000   1.0000   1.0000
     1.0000   1.0000   1.0000   1.0000   1.0000   1.0000   1.0000   1.0000
     1.0000   1.0000   1.0000   1.0000   1.0000   1.0000   1.0000   1.0000
     1.0000   1.0000   1.0000   1.0000   1.0000   1.0000   1.0000   1.0000
     1.0000   1.0000   1.0000   1.0000   1.0000   1.0000   1.0000   1.0000
     1.0000   1.0000   1.0000   1.0000   1.0000   1.0000   1.0000   1.0000
     1.0000   1.0000   1.0000   1.0000   1.0000   1.0000   1.0000   1.0000
     1.0000   1.0000   1.0000   1.0000   1.0000   1.0000   1.0000   1.0000
     1.0000   1.0000   1.0000   1.0000   1.0000   1.0000   1.0000   1.0000
     1.0000   1.0000   1.0000   1.0000   1.0000   1.0000   1.0000   1.0000
     1.0000   1.0000   1.0000   1.0000   1.0000   1.0000   1.0000   1.0000
     1.0000   1.0000   1.0000   1.0000   1.0000   1.0000   1.0000   1.0000
     1.0000   1.0000   1.0000   1.0000   1.0000   1.0000   1.0000   1.0000
     1.0000   1.0000   1.0000   1.0000   1.0000   1.0000   1.0000   1.0000
     1.0000   1.0000   1.0000   1.0000   1.0000   1.0000   1.0000   1.0000
     1.0000   1.0000   1.0000   1.0000   1.0000   1.0000   1.0000   1.0000
     1.0000   1.0000   1.0000   1.0000   1.0000   1.0000   1.0000   1.0000
     1.0000   1.0000   1.0000   1.0000   1.0000   1.0279   0.0000   0.0000
     0.0000   0.0000   0.0000   0.0000   0.0000   0.0000   0.0000   0.0000
     0.0000   0.0000   0.0000   0.0000   0.0000   0.0000   0.0000   0.0000
     0.0000   0.0000   0.0000   0.0000   0.0000   0.0000   0.0000   0.0000
     0.0000   0.0000   0.0000   0.0000   0.0000   0.0000   0.0000   0.0000
     0.0000   0.0000   0.0000   0.0000   0.0000   0.0000   0.0000   0.0000
     0.0000   0.0000   0.0000   0.0000   0.0000   0.0000   0.0000   0.0000
     0.0000   0.0000   0.0000   0.0000   0.0000   0.0000   0.0000   0.0000
     0.0000   0.0000   0.0000   0.0000   0.0000   0.0000   0.0000   0.0000
     0.0000   0.0000   0.0000   0.0000   0.0000   0.0000   0.0000   0.0000

          k = 0.2500 0.4330-0.3067 ( 51274 PWs)   bands (ev):

    -6.2439  -6.2137  -6.0661  -6.0516  -6.0467  -6.0014  -5.8629  -5.8574
    -5.7651  -5.7637  -5.7522  -5.7491  -5.7443  -5.7412  -5.7327  -5.7120
    -5.6739  -5.6655  -5.6623  -5.6577  -5.6541  -5.6460  -5.6447  -5.6330
    -5.6256  -5.6216  -5.6139  -5.6102  -5.6084  -5.6042  -5.6016  -5.5953
    -5.5892  -5.5852  -5.5739  -5.5692  -5.5649  -5.5598  -5.5594  -5.5560
    -5.5515  -5.5489  -5.5463  -5.5456  -5.5440  -5.5403  -5.5392  -5.5371
    -5.5354  -5.5343  -5.5210  -5.4957  -5.4933  -4.2501  -4.1889  -4.1821
    -4.1799  -4.1736  -4.1728  -4.1706  -4.1669  -4.1641  -4.1634  -4.1616
    -4.1608  -4.1595  -4.1591  -4.1581  -4.1566  -4.1534  -4.1531  -4.1506
    -4.1503  -4.1485  -4.1472  -4.1472  -4.1465  -4.1453  -4.1448  -4.1432
    -4.1412  -4.1402  -4.1394  -4.1374  -4.1363  -4.1344  -4.1334  -4.1319
    -4.1310  -4.1291  -4.1269  -4.1257  -4.1249  -4.1231  -4.1218  -4.1207
    -4.1194  -4.1173  -4.1168  -4.1158  -4.1144  -4.1140  -4.1122  -4.1115
    -4.1105  -4.1094  -4.1081  -4.1065  -4.1047  -4.1036  -4.1032  -4.0998
    -4.0989  -4.0977  -4.0960  -4.0938  -4.0915  -4.0906  -4.0898  -4.0868
    -4.0815  -4.0800  -4.0789  -4.0763  -4.0750  -4.0742  -4.0708  -4.0679
    -4.0652  -4.0641  -4.0626  -4.0594  -4.0577  -4.0556  -4.0516  -4.0512
    -4.0501  -4.0486  -4.0468  -4.0450  -4.0442  -4.0430  -4.0407  -4.0374
    -4.0350  -4.0326  -4.0298  -4.0289  -4.0263  -4.0241  -4.0231  -4.0216
    -4.0181  -4.0170  -4.0153  -4.0126  -4.0106  -4.0090  -4.0087  -4.0060
    -4.0036  -4.0018  -4.0002  -3.9997  -3.9987  -3.9959  -3.9951  -3.9948
    -3.9926  -3.9909  -3.9901  -3.9887  -3.9875  -3.9868  -3.9846  -3.9839
    -3.9822  -3.9809  -3.9798  -3.9788  -3.9769  -3.9765  -3.9749  -3.9734
    -3.9730  -3.9717  -3.9704  -3.9692  -3.9682  -3.9672  -3.9654  -3.9643
    -3.9639  -3.9620  -3.9605  -3.9595  -3.9566  -3.9557  -3.9534  -3.9527
    -3.9497  -3.9481  -3.9462  -3.9450  -3.9422  -3.9404  -3.9398  -3.9385
    -3.9370  -3.9357  -3.9339  -3.9328  -3.9312  -3.9272  -3.9270  -3.9256
    -3.9243  -3.9236  -3.9211  -3.9197  -3.9185  -3.9172  -3.9166  -3.9160
    -3.9147  -3.9128  -3.9127  -3.9126  -3.9101  -3.9076  -3.9069  -3.9047
    -3.9042  -3.9029  -3.9015  -3.9002  -3.9001  -3.8979  -3.8975  -3.8962
    -3.8952  -3.8929  -3.8910  -3.8909  -3.8898  -3.8895  -3.8883  -3.8879
    -3.8842  -3.8836  -3.8810  -3.8768  -3.8754  -3.8735  -3.8701  -3.8686
    -3.8625  -3.8603  -3.8565  -3.8548  -3.8500  -3.8455  -3.8403  -3.8373
    -3.8357  -3.8211  -3.7862  -3.7785  -3.7694  -3.7552  -3.7464  -3.7384
    -3.7344  -3.7302  -3.6594  -3.6381  -3.6261  -3.6100  -3.4601  -3.4557
    -3.4386  -3.4156  -3.2899  -3.2844  -3.2658  -3.2245  -2.8681  -2.8508
    -2.8480  -2.8474  -2.8325  -2.8137  -2.7640  -2.7528  -2.7490  -2.7355
    -2.7245  -2.6796  -2.5676  -2.5542  -2.5517  -2.5452  -2.5332  -2.5243
    -2.5194  -2.5122  -2.5062  -2.4960  -2.4821  -2.4012  -2.3567  -2.2955
    -2.1849  -2.1742  -2.1713  -2.1630  -2.1591  -2.1526  -2.1460  -2.1420
    -2.1275  -2.0586  -2.0349  -0.1282   2.8920   2.8985   2.9073   2.9178
     2.9343   2.9366   2.9568   2.9795   3.0034   3.0240   3.0677   3.0908
     3.1092   3.1148   3.3307   3.3435   3.3655   3.3843   3.4221   3.4338
     3.4560   3.4747   3.4895   3.4975   3.5427   3.5628   3.8200   3.8358
     3.8367   3.8432   3.8724   3.8777   3.8884   3.9118   3.9345   3.9767
     4.1170   4.1815   4.6450   4.6491   4.6840   4.7300   5.0085   5.0174
     5.0392   5.1127   5.3005   5.3339   5.3563   5.3669   5.3887   5.4236
     5.4602   5.4688   5.4848   5.5088   5.5654   5.5757   5.5824   5.6442
     5.8218   5.8603   5.9924   6.0015   6.0685   6.0726   6.1120   6.1182
     6.1694   6.1829   6.1865   6.1958   6.2132   6.2216   6.2490   6.3107
     6.4466   6.4547   6.4577   6.4641   6.4709   6.5006   6.5393   6.5927
     6.6994   6.7050   6.7262   6.7823   6.9252   6.9335   6.9364   6.9708
     7.0429   7.0876   7.1229   7.1451   7.1602   7.1907   7.3483   7.3760
     7.3827   7.3903   7.3916   7.4040   7.4129   7.4206   7.4456   7.4592
     7.4635   7.4869   7.4976   7.5020   7.5050   7.5077   7.5238   7.5413
     7.5462   7.5732   7.5910   7.5951   7.6145   7.6308   7.6389   7.6522
     7.6620   7.6701   7.6764   7.6889   7.6928   7.7211   7.7895   7.8491
     7.8874   7.9039   7.9092   7.9250   7.9411   7.9633   7.9816   7.9922
     8.0110   8.0214   8.0577   8.0673   8.0685   8.1940   8.2789   8.2938
     8.4096   8.4956   8.6041   8.6153   8.6338   8.6697   8.6777   8.7688
     8.7754   8.7907   8.9404   9.0008   9.1287   9.2194  12.6216  12.6769
    13.2942  13.3095  13.3131  13.4012  13.8817  13.8873  13.8908  13.9247
    14.0630  14.0682  14.0785  14.0878  14.1311  14.1840  14.4446  14.4772
    14.4910  14.4990  14.5197  14.5331  14.5372  14.5431  14.5560  14.5611
    14.5731  14.5817  14.5970  14.6601  14.7145  14.7273  14.7430  14.7553
    14.7592  14.7856  14.7907  14.9410  14.9813  15.0910  15.1595  15.1706
    15.2173  15.2202  15.2623  15.3299  15.3852  15.5476  15.6494  15.6778
    15.7085  15.7240  15.7679  15.8660  16.0906  16.1214  16.1408  16.1435
    16.1542  16.2009  16.2352  16.2388  16.2546  16.3807  16.6695  16.6830
    16.6887  16.7207  16.7688  16.7782  16.7845  16.8001  16.9292  16.9454

     occupation numbers 
     1.0000   1.0000   1.0000   1.0000   1.0000   1.0000   1.0000   1.0000
     1.0000   1.0000   1.0000   1.0000   1.0000   1.0000   1.0000   1.0000
     1.0000   1.0000   1.0000   1.0000   1.0000   1.0000   1.0000   1.0000
     1.0000   1.0000   1.0000   1.0000   1.0000   1.0000   1.0000   1.0000
     1.0000   1.0000   1.0000   1.0000   1.0000   1.0000   1.0000   1.0000
     1.0000   1.0000   1.0000   1.0000   1.0000   1.0000   1.0000   1.0000
     1.0000   1.0000   1.0000   1.0000   1.0000   1.0000   1.0000   1.0000
     1.0000   1.0000   1.0000   1.0000   1.0000   1.0000   1.0000   1.0000
     1.0000   1.0000   1.0000   1.0000   1.0000   1.0000   1.0000   1.0000
     1.0000   1.0000   1.0000   1.0000   1.0000   1.0000   1.0000   1.0000
     1.0000   1.0000   1.0000   1.0000   1.0000   1.0000   1.0000   1.0000
     1.0000   1.0000   1.0000   1.0000   1.0000   1.0000   1.0000   1.0000
     1.0000   1.0000   1.0000   1.0000   1.0000   1.0000   1.0000   1.0000
     1.0000   1.0000   1.0000   1.0000   1.0000   1.0000   1.0000   1.0000
     1.0000   1.0000   1.0000   1.0000   1.0000   1.0000   1.0000   1.0000
     1.0000   1.0000   1.0000   1.0000   1.0000   1.0000   1.0000   1.0000
     1.0000   1.0000   1.0000   1.0000   1.0000   1.0000   1.0000   1.0000
     1.0000   1.0000   1.0000   1.0000   1.0000   1.0000   1.0000   1.0000
     1.0000   1.0000   1.0000   1.0000   1.0000   1.0000   1.0000   1.0000
     1.0000   1.0000   1.0000   1.0000   1.0000   1.0000   1.0000   1.0000
     1.0000   1.0000   1.0000   1.0000   1.0000   1.0000   1.0000   1.0000
     1.0000   1.0000   1.0000   1.0000   1.0000   1.0000   1.0000   1.0000
     1.0000   1.0000   1.0000   1.0000   1.0000   1.0000   1.0000   1.0000
     1.0000   1.0000   1.0000   1.0000   1.0000   1.0000   1.0000   1.0000
     1.0000   1.0000   1.0000   1.0000   1.0000   1.0000   1.0000   1.0000
     1.0000   1.0000   1.0000   1.0000   1.0000   1.0000   1.0000   1.0000
     1.0000   1.0000   1.0000   1.0000   1.0000   1.0000   1.0000   1.0000
     1.0000   1.0000   1.0000   1.0000   1.0000   1.0000   1.0000   1.0000
     1.0000   1.0000   1.0000   1.0000   1.0000   1.0000   1.0000   1.0000
     1.0000   1.0000   1.0000   1.0000   1.0000   1.0000   1.0000   1.0000
     1.0000   1.0000   1.0000   1.0000   1.0000   1.0000   1.0000   1.0000
     1.0000   1.0000   1.0000   1.0000   1.0000   1.0000   1.0000   1.0000
     1.0000   1.0000   1.0000   1.0000   1.0000   1.0000   1.0000   1.0000
     1.0000   1.0000   1.0000   1.0000   1.0000   1.0000   1.0000   1.0000
     1.0000   1.0000   1.0000   1.0000   1.0000   1.0000   1.0000   1.0000
     1.0000   1.0000   1.0000   1.0000   1.0000   1.0000   1.0000   1.0000
     1.0000   1.0000   1.0000   1.0000   1.0000   1.0000   1.0000   1.0000
     1.0000   1.0000   1.0000   1.0000   1.0000   1.0000   1.0000   1.0000
     1.0000   1.0000   1.0000   1.0000   1.0000   1.0000   1.0000   1.0000
     1.0000   1.0000   1.0000   1.0000   1.0000   1.0000   1.0000   1.0000
     1.0000   1.0000   1.0000   1.0000   1.0000   1.0000   1.0000   1.0000
     1.0000   1.0000   1.0000   1.0000   1.0000   1.0000   1.0000   1.0000
     1.0000   1.0000   1.0000   1.0000   1.0000   1.0000   1.0000   1.0000
     1.0000   1.0000   1.0000   1.0000   1.0000   1.0000   1.0000   1.0000
     1.0000   1.0000   1.0000   1.0000   1.0000   1.0000   1.0000   1.0000
     1.0000   1.0000   1.0000   1.0000   1.0000   1.0000   1.0000   1.0000
     1.0000   1.0000   1.0000   1.0000   1.0000   1.0000   1.0000   1.0000
     1.0000   1.0000   1.0000   1.0000   1.0000   1.0000   1.0000   1.0000
     1.0000   1.0000   1.0000   1.0000   1.0000   1.0000   1.0000   1.0000
     1.0000   1.0000   1.0000   1.0000   1.0000   1.0000   1.0000   1.0000
     1.0000   1.0000   1.0000   1.0000   1.0000   1.0000   1.0000   1.0000
     1.0000   1.0000   1.0000   1.0000   1.0000   1.0000   1.0000   1.0000
     1.0000   1.0000   1.0000   1.0000   1.0000   1.0000   1.0000   1.0000
     1.0000   1.0000   1.0000   1.0000   1.0000   1.0000   1.0000   1.0000
     1.0000   1.0000   1.0000   1.0000   1.0000   1.0000   1.0000   1.0000
     1.0000   1.0000   1.0000   1.0000   1.0000   1.0000   1.0000   1.0000
     1.0000   1.0000   1.0000   1.0000   1.0000   1.0000   1.0000   1.0000
     1.0000   1.0000   1.0000   1.0000   1.0000   1.0000   1.0000   1.0000
     1.0000   1.0000   1.0000   1.0000   1.0000   1.0000   1.0000   1.0000
     1.0000   1.0000   1.0000   1.0000   1.0000   1.0000   1.0000   1.0000
     1.0000   1.0000   1.0000   1.0000   1.0000   1.0000   0.0000   0.0000
     0.0000   0.0000   0.0000   0.0000   0.0000   0.0000   0.0000   0.0000
     0.0000   0.0000   0.0000   0.0000   0.0000   0.0000   0.0000   0.0000
     0.0000   0.0000   0.0000   0.0000   0.0000   0.0000   0.0000   0.0000
     0.0000   0.0000   0.0000   0.0000   0.0000   0.0000   0.0000   0.0000
     0.0000   0.0000   0.0000   0.0000   0.0000   0.0000   0.0000   0.0000
     0.0000   0.0000   0.0000   0.0000   0.0000   0.0000   0.0000   0.0000
     0.0000   0.0000   0.0000   0.0000   0.0000   0.0000   0.0000   0.0000
     0.0000   0.0000   0.0000   0.0000   0.0000   0.0000   0.0000   0.0000
     0.0000   0.0000   0.0000   0.0000   0.0000   0.0000   0.0000   0.0000

          k = 0.2500 0.5774 0.0000 ( 51248 PWs)   bands (ev):

    -6.2175  -6.1929  -6.1074  -5.9998  -5.9933  -5.9845  -5.9640  -5.9168
    -5.8897  -5.7697  -5.7170  -5.7113  -5.6982  -5.6941  -5.6878  -5.6839
    -5.6725  -5.6718  -5.6663  -5.6618  -5.6582  -5.6553  -5.6487  -5.6347
    -5.6330  -5.6280  -5.6216  -5.6209  -5.6130  -5.6055  -5.6008  -5.5972
    -5.5948  -5.5913  -5.5885  -5.5743  -5.5675  -5.5601  -5.5590  -5.5570
    -5.5497  -5.5452  -5.5443  -5.5429  -5.5411  -5.5406  -5.5381  -5.5356
    -5.5331  -5.5307  -5.5194  -5.4955  -5.4925  -4.2495  -4.1837  -4.1790
    -4.1778  -4.1750  -4.1731  -4.1695  -4.1685  -4.1674  -4.1666  -4.1639
    -4.1616  -4.1594  -4.1579  -4.1572  -4.1543  -4.1540  -4.1531  -4.1517
    -4.1508  -4.1488  -4.1483  -4.1471  -4.1453  -4.1431  -4.1424  -4.1390
    -4.1385  -4.1359  -4.1338  -4.1333  -4.1308  -4.1299  -4.1287  -4.1273
    -4.1260  -4.1258  -4.1246  -4.1237  -4.1223  -4.1209  -4.1192  -4.1182
    -4.1174  -4.1159  -4.1153  -4.1135  -4.1131  -4.1116  -4.1108  -4.1102
    -4.1091  -4.1069  -4.1062  -4.1059  -4.1043  -4.1034  -4.1016  -4.1007
    -4.0997  -4.0986  -4.0967  -4.0961  -4.0951  -4.0933  -4.0923  -4.0922
    -4.0906  -4.0892  -4.0881  -4.0850  -4.0822  -4.0813  -4.0797  -4.0778
    -4.0748  -4.0731  -4.0694  -4.0662  -4.0623  -4.0610  -4.0550  -4.0523
    -4.0503  -4.0472  -4.0434  -4.0417  -4.0401  -4.0367  -4.0360  -4.0321
    -4.0302  -4.0274  -4.0269  -4.0239  -4.0232  -4.0214  -4.0204  -4.0178
    -4.0160  -4.0148  -4.0132  -4.0128  -4.0121  -4.0112  -4.0100  -4.0091
    -4.0061  -4.0050  -4.0025  -4.0018  -4.0014  -3.9999  -3.9987  -3.9978
    -3.9969  -3.9962  -3.9905  -3.9883  -3.9880  -3.9865  -3.9844  -3.9840
    -3.9823  -3.9808  -3.9799  -3.9785  -3.9780  -3.9763  -3.9756  -3.9751
    -3.9733  -3.9725  -3.9718  -3.9707  -3.9698  -3.9692  -3.9679  -3.9659
    -3.9658  -3.9644  -3.9633  -3.9617  -3.9610  -3.9596  -3.9553  -3.9519
    -3.9498  -3.9484  -3.9483  -3.9472  -3.9454  -3.9401  -3.9379  -3.9379
    -3.9346  -3.9338  -3.9315  -3.9310  -3.9306  -3.9293  -3.9269  -3.9263
    -3.9232  -3.9213  -3.9202  -3.9191  -3.9183  -3.9169  -3.9159  -3.9146
    -3.9140  -3.9122  -3.9094  -3.9082  -3.9075  -3.9073  -3.9063  -3.9057
    -3.9038  -3.9033  -3.9012  -3.9005  -3.8994  -3.8989  -3.8974  -3.8952
    -3.8942  -3.8935  -3.8927  -3.8911  -3.8879  -3.8873  -3.8867  -3.8852
    -3.8844  -3.8811  -3.8781  -3.8775  -3.8743  -3.8732  -3.8703  -3.8665
    -3.8645  -3.8599  -3.8544  -3.8495  -3.8453  -3.8405  -3.8387  -3.8294
    -3.8196  -3.8162  -3.8010  -3.7911  -3.7751  -3.7685  -3.7523  -3.7449
    -3.7432  -3.7339  -3.7279  -3.7151  -3.6978  -3.6235  -3.6204  -3.3329
    -3.1445  -3.1433  -3.1377  -3.1328  -3.1261  -3.1222  -3.1132  -3.0801
    -3.0265  -3.0072  -2.9304  -2.9262  -2.9158  -2.8637  -2.6825  -2.6605
    -2.6472  -2.5837  -2.5760  -2.5575  -2.5562  -2.5455  -2.5165  -2.4837
    -2.4601  -2.4268  -2.4033  -2.3647  -2.3635  -2.3523  -2.3514  -2.3271
    -2.3097  -2.3009  -2.2817  -2.2798  -2.2628  -2.1771  -2.1395  -2.1152
    -2.0369  -1.9910  -1.9674  -0.1226   2.7222   2.7365   2.8057   2.8092
     2.8173   2.8202   2.8447   2.8534   3.0024   3.0221   3.1156   3.1207
     3.2740   3.2877   3.3354   3.3370   3.3512   3.3682   3.4019   3.4270
     3.4326   3.4557   3.5808   3.5978   3.6032   3.6400   3.6568   3.9948
     4.0071   4.0115   4.0349   4.1083   4.1328   4.1344   4.1398   4.1406
     4.1503   4.1600   4.2249   4.2624   4.3211   4.3947   4.5141   4.5739
     4.8711   5.0528   5.1403   5.1549   5.2241   5.2308   5.2777   5.7906
     5.7975   5.8552   5.8880   5.9084   5.9174   5.9265   5.9625   6.0251
     6.0323   6.0411   6.0420   6.0535   6.0942   6.1288   6.1673   6.1986
     6.2144   6.2233   6.2697   6.2959   6.3106   6.3230   6.3434   6.3767
     6.4554   6.4668   6.5292   6.5377   6.5725   6.5837   6.5880   6.6161
     6.6337   6.7190   6.7497   6.9139   6.9248   6.9277   6.9340   6.9416
     6.9517   6.9528   6.9627   6.9781   6.9909   7.0191   7.0362   7.0519
     7.0592   7.0808   7.0868   7.0915   7.0974   7.1052   7.1355   7.1526
     7.1739   7.1882   7.1970   7.2982   7.4144   7.4354   7.5082   7.5422
     7.5834   7.6166   7.6623   7.6715   7.7022   7.7468   7.7613   7.7891
     7.8207   7.8237   7.8295   7.8313   7.8322   7.8387   7.8586   7.8752
     7.8788   7.8944   7.9533   7.9684   7.9840   8.0209   8.0247   8.0485
     8.0626   8.0774   8.1687   8.1851   8.2753   8.2782   8.3093   8.3205
     8.3316   8.3415   8.4962   8.5290   8.5362   8.5573   8.6030   8.7376
     8.7904   8.8274   8.8893   8.9652   9.1611   9.1682  12.7275  12.7689
    13.1641  13.5700  13.5753  13.5989  13.6190  13.6403  13.6941  13.8356
    13.8402  13.8698  13.8837  13.8850  14.0015  14.5129  14.5187  14.5377
    14.5643  14.6622  14.6693  14.6843  14.7059  14.7181  14.8173  14.8233
    14.8347  14.8376  14.8548  14.8658  14.8963  14.9019  14.9129  14.9144
    14.9383  15.0132  15.0195  15.0897  15.1628  15.1800  15.1815  15.1930
    15.2098  15.2458  15.2608  15.2737  15.2763  15.2903  15.2973  15.3007
    15.3116  15.3219  15.3640  15.3938  15.4357  15.6542  15.8945  16.5040
    16.5160  16.5460  16.5541  16.5952  16.6938  16.7001  16.7079  16.7173
    16.7235  16.7347  16.7377  16.7393  16.7472  16.7692  16.7889  16.8315

     occupation numbers 
     1.0000   1.0000   1.0000   1.0000   1.0000   1.0000   1.0000   1.0000
     1.0000   1.0000   1.0000   1.0000   1.0000   1.0000   1.0000   1.0000
     1.0000   1.0000   1.0000   1.0000   1.0000   1.0000   1.0000   1.0000
     1.0000   1.0000   1.0000   1.0000   1.0000   1.0000   1.0000   1.0000
     1.0000   1.0000   1.0000   1.0000   1.0000   1.0000   1.0000   1.0000
     1.0000   1.0000   1.0000   1.0000   1.0000   1.0000   1.0000   1.0000
     1.0000   1.0000   1.0000   1.0000   1.0000   1.0000   1.0000   1.0000
     1.0000   1.0000   1.0000   1.0000   1.0000   1.0000   1.0000   1.0000
     1.0000   1.0000   1.0000   1.0000   1.0000   1.0000   1.0000   1.0000
     1.0000   1.0000   1.0000   1.0000   1.0000   1.0000   1.0000   1.0000
     1.0000   1.0000   1.0000   1.0000   1.0000   1.0000   1.0000   1.0000
     1.0000   1.0000   1.0000   1.0000   1.0000   1.0000   1.0000   1.0000
     1.0000   1.0000   1.0000   1.0000   1.0000   1.0000   1.0000   1.0000
     1.0000   1.0000   1.0000   1.0000   1.0000   1.0000   1.0000   1.0000
     1.0000   1.0000   1.0000   1.0000   1.0000   1.0000   1.0000   1.0000
     1.0000   1.0000   1.0000   1.0000   1.0000   1.0000   1.0000   1.0000
     1.0000   1.0000   1.0000   1.0000   1.0000   1.0000   1.0000   1.0000
     1.0000   1.0000   1.0000   1.0000   1.0000   1.0000   1.0000   1.0000
     1.0000   1.0000   1.0000   1.0000   1.0000   1.0000   1.0000   1.0000
     1.0000   1.0000   1.0000   1.0000   1.0000   1.0000   1.0000   1.0000
     1.0000   1.0000   1.0000   1.0000   1.0000   1.0000   1.0000   1.0000
     1.0000   1.0000   1.0000   1.0000   1.0000   1.0000   1.0000   1.0000
     1.0000   1.0000   1.0000   1.0000   1.0000   1.0000   1.0000   1.0000
     1.0000   1.0000   1.0000   1.0000   1.0000   1.0000   1.0000   1.0000
     1.0000   1.0000   1.0000   1.0000   1.0000   1.0000   1.0000   1.0000
     1.0000   1.0000   1.0000   1.0000   1.0000   1.0000   1.0000   1.0000
     1.0000   1.0000   1.0000   1.0000   1.0000   1.0000   1.0000   1.0000
     1.0000   1.0000   1.0000   1.0000   1.0000   1.0000   1.0000   1.0000
     1.0000   1.0000   1.0000   1.0000   1.0000   1.0000   1.0000   1.0000
     1.0000   1.0000   1.0000   1.0000   1.0000   1.0000   1.0000   1.0000
     1.0000   1.0000   1.0000   1.0000   1.0000   1.0000   1.0000   1.0000
     1.0000   1.0000   1.0000   1.0000   1.0000   1.0000   1.0000   1.0000
     1.0000   1.0000   1.0000   1.0000   1.0000   1.0000   1.0000   1.0000
     1.0000   1.0000   1.0000   1.0000   1.0000   1.0000   1.0000   1.0000
     1.0000   1.0000   1.0000   1.0000   1.0000   1.0000   1.0000   1.0000
     1.0000   1.0000   1.0000   1.0000   1.0000   1.0000   1.0000   1.0000
     1.0000   1.0000   1.0000   1.0000   1.0000   1.0000   1.0000   1.0000
     1.0000   1.0000   1.0000   1.0000   1.0000   1.0000   1.0000   1.0000
     1.0000   1.0000   1.0000   1.0000   1.0000   1.0000   1.0000   1.0000
     1.0000   1.0000   1.0000   1.0000   1.0000   1.0000   1.0000   1.0000
     1.0000   1.0000   1.0000   1.0000   1.0000   1.0000   1.0000   1.0000
     1.0000   1.0000   1.0000   1.0000   1.0000   1.0000   1.0000   1.0000
     1.0000   1.0000   1.0000   1.0000   1.0000   1.0000   1.0000   1.0000
     1.0000   1.0000   1.0000   1.0000   1.0000   1.0000   1.0000   1.0000
     1.0000   1.0000   1.0000   1.0000   1.0000   1.0000   1.0000   1.0000
     1.0000   1.0000   1.0000   1.0000   1.0000   1.0000   1.0000   1.0000
     1.0000   1.0000   1.0000   1.0000   1.0000   1.0000   1.0000   1.0000
     1.0000   1.0000   1.0000   1.0000   1.0000   1.0000   1.0000   1.0000
     1.0000   1.0000   1.0000   1.0000   1.0000   1.0000   1.0000   1.0000
     1.0000   1.0000   1.0000   1.0000   1.0000   1.0000   1.0000   1.0000
     1.0000   1.0000   1.0000   1.0000   1.0000   1.0000   1.0000   1.0000
     1.0000   1.0000   1.0000   1.0000   1.0000   1.0000   1.0000   1.0000
     1.0000   1.0000   1.0000   1.0000   1.0000   1.0000   1.0000   1.0000
     1.0000   1.0000   1.0000   1.0000   1.0000   1.0000   1.0000   1.0000
     1.0000   1.0000   1.0000   1.0000   1.0000   1.0000   1.0000   1.0000
     1.0000   1.0000   1.0000   1.0000   1.0000   1.0000   1.0000   1.0000
     1.0000   1.0000   1.0000   1.0000   1.0000   1.0000   1.0000   1.0000
     1.0000   1.0000   1.0000   1.0000   1.0000   1.0000   1.0000   1.0000
     1.0000   1.0000   1.0000   1.0000   1.0000   1.0000   1.0000   1.0000
     1.0000   1.0000   1.0000   1.0000   1.0000   1.0000   1.0000   1.0000
     1.0000   1.0000   1.0000   1.0000   1.0000   1.0000   0.0000   0.0000
     0.0000   0.0000   0.0000   0.0000   0.0000   0.0000   0.0000   0.0000
     0.0000   0.0000   0.0000   0.0000   0.0000   0.0000   0.0000   0.0000
     0.0000   0.0000   0.0000   0.0000   0.0000   0.0000   0.0000   0.0000
     0.0000   0.0000   0.0000   0.0000   0.0000   0.0000   0.0000   0.0000
     0.0000   0.0000   0.0000   0.0000   0.0000   0.0000   0.0000   0.0000
     0.0000   0.0000   0.0000   0.0000   0.0000   0.0000   0.0000   0.0000
     0.0000   0.0000   0.0000   0.0000   0.0000   0.0000   0.0000   0.0000
     0.0000   0.0000   0.0000   0.0000   0.0000   0.0000   0.0000   0.0000
     0.0000   0.0000   0.0000   0.0000   0.0000   0.0000   0.0000   0.0000

          k = 0.2500 0.5774 0.1533 ( 51267 PWs)   bands (ev):

    -6.2019  -6.1787  -6.0978  -6.0829  -6.0527  -5.9804  -5.9046  -5.8831
    -5.8262  -5.7629  -5.7484  -5.7347  -5.7122  -5.7071  -5.7035  -5.6954
    -5.6703  -5.6645  -5.6614  -5.6585  -5.6555  -5.6518  -5.6488  -5.6316
    -5.6298  -5.6265  -5.6232  -5.6173  -5.6128  -5.6072  -5.6018  -5.5983
    -5.5904  -5.5815  -5.5795  -5.5704  -5.5657  -5.5622  -5.5606  -5.5570
    -5.5510  -5.5467  -5.5448  -5.5440  -5.5423  -5.5409  -5.5379  -5.5356
    -5.5348  -5.5327  -5.5200  -5.4956  -5.4928  -4.2495  -4.1834  -4.1780
    -4.1774  -4.1731  -4.1717  -4.1708  -4.1693  -4.1669  -4.1660  -4.1618
    -4.1608  -4.1581  -4.1570  -4.1567  -4.1547  -4.1530  -4.1524  -4.1503
    -4.1498  -4.1489  -4.1474  -4.1467  -4.1452  -4.1445  -4.1425  -4.1420
    -4.1400  -4.1392  -4.1385  -4.1377  -4.1352  -4.1332  -4.1312  -4.1292
    -4.1277  -4.1261  -4.1249  -4.1237  -4.1229  -4.1206  -4.1199  -4.1188
    -4.1175  -4.1168  -4.1159  -4.1149  -4.1138  -4.1132  -4.1114  -4.1104
    -4.1098  -4.1080  -4.1073  -4.1069  -4.1053  -4.1049  -4.1026  -4.1008
    -4.1005  -4.0996  -4.0979  -4.0957  -4.0941  -4.0938  -4.0908  -4.0897
    -4.0874  -4.0836  -4.0830  -4.0812  -4.0762  -4.0750  -4.0734  -4.0709
    -4.0703  -4.0680  -4.0645  -4.0626  -4.0616  -4.0594  -4.0565  -4.0536
    -4.0491  -4.0466  -4.0447  -4.0419  -4.0412  -4.0400  -4.0375  -4.0349
    -4.0323  -4.0310  -4.0291  -4.0260  -4.0249  -4.0239  -4.0223  -4.0206
    -4.0190  -4.0173  -4.0162  -4.0143  -4.0136  -4.0113  -4.0103  -4.0085
    -4.0070  -4.0056  -4.0025  -4.0007  -3.9991  -3.9978  -3.9964  -3.9957
    -3.9947  -3.9936  -3.9923  -3.9911  -3.9892  -3.9874  -3.9860  -3.9839
    -3.9819  -3.9812  -3.9805  -3.9801  -3.9779  -3.9768  -3.9762  -3.9746
    -3.9743  -3.9727  -3.9722  -3.9701  -3.9690  -3.9678  -3.9668  -3.9653
    -3.9643  -3.9625  -3.9619  -3.9602  -3.9592  -3.9579  -3.9545  -3.9515
    -3.9504  -3.9472  -3.9460  -3.9450  -3.9428  -3.9410  -3.9389  -3.9364
    -3.9350  -3.9347  -3.9333  -3.9313  -3.9305  -3.9287  -3.9276  -3.9263
    -3.9251  -3.9231  -3.9216  -3.9198  -3.9192  -3.9181  -3.9168  -3.9164
    -3.9148  -3.9141  -3.9118  -3.9112  -3.9102  -3.9072  -3.9070  -3.9054
    -3.9043  -3.9032  -3.9007  -3.9002  -3.8993  -3.8980  -3.8967  -3.8953
    -3.8941  -3.8938  -3.8924  -3.8907  -3.8888  -3.8883  -3.8874  -3.8864
    -3.8847  -3.8813  -3.8796  -3.8785  -3.8747  -3.8735  -3.8711  -3.8677
    -3.8662  -3.8642  -3.8592  -3.8556  -3.8537  -3.8494  -3.8408  -3.8391
    -3.8223  -3.8195  -3.7908  -3.7784  -3.7711  -3.7588  -3.7473  -3.7390
    -3.7374  -3.7306  -3.7043  -3.6873  -3.6305  -3.6209  -3.5993  -3.3754
    -3.3524  -3.3203  -3.2531  -3.2091  -3.1127  -3.0963  -3.0136  -3.0065
    -2.9756  -2.8932  -2.8655  -2.8118  -2.8044  -2.7580  -2.6779  -2.6722
    -2.6545  -2.6437  -2.6212  -2.5966  -2.5741  -2.5305  -2.5148  -2.5106
    -2.4914  -2.4870  -2.4760  -2.4406  -2.3917  -2.3727  -2.3468  -2.3183
    -2.2846  -2.2466  -2.2176  -2.2098  -2.2003  -2.1778  -2.1463  -2.1255
    -2.0663  -2.0196  -1.9963  -0.1251   2.7566   2.7738   2.8401   2.8447
     2.8663   2.8808   2.9116   2.9501   2.9754   3.0428   3.0674   3.0785
     3.0959   3.1262   3.1410   3.4058   3.4221   3.4809   3.4952   3.5371
     3.5445   3.5550   3.5721   3.6000   3.6166   3.6246   3.6334   3.6695
     3.7384   3.7532   3.8051   3.8471   4.0298   4.0599   4.0772   4.1346
     4.2162   4.2442   4.4836   4.5062   4.5517   4.6218   4.6865   4.7700
     4.8609   5.1739   5.2659   5.2791   5.3194   5.3284   5.3792   5.4962
     5.7402   5.7659   5.7690   5.7742   5.7860   5.8000   5.8226   5.8454
     5.9573   5.9898   6.0938   6.0981   6.1028   6.1132   6.1178   6.1332
     6.1521   6.1630   6.1943   6.2162   6.3002   6.3157   6.3741   6.4485
     6.4581   6.5436   6.5474   6.5589   6.5692   6.5718   6.5879   6.6067
     6.6341   6.6386   6.6712   6.6942   6.8158   6.8263   6.8435   6.8556
     6.8962   7.0574   7.0711   7.0942   7.1198   7.1303   7.1528   7.1579
     7.1635   7.1712   7.1845   7.2073   7.2301   7.2850   7.2950   7.3113
     7.3258   7.3474   7.3691   7.4041   7.4304   7.4609   7.5054   7.5347
     7.5462   7.5983   7.6835   7.6958   7.7020   7.7098   7.7280   7.7348
     7.7578   7.7618   7.7826   7.7941   7.8011   7.8108   7.8231   7.8364
     7.8451   7.8666   7.8758   7.8858   7.9122   7.9428   7.9645   7.9884
     8.0015   8.0363   8.0498   8.1159   8.1329   8.2102   8.2727   8.3062
     8.3845   8.4654   8.5162   8.5452   8.6244   8.6609   8.6762   8.7582
     8.7822   8.8058   8.8691   8.9726   9.1479   9.1589  12.7886  12.8302
    13.1983  13.2519  13.3084  13.5492  13.6322  13.7502  13.9250  13.9369
    14.0008  14.0154  14.0287  14.0852  14.2091  14.2486  14.5098  14.5334
    14.5492  14.5755  14.6330  14.6691  14.6734  14.6820  14.6894  14.7004
    14.7130  14.7229  14.7429  14.7805  14.7996  14.8173  14.8513  14.8681
    14.9035  14.9523  15.0332  15.0897  15.0967  15.1229  15.1353  15.1470
    15.1739  15.2032  15.2371  15.2426  15.2724  15.3653  15.3775  15.4166
    15.4366  15.5241  15.5601  15.6193  15.6474  15.6610  15.9173  16.5219
    16.5615  16.5731  16.5918  16.6011  16.6289  16.6553  16.6599  16.6698
    16.6901  16.7382  16.7475  16.7657  16.7783  16.8207  16.8460  16.8667

     occupation numbers 
     1.0000   1.0000   1.0000   1.0000   1.0000   1.0000   1.0000   1.0000
     1.0000   1.0000   1.0000   1.0000   1.0000   1.0000   1.0000   1.0000
     1.0000   1.0000   1.0000   1.0000   1.0000   1.0000   1.0000   1.0000
     1.0000   1.0000   1.0000   1.0000   1.0000   1.0000   1.0000   1.0000
     1.0000   1.0000   1.0000   1.0000   1.0000   1.0000   1.0000   1.0000
     1.0000   1.0000   1.0000   1.0000   1.0000   1.0000   1.0000   1.0000
     1.0000   1.0000   1.0000   1.0000   1.0000   1.0000   1.0000   1.0000
     1.0000   1.0000   1.0000   1.0000   1.0000   1.0000   1.0000   1.0000
     1.0000   1.0000   1.0000   1.0000   1.0000   1.0000   1.0000   1.0000
     1.0000   1.0000   1.0000   1.0000   1.0000   1.0000   1.0000   1.0000
     1.0000   1.0000   1.0000   1.0000   1.0000   1.0000   1.0000   1.0000
     1.0000   1.0000   1.0000   1.0000   1.0000   1.0000   1.0000   1.0000
     1.0000   1.0000   1.0000   1.0000   1.0000   1.0000   1.0000   1.0000
     1.0000   1.0000   1.0000   1.0000   1.0000   1.0000   1.0000   1.0000
     1.0000   1.0000   1.0000   1.0000   1.0000   1.0000   1.0000   1.0000
     1.0000   1.0000   1.0000   1.0000   1.0000   1.0000   1.0000   1.0000
     1.0000   1.0000   1.0000   1.0000   1.0000   1.0000   1.0000   1.0000
     1.0000   1.0000   1.0000   1.0000   1.0000   1.0000   1.0000   1.0000
     1.0000   1.0000   1.0000   1.0000   1.0000   1.0000   1.0000   1.0000
     1.0000   1.0000   1.0000   1.0000   1.0000   1.0000   1.0000   1.0000
     1.0000   1.0000   1.0000   1.0000   1.0000   1.0000   1.0000   1.0000
     1.0000   1.0000   1.0000   1.0000   1.0000   1.0000   1.0000   1.0000
     1.0000   1.0000   1.0000   1.0000   1.0000   1.0000   1.0000   1.0000
     1.0000   1.0000   1.0000   1.0000   1.0000   1.0000   1.0000   1.0000
     1.0000   1.0000   1.0000   1.0000   1.0000   1.0000   1.0000   1.0000
     1.0000   1.0000   1.0000   1.0000   1.0000   1.0000   1.0000   1.0000
     1.0000   1.0000   1.0000   1.0000   1.0000   1.0000   1.0000   1.0000
     1.0000   1.0000   1.0000   1.0000   1.0000   1.0000   1.0000   1.0000
     1.0000   1.0000   1.0000   1.0000   1.0000   1.0000   1.0000   1.0000
     1.0000   1.0000   1.0000   1.0000   1.0000   1.0000   1.0000   1.0000
     1.0000   1.0000   1.0000   1.0000   1.0000   1.0000   1.0000   1.0000
     1.0000   1.0000   1.0000   1.0000   1.0000   1.0000   1.0000   1.0000
     1.0000   1.0000   1.0000   1.0000   1.0000   1.0000   1.0000   1.0000
     1.0000   1.0000   1.0000   1.0000   1.0000   1.0000   1.0000   1.0000
     1.0000   1.0000   1.0000   1.0000   1.0000   1.0000   1.0000   1.0000
     1.0000   1.0000   1.0000   1.0000   1.0000   1.0000   1.0000   1.0000
     1.0000   1.0000   1.0000   1.0000   1.0000   1.0000   1.0000   1.0000
     1.0000   1.0000   1.0000   1.0000   1.0000   1.0000   1.0000   1.0000
     1.0000   1.0000   1.0000   1.0000   1.0000   1.0000   1.0000   1.0000
     1.0000   1.0000   1.0000   1.0000   1.0000   1.0000   1.0000   1.0000
     1.0000   1.0000   1.0000   1.0000   1.0000   1.0000   1.0000   1.0000
     1.0000   1.0000   1.0000   1.0000   1.0000   1.0000   1.0000   1.0000
     1.0000   1.0000   1.0000   1.0000   1.0000   1.0000   1.0000   1.0000
     1.0000   1.0000   1.0000   1.0000   1.0000   1.0000   1.0000   1.0000
     1.0000   1.0000   1.0000   1.0000   1.0000   1.0000   1.0000   1.0000
     1.0000   1.0000   1.0000   1.0000   1.0000   1.0000   1.0000   1.0000
     1.0000   1.0000   1.0000   1.0000   1.0000   1.0000   1.0000   1.0000
     1.0000   1.0000   1.0000   1.0000   1.0000   1.0000   1.0000   1.0000
     1.0000   1.0000   1.0000   1.0000   1.0000   1.0000   1.0000   1.0000
     1.0000   1.0000   1.0000   1.0000   1.0000   1.0000   1.0000   1.0000
     1.0000   1.0000   1.0000   1.0000   1.0000   1.0000   1.0000   1.0000
     1.0000   1.0000   1.0000   1.0000   1.0000   1.0000   1.0000   1.0000
     1.0000   1.0000   1.0000   1.0000   1.0000   1.0000   1.0000   1.0000
     1.0000   1.0000   1.0000   1.0000   1.0000   1.0000   1.0000   1.0000
     1.0000   1.0000   1.0000   1.0000   1.0000   1.0000   1.0000   1.0000
     1.0000   1.0000   1.0000   1.0000   1.0000   1.0000   1.0000   1.0000
     1.0000   1.0000   1.0000   1.0000   1.0000   1.0000   1.0000   1.0000
     1.0000   1.0000   1.0000   1.0000   1.0000   1.0000   1.0000   1.0000
     1.0000   1.0000   1.0000   1.0000   1.0000   1.0000   1.0000   1.0000
     1.0000   1.0000   1.0000   1.0000   1.0000   1.0000   1.0000   1.0000
     1.0000   1.0000   1.0000   1.0000   1.0000   1.0000   0.0000   0.0000
     0.0000   0.0000   0.0000   0.0000   0.0000   0.0000   0.0000   0.0000
     0.0000   0.0000   0.0000   0.0000   0.0000   0.0000   0.0000   0.0000
     0.0000   0.0000   0.0000   0.0000   0.0000   0.0000   0.0000   0.0000
     0.0000   0.0000   0.0000   0.0000   0.0000   0.0000   0.0000   0.0000
     0.0000   0.0000   0.0000   0.0000   0.0000   0.0000   0.0000   0.0000
     0.0000   0.0000   0.0000   0.0000   0.0000   0.0000   0.0000   0.0000
     0.0000   0.0000   0.0000   0.0000   0.0000   0.0000   0.0000   0.0000
     0.0000   0.0000   0.0000   0.0000   0.0000   0.0000   0.0000   0.0000
     0.0000   0.0000   0.0000   0.0000   0.0000   0.0000   0.0000   0.0000

          k = 0.2500 0.5774-0.3067 ( 51266 PWs)   bands (ev):

    -6.1648  -6.1510  -6.1450  -6.1135  -6.0654  -6.0227  -5.8201  -5.8184
    -5.8055  -5.7996  -5.7592  -5.7535  -5.7481  -5.7277  -5.6993  -5.6959
    -5.6821  -5.6754  -5.6608  -5.6500  -5.6478  -5.6455  -5.6426  -5.6360
    -5.6322  -5.6288  -5.6209  -5.6173  -5.6125  -5.6023  -5.5975  -5.5920
    -5.5828  -5.5818  -5.5776  -5.5712  -5.5631  -5.5599  -5.5584  -5.5553
    -5.5521  -5.5488  -5.5476  -5.5453  -5.5446  -5.5408  -5.5377  -5.5366
    -5.5356  -5.5349  -5.5207  -5.4958  -5.4930  -4.2495  -4.1830  -4.1780
    -4.1761  -4.1737  -4.1705  -4.1693  -4.1677  -4.1654  -4.1633  -4.1611
    -4.1600  -4.1585  -4.1570  -4.1554  -4.1540  -4.1533  -4.1525  -4.1517
    -4.1506  -4.1493  -4.1491  -4.1476  -4.1467  -4.1451  -4.1436  -4.1419
    -4.1417  -4.1398  -4.1381  -4.1372  -4.1363  -4.1351  -4.1333  -4.1321
    -4.1306  -4.1292  -4.1275  -4.1264  -4.1249  -4.1227  -4.1212  -4.1195
    -4.1180  -4.1175  -4.1167  -4.1149  -4.1145  -4.1132  -4.1123  -4.1109
    -4.1093  -4.1083  -4.1079  -4.1059  -4.1052  -4.1035  -4.1025  -4.1012
    -4.1004  -4.0997  -4.0974  -4.0957  -4.0938  -4.0932  -4.0904  -4.0878
    -4.0875  -4.0838  -4.0805  -4.0777  -4.0718  -4.0680  -4.0673  -4.0654
    -4.0623  -4.0620  -4.0608  -4.0573  -4.0550  -4.0531  -4.0512  -4.0501
    -4.0492  -4.0467  -4.0452  -4.0447  -4.0424  -4.0414  -4.0403  -4.0400
    -4.0389  -4.0362  -4.0349  -4.0334  -4.0329  -4.0285  -4.0262  -4.0243
    -4.0229  -4.0201  -4.0166  -4.0138  -4.0136  -4.0104  -4.0081  -4.0069
    -4.0061  -4.0035  -4.0024  -4.0011  -3.9994  -3.9962  -3.9955  -3.9949
    -3.9937  -3.9921  -3.9917  -3.9904  -3.9886  -3.9869  -3.9851  -3.9843
    -3.9829  -3.9811  -3.9807  -3.9801  -3.9787  -3.9770  -3.9759  -3.9748
    -3.9736  -3.9733  -3.9716  -3.9698  -3.9686  -3.9676  -3.9670  -3.9654
    -3.9626  -3.9623  -3.9597  -3.9588  -3.9572  -3.9554  -3.9551  -3.9526
    -3.9485  -3.9465  -3.9459  -3.9440  -3.9425  -3.9418  -3.9387  -3.9370
    -3.9364  -3.9352  -3.9338  -3.9324  -3.9313  -3.9300  -3.9290  -3.9272
    -3.9259  -3.9235  -3.9231  -3.9207  -3.9195  -3.9189  -3.9177  -3.9171
    -3.9162  -3.9149  -3.9134  -3.9121  -3.9116  -3.9085  -3.9071  -3.9059
    -3.9048  -3.9039  -3.9008  -3.8996  -3.8992  -3.8968  -3.8961  -3.8955
    -3.8940  -3.8937  -3.8925  -3.8911  -3.8897  -3.8893  -3.8881  -3.8859
    -3.8857  -3.8824  -3.8809  -3.8796  -3.8757  -3.8736  -3.8723  -3.8711
    -3.8671  -3.8661  -3.8594  -3.8558  -3.8534  -3.8494  -3.8469  -3.8403
    -3.8366  -3.8205  -3.7876  -3.7786  -3.7699  -3.7555  -3.7469  -3.7383
    -3.7342  -3.7292  -3.6389  -3.6293  -3.5656  -3.5592  -3.5515  -3.5366
    -3.4592  -3.4403  -3.2970  -3.2606  -3.0861  -3.0805  -3.0641  -3.0276
    -2.8500  -2.8384  -2.6816  -2.6812  -2.6737  -2.6702  -2.6662  -2.6600
    -2.6554  -2.6481  -2.6430  -2.6408  -2.6383  -2.6297  -2.6191  -2.5837
    -2.5535  -2.5107  -2.4581  -2.4523  -2.4310  -2.4301  -2.4082  -2.3079
    -2.2053  -2.1902  -2.1725  -2.1684  -2.1636  -2.1507  -2.1445  -2.1115
    -2.0887  -2.0811  -2.0690  -0.1275   2.8456   2.8547   2.8726   2.8894
     2.9284   2.9379   2.9407   2.9425   2.9586   2.9610   2.9957   3.0338
     3.1954   3.2083   3.2307   3.2464   3.3442   3.3615   3.4560   3.4644
     3.4770   3.5029   3.5376   3.5614   3.6075   3.6298   3.6457   3.6742
     3.8043   3.8431   3.8473   3.8555   3.8638   3.8910   3.9128   3.9646
     4.3650   4.3692   4.4016   4.4554   4.6923   4.7576   5.0583   5.0868
     5.2262   5.2338   5.2624   5.3568   5.4837   5.4967   5.5234   5.5320
     5.5421   5.5628   5.5806   5.5883   5.5964   5.6073   5.6410   5.7075
     5.7777   5.7888   5.8178   5.8381   6.1201   6.1551   6.2344   6.2550
     6.2676   6.2696   6.2998   6.3067   6.3284   6.3425   6.3431   6.3844
     6.4102   6.4496   6.4682   6.5084   6.5581   6.5636   6.5671   6.6181
     6.6201   6.6321   6.6410   6.6544   6.6655   6.7697   6.8990   6.9017
     6.9133   6.9213   6.9670   7.0396   7.3155   7.3265   7.3284   7.3308
     7.3352   7.3462   7.3549   7.3712   7.3855   7.4036   7.4348   7.4534
     7.5063   7.5108   7.5144   7.5380   7.5737   7.5748   7.5795   7.5866
     7.5876   7.5949   7.5966   7.6000   7.6031   7.6117   7.6187   7.6236
     7.6343   7.6369   7.6513   7.6602   7.6673   7.6886   7.7493   7.7604
     7.7658   7.7959   7.8292   7.8632   7.8741   7.8810   7.8919   7.9021
     7.9831   7.9989   8.0167   8.0865   8.1447   8.2130   8.2292   8.2780
     8.2971   8.4230   8.5993   8.6626   8.6956   8.6972   8.7480   8.7733
     8.7897   8.7982   8.8011   8.9808   9.1287   9.1511  12.9568  12.9747
    12.9807  13.0548  13.3019  13.3665  13.8562  13.8787  14.0713  14.0841
    14.1583  14.1656  14.1684  14.2026  14.3047  14.3144  14.3190  14.3304
    14.3671  14.3873  14.4130  14.4567  14.5972  14.6276  14.6760  14.6929
    14.7211  14.7574  14.8320  14.8390  14.8473  14.8571  14.8596  14.8685
    14.8699  14.8986  14.9036  14.9531  14.9675  14.9709  15.0038  15.1733
    15.2017  15.2123  15.2443  15.2513  15.2727  15.4078  15.4145  15.4287
    15.4556  15.5929  15.6228  15.7205  16.0990  16.1247  16.1455  16.1575
    16.1622  16.2578  16.6300  16.6360  16.6535  16.6588  16.6767  16.6874
    16.6963  16.7436  16.7684  16.7786  16.7895  16.8036  16.8142  16.8455

     occupation numbers 
     1.0000   1.0000   1.0000   1.0000   1.0000   1.0000   1.0000   1.0000
     1.0000   1.0000   1.0000   1.0000   1.0000   1.0000   1.0000   1.0000
     1.0000   1.0000   1.0000   1.0000   1.0000   1.0000   1.0000   1.0000
     1.0000   1.0000   1.0000   1.0000   1.0000   1.0000   1.0000   1.0000
     1.0000   1.0000   1.0000   1.0000   1.0000   1.0000   1.0000   1.0000
     1.0000   1.0000   1.0000   1.0000   1.0000   1.0000   1.0000   1.0000
     1.0000   1.0000   1.0000   1.0000   1.0000   1.0000   1.0000   1.0000
     1.0000   1.0000   1.0000   1.0000   1.0000   1.0000   1.0000   1.0000
     1.0000   1.0000   1.0000   1.0000   1.0000   1.0000   1.0000   1.0000
     1.0000   1.0000   1.0000   1.0000   1.0000   1.0000   1.0000   1.0000
     1.0000   1.0000   1.0000   1.0000   1.0000   1.0000   1.0000   1.0000
     1.0000   1.0000   1.0000   1.0000   1.0000   1.0000   1.0000   1.0000
     1.0000   1.0000   1.0000   1.0000   1.0000   1.0000   1.0000   1.0000
     1.0000   1.0000   1.0000   1.0000   1.0000   1.0000   1.0000   1.0000
     1.0000   1.0000   1.0000   1.0000   1.0000   1.0000   1.0000   1.0000
     1.0000   1.0000   1.0000   1.0000   1.0000   1.0000   1.0000   1.0000
     1.0000   1.0000   1.0000   1.0000   1.0000   1.0000   1.0000   1.0000
     1.0000   1.0000   1.0000   1.0000   1.0000   1.0000   1.0000   1.0000
     1.0000   1.0000   1.0000   1.0000   1.0000   1.0000   1.0000   1.0000
     1.0000   1.0000   1.0000   1.0000   1.0000   1.0000   1.0000   1.0000
     1.0000   1.0000   1.0000   1.0000   1.0000   1.0000   1.0000   1.0000
     1.0000   1.0000   1.0000   1.0000   1.0000   1.0000   1.0000   1.0000
     1.0000   1.0000   1.0000   1.0000   1.0000   1.0000   1.0000   1.0000
     1.0000   1.0000   1.0000   1.0000   1.0000   1.0000   1.0000   1.0000
     1.0000   1.0000   1.0000   1.0000   1.0000   1.0000   1.0000   1.0000
     1.0000   1.0000   1.0000   1.0000   1.0000   1.0000   1.0000   1.0000
     1.0000   1.0000   1.0000   1.0000   1.0000   1.0000   1.0000   1.0000
     1.0000   1.0000   1.0000   1.0000   1.0000   1.0000   1.0000   1.0000
     1.0000   1.0000   1.0000   1.0000   1.0000   1.0000   1.0000   1.0000
     1.0000   1.0000   1.0000   1.0000   1.0000   1.0000   1.0000   1.0000
     1.0000   1.0000   1.0000   1.0000   1.0000   1.0000   1.0000   1.0000
     1.0000   1.0000   1.0000   1.0000   1.0000   1.0000   1.0000   1.0000
     1.0000   1.0000   1.0000   1.0000   1.0000   1.0000   1.0000   1.0000
     1.0000   1.0000   1.0000   1.0000   1.0000   1.0000   1.0000   1.0000
     1.0000   1.0000   1.0000   1.0000   1.0000   1.0000   1.0000   1.0000
     1.0000   1.0000   1.0000   1.0000   1.0000   1.0000   1.0000   1.0000
     1.0000   1.0000   1.0000   1.0000   1.0000   1.0000   1.0000   1.0000
     1.0000   1.0000   1.0000   1.0000   1.0000   1.0000   1.0000   1.0000
     1.0000   1.0000   1.0000   1.0000   1.0000   1.0000   1.0000   1.0000
     1.0000   1.0000   1.0000   1.0000   1.0000   1.0000   1.0000   1.0000
     1.0000   1.0000   1.0000   1.0000   1.0000   1.0000   1.0000   1.0000
     1.0000   1.0000   1.0000   1.0000   1.0000   1.0000   1.0000   1.0000
     1.0000   1.0000   1.0000   1.0000   1.0000   1.0000   1.0000   1.0000
     1.0000   1.0000   1.0000   1.0000   1.0000   1.0000   1.0000   1.0000
     1.0000   1.0000   1.0000   1.0000   1.0000   1.0000   1.0000   1.0000
     1.0000   1.0000   1.0000   1.0000   1.0000   1.0000   1.0000   1.0000
     1.0000   1.0000   1.0000   1.0000   1.0000   1.0000   1.0000   1.0000
     1.0000   1.0000   1.0000   1.0000   1.0000   1.0000   1.0000   1.0000
     1.0000   1.0000   1.0000   1.0000   1.0000   1.0000   1.0000   1.0000
     1.0000   1.0000   1.0000   1.0000   1.0000   1.0000   1.0000   1.0000
     1.0000   1.0000   1.0000   1.0000   1.0000   1.0000   1.0000   1.0000
     1.0000   1.0000   1.0000   1.0000   1.0000   1.0000   1.0000   1.0000
     1.0000   1.0000   1.0000   1.0000   1.0000   1.0000   1.0000   1.0000
     1.0000   1.0000   1.0000   1.0000   1.0000   1.0000   1.0000   1.0000
     1.0000   1.0000   1.0000   1.0000   1.0000   1.0000   1.0000   1.0000
     1.0000   1.0000   1.0000   1.0000   1.0000   1.0000   1.0000   1.0000
     1.0000   1.0000   1.0000   1.0000   1.0000   1.0000   1.0000   1.0000
     1.0000   1.0000   1.0000   1.0000   1.0000   1.0000   1.0000   1.0000
     1.0000   1.0000   1.0000   1.0000   1.0000   1.0000   1.0000   1.0000
     1.0000   1.0000   1.0000   1.0000   1.0000   1.0000   1.0000   1.0000
     1.0000   1.0000   1.0000   1.0000   1.0000   1.0000   0.0000   0.0000
     0.0000   0.0000   0.0000   0.0000   0.0000   0.0000   0.0000   0.0000
     0.0000   0.0000   0.0000   0.0000   0.0000   0.0000   0.0000   0.0000
     0.0000   0.0000   0.0000   0.0000   0.0000   0.0000   0.0000   0.0000
     0.0000   0.0000   0.0000   0.0000   0.0000   0.0000   0.0000   0.0000
     0.0000   0.0000   0.0000   0.0000   0.0000   0.0000   0.0000   0.0000
     0.0000   0.0000   0.0000   0.0000   0.0000   0.0000   0.0000   0.0000
     0.0000   0.0000   0.0000   0.0000   0.0000   0.0000   0.0000   0.0000
     0.0000   0.0000   0.0000   0.0000   0.0000   0.0000   0.0000   0.0000
     0.0000   0.0000   0.0000   0.0000   0.0000   0.0000   0.0000   0.0000

          k = 0.0000-0.1443 0.1533 ( 51348 PWs)   bands (ev):

    -6.4397  -6.2945  -6.0707  -5.9122  -5.8632  -5.8629  -5.8538  -5.8292
    -5.7915  -5.7908  -5.7854  -5.7731  -5.7532  -5.7322  -5.7253  -5.7222
    -5.7187  -5.6935  -5.6896  -5.6798  -5.6727  -5.6455  -5.6444  -5.6322
    -5.6211  -5.6113  -5.6074  -5.5918  -5.5901  -5.5885  -5.5853  -5.5842
    -5.5776  -5.5764  -5.5725  -5.5691  -5.5668  -5.5652  -5.5618  -5.5603
    -5.5583  -5.5550  -5.5517  -5.5513  -5.5460  -5.5444  -5.5423  -5.5364
    -5.5354  -5.5262  -5.5243  -5.4957  -5.4955  -4.2542  -4.2057  -4.1993
    -4.1962  -4.1907  -4.1906  -4.1847  -4.1845  -4.1762  -4.1761  -4.1685
    -4.1664  -4.1656  -4.1648  -4.1631  -4.1607  -4.1587  -4.1585  -4.1556
    -4.1541  -4.1528  -4.1507  -4.1502  -4.1485  -4.1471  -4.1471  -4.1451
    -4.1437  -4.1435  -4.1414  -4.1402  -4.1384  -4.1370  -4.1360  -4.1345
    -4.1336  -4.1316  -4.1280  -4.1272  -4.1261  -4.1249  -4.1242  -4.1218
    -4.1184  -4.1180  -4.1168  -4.1161  -4.1144  -4.1140  -4.1120  -4.1107
    -4.1083  -4.1030  -4.1028  -4.1000  -4.0945  -4.0936  -4.0891  -4.0890
    -4.0867  -4.0859  -4.0851  -4.0848  -4.0827  -4.0811  -4.0791  -4.0786
    -4.0753  -4.0729  -4.0709  -4.0702  -4.0655  -4.0647  -4.0606  -4.0591
    -4.0582  -4.0563  -4.0556  -4.0534  -4.0514  -4.0477  -4.0465  -4.0452
    -4.0423  -4.0400  -4.0389  -4.0359  -4.0342  -4.0333  -4.0312  -4.0284
    -4.0273  -4.0240  -4.0194  -4.0193  -4.0184  -4.0163  -4.0133  -4.0130
    -4.0111  -4.0102  -4.0091  -4.0079  -4.0067  -4.0059  -4.0031  -4.0026
    -4.0000  -3.9994  -3.9994  -3.9979  -3.9967  -3.9954  -3.9953  -3.9934
    -3.9912  -3.9894  -3.9894  -3.9890  -3.9852  -3.9835  -3.9830  -3.9815
    -3.9805  -3.9799  -3.9772  -3.9771  -3.9754  -3.9732  -3.9713  -3.9712
    -3.9689  -3.9682  -3.9660  -3.9656  -3.9642  -3.9639  -3.9627  -3.9620
    -3.9593  -3.9586  -3.9583  -3.9564  -3.9548  -3.9538  -3.9533  -3.9525
    -3.9523  -3.9497  -3.9488  -3.9465  -3.9459  -3.9453  -3.9419  -3.9417
    -3.9391  -3.9375  -3.9367  -3.9355  -3.9353  -3.9323  -3.9305  -3.9293
    -3.9272  -3.9267  -3.9248  -3.9245  -3.9226  -3.9220  -3.9197  -3.9191
    -3.9186  -3.9185  -3.9157  -3.9140  -3.9131  -3.9114  -3.9092  -3.9075
    -3.9066  -3.9049  -3.9022  -3.9022  -3.9009  -3.8990  -3.8979  -3.8978
    -3.8960  -3.8941  -3.8934  -3.8891  -3.8888  -3.8852  -3.8836  -3.8829
    -3.8820  -3.8808  -3.8782  -3.8773  -3.8754  -3.8691  -3.8669  -3.8657
    -3.8632  -3.8629  -3.8609  -3.8502  -3.8496  -3.8442  -3.8290  -3.7930
    -3.7904  -3.7720  -3.7698  -3.7424  -3.7406  -3.7327  -3.7321  -3.6858
    -3.6277  -3.6265  -3.6102  -3.5851  -3.5805  -3.5640  -3.4749  -3.4635
    -3.3719  -3.3670  -3.3500  -3.2762  -3.2703  -3.2602  -3.2494  -3.2155
    -3.1465  -3.1135  -3.0531  -3.0296  -2.9902  -2.9356  -2.8955  -2.8525
    -2.7262  -2.7153  -2.6797  -2.6184  -2.5444  -2.4765  -2.4523  -2.3590
    -2.3574  -2.3307  -2.3273  -2.3161  -2.2955  -2.2663  -2.2455  -2.2237
    -2.2164  -2.1861  -2.1782  -2.1672  -2.1532  -2.1368  -2.1231  -2.1116
    -2.1079  -2.0899  -2.0856  -0.1327   2.5404   3.1539   3.2079   3.2207
     3.2620   3.2802   3.2818   3.3056   3.3082   3.3255   3.3615   3.3707
     3.3830   3.4018   3.4139   3.4281   3.4373   3.4566   3.4958   3.5349
     3.5627   3.5808   3.6343   3.6485   3.6694   3.6983   3.7433   3.7757
     3.8802   3.9045   3.9230   3.9429   3.9984   4.0193   4.1065   4.2222
     4.3633   4.3772   4.3965   4.4025   4.4232   4.4337   4.4927   4.5469
     4.5673   4.5925   4.6047   4.6539   4.7331   4.7663   4.7850   4.8746
     4.9159   4.9446   5.0328   5.0379   5.1142   5.1495   5.2111   5.2582
     5.5742   5.5981   5.6339   5.6352   5.7083   5.7091   5.7383   5.7480
     5.7771   5.8185   5.8865   6.2274   6.2353   6.2423   6.2429   6.2720
     6.6455   6.6493   6.6781   6.6928   6.7152   6.7370   6.7522   6.7665
     6.7756   6.8293   6.8473   6.8577   6.8660   6.9316   6.9779   6.9970
     7.0056   7.0185   7.0488   7.0633   7.1718   7.1990   7.2167   7.3282
     7.3432   7.3550   7.3569   7.3907   7.4009   7.4997   7.5279   7.6220
     7.6262   7.6360   7.6442   7.6599   7.6634   7.6829   7.6956   7.7051
     7.7326   7.7926   7.7943   7.8090   7.8338   7.8427   7.8699   7.9283
     7.9418   7.9481   7.9734   7.9977   8.0223   8.0640   8.0796   8.1468
     8.1610   8.1687   8.1824   8.1841   8.2043   8.2092   8.2380   8.2588
     8.2833   8.3101   8.3181   8.3373   8.3751   8.3861   8.3946   8.4228
     8.4734   8.5055   8.5302   8.6050   8.6640   8.6865   8.7507   8.8904
     8.9506   8.9543   9.1544   9.1808   9.3657   9.4400  11.4000  12.3231
    13.1636  13.4601  13.5231  13.5443  13.5588  13.5688  13.5817  13.6134
    13.6202  13.6377  13.6672  13.6984  13.7122  13.7673  13.8634  13.8669
    13.8745  13.8781  13.9742  14.0199  14.0403  14.1555  14.2421  14.3523
    14.4050  14.5453  14.5655  14.5799  14.5826  14.6372  14.6586  14.7414
    14.8361  14.8626  14.8838  14.9288  15.0036  15.0295  15.0386  15.0537
    15.0561  15.1215  15.1248  15.2231  15.3361  15.4328  15.5501  15.6767
    15.8112  15.8674  15.9012  16.0163  16.0774  16.0776  16.1147  16.2333
    16.2529  16.2671  16.2866  16.2906  16.3195  16.3424  16.3430  16.4033
    16.4401  16.4963  16.4998  16.5341  16.5568  16.5882  16.6194  16.6492

     occupation numbers 
     1.0000   1.0000   1.0000   1.0000   1.0000   1.0000   1.0000   1.0000
     1.0000   1.0000   1.0000   1.0000   1.0000   1.0000   1.0000   1.0000
     1.0000   1.0000   1.0000   1.0000   1.0000   1.0000   1.0000   1.0000
     1.0000   1.0000   1.0000   1.0000   1.0000   1.0000   1.0000   1.0000
     1.0000   1.0000   1.0000   1.0000   1.0000   1.0000   1.0000   1.0000
     1.0000   1.0000   1.0000   1.0000   1.0000   1.0000   1.0000   1.0000
     1.0000   1.0000   1.0000   1.0000   1.0000   1.0000   1.0000   1.0000
     1.0000   1.0000   1.0000   1.0000   1.0000   1.0000   1.0000   1.0000
     1.0000   1.0000   1.0000   1.0000   1.0000   1.0000   1.0000   1.0000
     1.0000   1.0000   1.0000   1.0000   1.0000   1.0000   1.0000   1.0000
     1.0000   1.0000   1.0000   1.0000   1.0000   1.0000   1.0000   1.0000
     1.0000   1.0000   1.0000   1.0000   1.0000   1.0000   1.0000   1.0000
     1.0000   1.0000   1.0000   1.0000   1.0000   1.0000   1.0000   1.0000
     1.0000   1.0000   1.0000   1.0000   1.0000   1.0000   1.0000   1.0000
     1.0000   1.0000   1.0000   1.0000   1.0000   1.0000   1.0000   1.0000
     1.0000   1.0000   1.0000   1.0000   1.0000   1.0000   1.0000   1.0000
     1.0000   1.0000   1.0000   1.0000   1.0000   1.0000   1.0000   1.0000
     1.0000   1.0000   1.0000   1.0000   1.0000   1.0000   1.0000   1.0000
     1.0000   1.0000   1.0000   1.0000   1.0000   1.0000   1.0000   1.0000
     1.0000   1.0000   1.0000   1.0000   1.0000   1.0000   1.0000   1.0000
     1.0000   1.0000   1.0000   1.0000   1.0000   1.0000   1.0000   1.0000
     1.0000   1.0000   1.0000   1.0000   1.0000   1.0000   1.0000   1.0000
     1.0000   1.0000   1.0000   1.0000   1.0000   1.0000   1.0000   1.0000
     1.0000   1.0000   1.0000   1.0000   1.0000   1.0000   1.0000   1.0000
     1.0000   1.0000   1.0000   1.0000   1.0000   1.0000   1.0000   1.0000
     1.0000   1.0000   1.0000   1.0000   1.0000   1.0000   1.0000   1.0000
     1.0000   1.0000   1.0000   1.0000   1.0000   1.0000   1.0000   1.0000
     1.0000   1.0000   1.0000   1.0000   1.0000   1.0000   1.0000   1.0000
     1.0000   1.0000   1.0000   1.0000   1.0000   1.0000   1.0000   1.0000
     1.0000   1.0000   1.0000   1.0000   1.0000   1.0000   1.0000   1.0000
     1.0000   1.0000   1.0000   1.0000   1.0000   1.0000   1.0000   1.0000
     1.0000   1.0000   1.0000   1.0000   1.0000   1.0000   1.0000   1.0000
     1.0000   1.0000   1.0000   1.0000   1.0000   1.0000   1.0000   1.0000
     1.0000   1.0000   1.0000   1.0000   1.0000   1.0000   1.0000   1.0000
     1.0000   1.0000   1.0000   1.0000   1.0000   1.0000   1.0000   1.0000
     1.0000   1.0000   1.0000   1.0000   1.0000   1.0000   1.0000   1.0000
     1.0000   1.0000   1.0000   1.0000   1.0000   1.0000   1.0000   1.0000
     1.0000   1.0000   1.0000   1.0000   1.0000   1.0000   1.0000   1.0000
     1.0000   1.0000   1.0000   1.0000   1.0000   1.0000   1.0000   1.0000
     1.0000   1.0000   1.0000   1.0000   1.0000   1.0000   1.0000   1.0000
     1.0000   1.0000   1.0000   1.0000   1.0000   1.0000   1.0000   1.0000
     1.0000   1.0000   1.0000   1.0000   1.0000   1.0000   1.0000   1.0000
     1.0000   1.0000   1.0000   1.0000   1.0000   1.0000   1.0000   1.0000
     1.0000   1.0000   1.0000   1.0000   1.0000   1.0000   1.0000   1.0000
     1.0000   1.0000   1.0000   1.0000   1.0000   1.0000   1.0000   1.0000
     1.0000   1.0000   1.0000   1.0000   1.0000   1.0000   1.0000   1.0000
     1.0000   1.0000   1.0000   1.0000   1.0000   1.0000   1.0000   1.0000
     1.0000   1.0000   1.0000   1.0000   1.0000   1.0000   1.0000   1.0000
     1.0000   1.0000   1.0000   1.0000   1.0000   1.0000   1.0000   1.0000
     1.0000   1.0000   1.0000   1.0000   1.0000   1.0000   1.0000   1.0000
     1.0000   1.0000   1.0000   1.0000   1.0000   1.0000   1.0000   1.0000
     1.0000   1.0000   1.0000   1.0000   1.0000   1.0000   1.0000   1.0000
     1.0000   1.0000   1.0000   1.0000   1.0000   1.0000   1.0000   1.0000
     1.0000   1.0000   1.0000   1.0000   1.0000   1.0000   1.0000   1.0000
     1.0000   1.0000   1.0000   1.0000   1.0000   1.0000   1.0000   1.0000
     1.0000   1.0000   1.0000   1.0000   1.0000   1.0000   1.0000   1.0000
     1.0000   1.0000   1.0000   1.0000   1.0000   1.0000   1.0000   1.0000
     1.0000   1.0000   1.0000   1.0000   1.0000   1.0000   1.0000   1.0000
     1.0000   1.0000   1.0000   1.0000   1.0000   1.0000   1.0000   1.0000
     1.0000   1.0000   1.0000   1.0000   1.0000   1.0000   1.0000   1.0000
     1.0000   1.0000   1.0000   1.0000   0.2893   0.0000   0.0000   0.0000
     0.0000   0.0000   0.0000   0.0000   0.0000   0.0000   0.0000   0.0000
     0.0000   0.0000   0.0000   0.0000   0.0000   0.0000   0.0000   0.0000
     0.0000   0.0000   0.0000   0.0000   0.0000   0.0000   0.0000   0.0000
     0.0000   0.0000   0.0000   0.0000   0.0000   0.0000   0.0000   0.0000
     0.0000   0.0000   0.0000   0.0000   0.0000   0.0000   0.0000   0.0000
     0.0000   0.0000   0.0000   0.0000   0.0000   0.0000   0.0000   0.0000
     0.0000   0.0000   0.0000   0.0000   0.0000   0.0000   0.0000   0.0000
     0.0000   0.0000   0.0000   0.0000   0.0000   0.0000   0.0000   0.0000
     0.0000   0.0000   0.0000   0.0000   0.0000   0.0000   0.0000   0.0000

          k = 0.0000-0.2887 0.1533 ( 51308 PWs)   bands (ev):

    -6.3934  -6.2528  -6.0395  -6.0085  -5.9170  -5.8912  -5.8792  -5.8373
    -5.8126  -5.8020  -5.7769  -5.7461  -5.7425  -5.7176  -5.7117  -5.7061
    -5.7002  -5.6908  -5.6835  -5.6698  -5.6643  -5.6557  -5.6274  -5.6243
    -5.6181  -5.6168  -5.6105  -5.6093  -5.6073  -5.5976  -5.5884  -5.5849
    -5.5796  -5.5779  -5.5756  -5.5726  -5.5712  -5.5626  -5.5595  -5.5588
    -5.5559  -5.5545  -5.5482  -5.5472  -5.5436  -5.5426  -5.5413  -5.5362
    -5.5355  -5.5277  -5.5224  -5.4953  -5.4947  -4.2526  -4.2026  -4.1928
    -4.1900  -4.1860  -4.1860  -4.1787  -4.1782  -4.1701  -4.1695  -4.1664
    -4.1631  -4.1624  -4.1605  -4.1598  -4.1572  -4.1566  -4.1554  -4.1549
    -4.1513  -4.1498  -4.1497  -4.1474  -4.1468  -4.1449  -4.1447  -4.1431
    -4.1419  -4.1416  -4.1403  -4.1376  -4.1365  -4.1362  -4.1347  -4.1341
    -4.1320  -4.1305  -4.1280  -4.1275  -4.1268  -4.1258  -4.1240  -4.1225
    -4.1214  -4.1199  -4.1175  -4.1173  -4.1139  -4.1136  -4.1122  -4.1118
    -4.1084  -4.1072  -4.1058  -4.1043  -4.1006  -4.1002  -4.0940  -4.0934
    -4.0911  -4.0897  -4.0895  -4.0874  -4.0840  -4.0840  -4.0816  -4.0815
    -4.0782  -4.0772  -4.0750  -4.0718  -4.0711  -4.0710  -4.0684  -4.0635
    -4.0630  -4.0599  -4.0599  -4.0585  -4.0551  -4.0522  -4.0508  -4.0481
    -4.0468  -4.0451  -4.0430  -4.0416  -4.0398  -4.0338  -4.0335  -4.0331
    -4.0313  -4.0302  -4.0263  -4.0228  -4.0192  -4.0152  -4.0150  -4.0138
    -4.0114  -4.0109  -4.0081  -4.0080  -4.0058  -4.0058  -4.0035  -4.0031
    -4.0010  -4.0002  -3.9997  -3.9973  -3.9970  -3.9949  -3.9948  -3.9937
    -3.9920  -3.9916  -3.9899  -3.9868  -3.9858  -3.9843  -3.9834  -3.9811
    -3.9811  -3.9800  -3.9787  -3.9777  -3.9773  -3.9758  -3.9756  -3.9730
    -3.9716  -3.9703  -3.9695  -3.9680  -3.9667  -3.9663  -3.9641  -3.9637
    -3.9610  -3.9595  -3.9589  -3.9577  -3.9546  -3.9536  -3.9523  -3.9520
    -3.9511  -3.9507  -3.9471  -3.9462  -3.9453  -3.9447  -3.9416  -3.9388
    -3.9371  -3.9358  -3.9355  -3.9334  -3.9323  -3.9308  -3.9290  -3.9283
    -3.9265  -3.9245  -3.9236  -3.9221  -3.9207  -3.9187  -3.9173  -3.9153
    -3.9146  -3.9145  -3.9121  -3.9119  -3.9111  -3.9106  -3.9070  -3.9060
    -3.9043  -3.9042  -3.9021  -3.9011  -3.8992  -3.8979  -3.8972  -3.8963
    -3.8939  -3.8935  -3.8919  -3.8894  -3.8884  -3.8874  -3.8865  -3.8835
    -3.8803  -3.8798  -3.8770  -3.8766  -3.8741  -3.8709  -3.8673  -3.8658
    -3.8640  -3.8628  -3.8589  -3.8508  -3.8487  -3.8417  -3.8306  -3.8218
    -3.7953  -3.7892  -3.7750  -3.7693  -3.7463  -3.7419  -3.7332  -3.7298
    -3.7074  -3.6442  -3.6383  -3.6253  -3.6219  -3.5666  -3.5306  -3.5248
    -3.4984  -3.3106  -3.2993  -3.2213  -3.2085  -3.1474  -3.1215  -3.1073
    -3.0712  -3.0186  -2.9510  -2.9449  -2.9322  -2.9167  -2.8654  -2.7510
    -2.6776  -2.6477  -2.6185  -2.5987  -2.5183  -2.5161  -2.5024  -2.4877
    -2.4630  -2.4334  -2.4037  -2.3395  -2.3232  -2.3098  -2.2887  -2.2836
    -2.2459  -2.2200  -2.2042  -2.1907  -2.1464  -2.1132  -2.1024  -2.0885
    -2.0688  -2.0525  -2.0447  -0.1297   2.6086   2.9135   2.9834   3.0797
     3.1482   3.1589   3.1981   3.2080   3.2368   3.2724   3.2785   3.2963
     3.3038   3.3106   3.3156   3.3371   3.3575   3.3843   3.4263   3.4409
     3.4698   3.5515   3.5642   3.6543   3.6650   3.6824   3.6993   3.7256
     3.7295   3.7904   3.8642   4.0432   4.0574   4.0654   4.0988   4.2074
     4.2227   4.2874   4.4291   4.4796   4.5003   4.5774   4.6289   4.7448
     4.7465   4.7635   4.8768   4.8845   4.9849   4.9849   5.0773   5.0824
     5.1100   5.1384   5.1465   5.2051   5.2933   5.2950   5.4374   5.6203
     5.7136   5.7401   5.7831   5.7866   5.8200   5.8406   5.8650   5.8743
     5.9046   5.9763   6.0137   6.1390   6.1946   6.3770   6.4337   6.4450
     6.5419   6.5558   6.6994   6.7045   6.7199   6.7286   6.7331   6.7338
     6.7480   6.7663   6.7680   6.8189   6.8392   6.8478   6.9165   6.9333
     6.9516   6.9783   7.0064   7.0434   7.0858   7.1123   7.1634   7.2059
     7.2684   7.3688   7.3737   7.3749   7.4264   7.4531   7.5079   7.5082
     7.5213   7.5295   7.5302   7.5590   7.5830   7.6472   7.6595   7.6883
     7.7055   7.7225   7.7733   7.7811   7.7920   7.8107   7.8166   7.8294
     7.8317   7.8479   7.8553   7.8666   7.9085   7.9193   7.9781   8.0041
     8.0572   8.0861   8.1137   8.1161   8.1461   8.1512   8.1700   8.1913
     8.2220   8.2888   8.2892   8.3061   8.3204   8.3232   8.3634   8.3832
     8.4353   8.4357   8.5049   8.5168   8.5258   8.6348   8.7447   8.7622
     8.8028   8.9049   9.0822   9.1043   9.2337   9.3947  11.7568  12.5522
    13.3700  13.3905  13.4535  13.4908  13.5327  13.7697  13.7973  13.7974
    13.8085  13.8136  13.8353  13.8388  13.8477  13.8858  13.9187  13.9663
    14.0151  14.0588  14.1112  14.1144  14.2112  14.3168  14.3878  14.4611
    14.4651  14.5115  14.6090  14.6905  14.6945  14.7419  14.8047  14.8793
    14.9684  14.9722  14.9928  15.0047  15.0167  15.0332  15.0694  15.0812
    15.1076  15.2168  15.3564  15.3643  15.3769  15.4013  15.4058  15.5937
    15.7025  15.7361  15.7873  15.8916  15.9791  16.1596  16.1828  16.1838
    16.2123  16.2148  16.2548  16.3041  16.3410  16.4283  16.4864  16.5103
    16.5351  16.5582  16.6029  16.6220  16.6502  16.6660  16.6836  16.6890

     occupation numbers 
     1.0000   1.0000   1.0000   1.0000   1.0000   1.0000   1.0000   1.0000
     1.0000   1.0000   1.0000   1.0000   1.0000   1.0000   1.0000   1.0000
     1.0000   1.0000   1.0000   1.0000   1.0000   1.0000   1.0000   1.0000
     1.0000   1.0000   1.0000   1.0000   1.0000   1.0000   1.0000   1.0000
     1.0000   1.0000   1.0000   1.0000   1.0000   1.0000   1.0000   1.0000
     1.0000   1.0000   1.0000   1.0000   1.0000   1.0000   1.0000   1.0000
     1.0000   1.0000   1.0000   1.0000   1.0000   1.0000   1.0000   1.0000
     1.0000   1.0000   1.0000   1.0000   1.0000   1.0000   1.0000   1.0000
     1.0000   1.0000   1.0000   1.0000   1.0000   1.0000   1.0000   1.0000
     1.0000   1.0000   1.0000   1.0000   1.0000   1.0000   1.0000   1.0000
     1.0000   1.0000   1.0000   1.0000   1.0000   1.0000   1.0000   1.0000
     1.0000   1.0000   1.0000   1.0000   1.0000   1.0000   1.0000   1.0000
     1.0000   1.0000   1.0000   1.0000   1.0000   1.0000   1.0000   1.0000
     1.0000   1.0000   1.0000   1.0000   1.0000   1.0000   1.0000   1.0000
     1.0000   1.0000   1.0000   1.0000   1.0000   1.0000   1.0000   1.0000
     1.0000   1.0000   1.0000   1.0000   1.0000   1.0000   1.0000   1.0000
     1.0000   1.0000   1.0000   1.0000   1.0000   1.0000   1.0000   1.0000
     1.0000   1.0000   1.0000   1.0000   1.0000   1.0000   1.0000   1.0000
     1.0000   1.0000   1.0000   1.0000   1.0000   1.0000   1.0000   1.0000
     1.0000   1.0000   1.0000   1.0000   1.0000   1.0000   1.0000   1.0000
     1.0000   1.0000   1.0000   1.0000   1.0000   1.0000   1.0000   1.0000
     1.0000   1.0000   1.0000   1.0000   1.0000   1.0000   1.0000   1.0000
     1.0000   1.0000   1.0000   1.0000   1.0000   1.0000   1.0000   1.0000
     1.0000   1.0000   1.0000   1.0000   1.0000   1.0000   1.0000   1.0000
     1.0000   1.0000   1.0000   1.0000   1.0000   1.0000   1.0000   1.0000
     1.0000   1.0000   1.0000   1.0000   1.0000   1.0000   1.0000   1.0000
     1.0000   1.0000   1.0000   1.0000   1.0000   1.0000   1.0000   1.0000
     1.0000   1.0000   1.0000   1.0000   1.0000   1.0000   1.0000   1.0000
     1.0000   1.0000   1.0000   1.0000   1.0000   1.0000   1.0000   1.0000
     1.0000   1.0000   1.0000   1.0000   1.0000   1.0000   1.0000   1.0000
     1.0000   1.0000   1.0000   1.0000   1.0000   1.0000   1.0000   1.0000
     1.0000   1.0000   1.0000   1.0000   1.0000   1.0000   1.0000   1.0000
     1.0000   1.0000   1.0000   1.0000   1.0000   1.0000   1.0000   1.0000
     1.0000   1.0000   1.0000   1.0000   1.0000   1.0000   1.0000   1.0000
     1.0000   1.0000   1.0000   1.0000   1.0000   1.0000   1.0000   1.0000
     1.0000   1.0000   1.0000   1.0000   1.0000   1.0000   1.0000   1.0000
     1.0000   1.0000   1.0000   1.0000   1.0000   1.0000   1.0000   1.0000
     1.0000   1.0000   1.0000   1.0000   1.0000   1.0000   1.0000   1.0000
     1.0000   1.0000   1.0000   1.0000   1.0000   1.0000   1.0000   1.0000
     1.0000   1.0000   1.0000   1.0000   1.0000   1.0000   1.0000   1.0000
     1.0000   1.0000   1.0000   1.0000   1.0000   1.0000   1.0000   1.0000
     1.0000   1.0000   1.0000   1.0000   1.0000   1.0000   1.0000   1.0000
     1.0000   1.0000   1.0000   1.0000   1.0000   1.0000   1.0000   1.0000
     1.0000   1.0000   1.0000   1.0000   1.0000   1.0000   1.0000   1.0000
     1.0000   1.0000   1.0000   1.0000   1.0000   1.0000   1.0000   1.0000
     1.0000   1.0000   1.0000   1.0000   1.0000   1.0000   1.0000   1.0000
     1.0000   1.0000   1.0000   1.0000   1.0000   1.0000   1.0000   1.0000
     1.0000   1.0000   1.0000   1.0000   1.0000   1.0000   1.0000   1.0000
     1.0000   1.0000   1.0000   1.0000   1.0000   1.0000   1.0000   1.0000
     1.0000   1.0000   1.0000   1.0000   1.0000   1.0000   1.0000   1.0000
     1.0000   1.0000   1.0000   1.0000   1.0000   1.0000   1.0000   1.0000
     1.0000   1.0000   1.0000   1.0000   1.0000   1.0000   1.0000   1.0000
     1.0000   1.0000   1.0000   1.0000   1.0000   1.0000   1.0000   1.0000
     1.0000   1.0000   1.0000   1.0000   1.0000   1.0000   1.0000   1.0000
     1.0000   1.0000   1.0000   1.0000   1.0000   1.0000   1.0000   1.0000
     1.0000   1.0000   1.0000   1.0000   1.0000   1.0000   1.0000   1.0000
     1.0000   1.0000   1.0000   1.0000   1.0000   1.0000   1.0000   1.0000
     1.0000   1.0000   1.0000   1.0000   1.0000   1.0000   1.0000   1.0000
     1.0000   1.0000   1.0000   1.0000   1.0000   1.0000   1.0000   1.0000
     1.0000   1.0000   1.0000   1.0000   1.0000   1.0000   1.0000   1.0000
     1.0000   1.0000   1.0000   1.0000   1.0215  -0.0345   0.0000   0.0000
     0.0000   0.0000   0.0000   0.0000   0.0000   0.0000   0.0000   0.0000
     0.0000   0.0000   0.0000   0.0000   0.0000   0.0000   0.0000   0.0000
     0.0000   0.0000   0.0000   0.0000   0.0000   0.0000   0.0000   0.0000
     0.0000   0.0000   0.0000   0.0000   0.0000   0.0000   0.0000   0.0000
     0.0000   0.0000   0.0000   0.0000   0.0000   0.0000   0.0000   0.0000
     0.0000   0.0000   0.0000   0.0000   0.0000   0.0000   0.0000   0.0000
     0.0000   0.0000   0.0000   0.0000   0.0000   0.0000   0.0000   0.0000
     0.0000   0.0000   0.0000   0.0000   0.0000   0.0000   0.0000   0.0000
     0.0000   0.0000   0.0000   0.0000   0.0000   0.0000   0.0000   0.0000

          k = 0.0000-0.4330 0.1533 ( 51269 PWs)   bands (ev):

    -6.3207  -6.1884  -6.1177  -6.0098  -5.9832  -5.9092  -5.8982  -5.8476
    -5.8277  -5.8184  -5.7941  -5.7163  -5.7155  -5.7100  -5.7065  -5.7033
    -5.6914  -5.6828  -5.6598  -5.6588  -5.6493  -5.6430  -5.6376  -5.6351
    -5.6305  -5.6280  -5.6209  -5.6055  -5.6027  -5.6018  -5.5981  -5.5968
    -5.5856  -5.5837  -5.5793  -5.5664  -5.5664  -5.5634  -5.5612  -5.5590
    -5.5563  -5.5495  -5.5462  -5.5461  -5.5419  -5.5418  -5.5386  -5.5356
    -5.5339  -5.5306  -5.5210  -5.4950  -5.4940  -4.2509  -4.1952  -4.1844
    -4.1836  -4.1795  -4.1785  -4.1747  -4.1710  -4.1698  -4.1662  -4.1635
    -4.1610  -4.1609  -4.1589  -4.1573  -4.1544  -4.1538  -4.1507  -4.1503
    -4.1494  -4.1489  -4.1453  -4.1451  -4.1440  -4.1431  -4.1430  -4.1416
    -4.1395  -4.1386  -4.1373  -4.1363  -4.1353  -4.1330  -4.1323  -4.1323
    -4.1312  -4.1297  -4.1286  -4.1263  -4.1249  -4.1244  -4.1223  -4.1212
    -4.1194  -4.1187  -4.1165  -4.1162  -4.1142  -4.1133  -4.1112  -4.1094
    -4.1092  -4.1085  -4.1082  -4.1054  -4.1047  -4.1025  -4.1018  -4.0988
    -4.0974  -4.0950  -4.0943  -4.0927  -4.0906  -4.0892  -4.0863  -4.0841
    -4.0837  -4.0803  -4.0792  -4.0763  -4.0756  -4.0733  -4.0733  -4.0717
    -4.0695  -4.0690  -4.0670  -4.0662  -4.0624  -4.0622  -4.0566  -4.0548
    -4.0540  -4.0469  -4.0447  -4.0434  -4.0395  -4.0390  -4.0380  -4.0326
    -4.0313  -4.0298  -4.0280  -4.0238  -4.0234  -4.0211  -4.0179  -4.0169
    -4.0141  -4.0116  -4.0109  -4.0077  -4.0066  -4.0064  -4.0061  -4.0044
    -4.0034  -4.0020  -4.0008  -3.9999  -3.9970  -3.9969  -3.9944  -3.9942
    -3.9926  -3.9909  -3.9899  -3.9892  -3.9876  -3.9848  -3.9847  -3.9842
    -3.9827  -3.9824  -3.9812  -3.9796  -3.9780  -3.9765  -3.9741  -3.9740
    -3.9726  -3.9714  -3.9697  -3.9687  -3.9687  -3.9666  -3.9648  -3.9633
    -3.9597  -3.9588  -3.9586  -3.9569  -3.9556  -3.9555  -3.9540  -3.9534
    -3.9508  -3.9503  -3.9497  -3.9480  -3.9447  -3.9430  -3.9421  -3.9385
    -3.9384  -3.9369  -3.9366  -3.9326  -3.9311  -3.9308  -3.9271  -3.9262
    -3.9233  -3.9226  -3.9211  -3.9194  -3.9186  -3.9184  -3.9168  -3.9167
    -3.9127  -3.9120  -3.9100  -3.9099  -3.9083  -3.9072  -3.9063  -3.9061
    -3.9038  -3.9011  -3.9001  -3.8998  -3.8985  -3.8975  -3.8968  -3.8963
    -3.8954  -3.8941  -3.8933  -3.8914  -3.8900  -3.8894  -3.8884  -3.8850
    -3.8827  -3.8816  -3.8815  -3.8784  -3.8767  -3.8732  -3.8680  -3.8675
    -3.8666  -3.8639  -3.8580  -3.8497  -3.8475  -3.8421  -3.8389  -3.8292
    -3.8174  -3.7881  -3.7834  -3.7685  -3.7560  -3.7445  -3.7433  -3.7329
    -3.7240  -3.6781  -3.6648  -3.6416  -3.6273  -3.6146  -3.5608  -3.5545
    -3.4896  -3.3438  -3.3292  -3.2812  -3.0476  -3.0394  -3.0062  -2.9826
    -2.9768  -2.9529  -2.9219  -2.8148  -2.8037  -2.7688  -2.7619  -2.7255
    -2.6679  -2.6555  -2.6188  -2.5983  -2.5914  -2.5696  -2.5404  -2.5214
    -2.5031  -2.4950  -2.4634  -2.4550  -2.4222  -2.3594  -2.2920  -2.2801
    -2.2564  -2.2214  -2.2136  -2.2060  -2.1651  -2.1425  -2.1242  -2.0729
    -2.0413  -2.0285  -2.0181  -0.1267   2.7180   2.7556   2.7790   2.9492
     3.0464   3.0819   3.1105   3.1238   3.1341   3.1616   3.1718   3.1780
     3.2149   3.2201   3.2924   3.3024   3.3457   3.3664   3.3961   3.4087
     3.4324   3.4529   3.5188   3.5523   3.5636   3.6198   3.6862   3.7168
     3.7680   3.7804   3.7932   4.0202   4.0276   4.0895   4.1277   4.1480
     4.1893   4.2361   4.3725   4.4078   4.6319   4.7291   4.7447   4.8018
     5.1001   5.1072   5.1832   5.1911   5.2274   5.2286   5.2325   5.2421
     5.2722   5.2947   5.3213   5.5396   5.6453   5.6567   5.7196   5.7385
     5.7686   5.7964   5.8282   5.8381   5.9210   5.9241   6.0102   6.0223
     6.0931   6.1616   6.1635   6.1762   6.2013   6.2265   6.4388   6.4493
     6.4593   6.4872   6.4992   6.5330   6.5808   6.6743   6.7702   6.7813
     6.8035   6.8078   6.8749   6.8985   6.8994   6.9366   6.9497   6.9616
     6.9807   6.9816   7.0060   7.0407   7.1062   7.1313   7.1878   7.2034
     7.2135   7.2180   7.2297   7.2368   7.2659   7.2679   7.3106   7.3628
     7.4083   7.4409   7.4922   7.4960   7.5397   7.5825   7.6018   7.6107
     7.6140   7.6438   7.6498   7.6699   7.6752   7.6926   7.7346   7.7633
     7.8019   7.8211   7.8411   7.8475   7.8488   7.8581   7.8622   7.8946
     7.9125   7.9374   7.9481   7.9901   7.9917   8.0149   8.0232   8.0796
     8.1148   8.1623   8.1737   8.2663   8.2772   8.3022   8.3522   8.3593
     8.3691   8.3916   8.4402   8.4957   8.5241   8.6789   8.6789   8.7721
     8.7938   8.9020   8.9360   9.0336   9.1780   9.3411  12.1857  12.8430
    13.0320  13.3589  13.3776  13.4891  13.6540  13.9218  13.9606  13.9612
    13.9873  13.9947  14.0283  14.0620  14.0772  14.0903  14.1266  14.1675
    14.1836  14.2314  14.2945  14.3300  14.3433  14.3829  14.4854  14.6519
    14.6633  14.6658  14.6751  14.6781  14.7073  14.7189  14.7407  14.8318
    14.8341  14.8582  14.9414  15.0298  15.0437  15.1102  15.1708  15.2714
    15.2882  15.3544  15.3830  15.4529  15.6333  15.6457  15.6548  15.6707
    15.7141  15.7652  15.7866  15.7955  15.8330  15.8557  16.0674  16.2446
    16.2547  16.2698  16.2896  16.2977  16.3467  16.4186  16.4443  16.5200
    16.5246  16.5672  16.5724  16.5954  16.6253  16.6599  16.7003  16.7653

     occupation numbers 
     1.0000   1.0000   1.0000   1.0000   1.0000   1.0000   1.0000   1.0000
     1.0000   1.0000   1.0000   1.0000   1.0000   1.0000   1.0000   1.0000
     1.0000   1.0000   1.0000   1.0000   1.0000   1.0000   1.0000   1.0000
     1.0000   1.0000   1.0000   1.0000   1.0000   1.0000   1.0000   1.0000
     1.0000   1.0000   1.0000   1.0000   1.0000   1.0000   1.0000   1.0000
     1.0000   1.0000   1.0000   1.0000   1.0000   1.0000   1.0000   1.0000
     1.0000   1.0000   1.0000   1.0000   1.0000   1.0000   1.0000   1.0000
     1.0000   1.0000   1.0000   1.0000   1.0000   1.0000   1.0000   1.0000
     1.0000   1.0000   1.0000   1.0000   1.0000   1.0000   1.0000   1.0000
     1.0000   1.0000   1.0000   1.0000   1.0000   1.0000   1.0000   1.0000
     1.0000   1.0000   1.0000   1.0000   1.0000   1.0000   1.0000   1.0000
     1.0000   1.0000   1.0000   1.0000   1.0000   1.0000   1.0000   1.0000
     1.0000   1.0000   1.0000   1.0000   1.0000   1.0000   1.0000   1.0000
     1.0000   1.0000   1.0000   1.0000   1.0000   1.0000   1.0000   1.0000
     1.0000   1.0000   1.0000   1.0000   1.0000   1.0000   1.0000   1.0000
     1.0000   1.0000   1.0000   1.0000   1.0000   1.0000   1.0000   1.0000
     1.0000   1.0000   1.0000   1.0000   1.0000   1.0000   1.0000   1.0000
     1.0000   1.0000   1.0000   1.0000   1.0000   1.0000   1.0000   1.0000
     1.0000   1.0000   1.0000   1.0000   1.0000   1.0000   1.0000   1.0000
     1.0000   1.0000   1.0000   1.0000   1.0000   1.0000   1.0000   1.0000
     1.0000   1.0000   1.0000   1.0000   1.0000   1.0000   1.0000   1.0000
     1.0000   1.0000   1.0000   1.0000   1.0000   1.0000   1.0000   1.0000
     1.0000   1.0000   1.0000   1.0000   1.0000   1.0000   1.0000   1.0000
     1.0000   1.0000   1.0000   1.0000   1.0000   1.0000   1.0000   1.0000
     1.0000   1.0000   1.0000   1.0000   1.0000   1.0000   1.0000   1.0000
     1.0000   1.0000   1.0000   1.0000   1.0000   1.0000   1.0000   1.0000
     1.0000   1.0000   1.0000   1.0000   1.0000   1.0000   1.0000   1.0000
     1.0000   1.0000   1.0000   1.0000   1.0000   1.0000   1.0000   1.0000
     1.0000   1.0000   1.0000   1.0000   1.0000   1.0000   1.0000   1.0000
     1.0000   1.0000   1.0000   1.0000   1.0000   1.0000   1.0000   1.0000
     1.0000   1.0000   1.0000   1.0000   1.0000   1.0000   1.0000   1.0000
     1.0000   1.0000   1.0000   1.0000   1.0000   1.0000   1.0000   1.0000
     1.0000   1.0000   1.0000   1.0000   1.0000   1.0000   1.0000   1.0000
     1.0000   1.0000   1.0000   1.0000   1.0000   1.0000   1.0000   1.0000
     1.0000   1.0000   1.0000   1.0000   1.0000   1.0000   1.0000   1.0000
     1.0000   1.0000   1.0000   1.0000   1.0000   1.0000   1.0000   1.0000
     1.0000   1.0000   1.0000   1.0000   1.0000   1.0000   1.0000   1.0000
     1.0000   1.0000   1.0000   1.0000   1.0000   1.0000   1.0000   1.0000
     1.0000   1.0000   1.0000   1.0000   1.0000   1.0000   1.0000   1.0000
     1.0000   1.0000   1.0000   1.0000   1.0000   1.0000   1.0000   1.0000
     1.0000   1.0000   1.0000   1.0000   1.0000   1.0000   1.0000   1.0000
     1.0000   1.0000   1.0000   1.0000   1.0000   1.0000   1.0000   1.0000
     1.0000   1.0000   1.0000   1.0000   1.0000   1.0000   1.0000   1.0000
     1.0000   1.0000   1.0000   1.0000   1.0000   1.0000   1.0000   1.0000
     1.0000   1.0000   1.0000   1.0000   1.0000   1.0000   1.0000   1.0000
     1.0000   1.0000   1.0000   1.0000   1.0000   1.0000   1.0000   1.0000
     1.0000   1.0000   1.0000   1.0000   1.0000   1.0000   1.0000   1.0000
     1.0000   1.0000   1.0000   1.0000   1.0000   1.0000   1.0000   1.0000
     1.0000   1.0000   1.0000   1.0000   1.0000   1.0000   1.0000   1.0000
     1.0000   1.0000   1.0000   1.0000   1.0000   1.0000   1.0000   1.0000
     1.0000   1.0000   1.0000   1.0000   1.0000   1.0000   1.0000   1.0000
     1.0000   1.0000   1.0000   1.0000   1.0000   1.0000   1.0000   1.0000
     1.0000   1.0000   1.0000   1.0000   1.0000   1.0000   1.0000   1.0000
     1.0000   1.0000   1.0000   1.0000   1.0000   1.0000   1.0000   1.0000
     1.0000   1.0000   1.0000   1.0000   1.0000   1.0000   1.0000   1.0000
     1.0000   1.0000   1.0000   1.0000   1.0000   1.0000   1.0000   1.0000
     1.0000   1.0000   1.0000   1.0000   1.0000   1.0000   1.0000   1.0000
     1.0000   1.0000   1.0000   1.0000   1.0000   1.0000   1.0000   1.0000
     1.0000   1.0000   1.0000   1.0000   1.0000   1.0000   1.0000   1.0000
     1.0000   1.0000   1.0000   1.0000   1.0000   1.0000   1.0000   1.0000
     1.0000   1.0000   1.0000   1.0000   1.0000   0.5118   0.0000   0.0000
     0.0000   0.0000   0.0000   0.0000   0.0000   0.0000   0.0000   0.0000
     0.0000   0.0000   0.0000   0.0000   0.0000   0.0000   0.0000   0.0000
     0.0000   0.0000   0.0000   0.0000   0.0000   0.0000   0.0000   0.0000
     0.0000   0.0000   0.0000   0.0000   0.0000   0.0000   0.0000   0.0000
     0.0000   0.0000   0.0000   0.0000   0.0000   0.0000   0.0000   0.0000
     0.0000   0.0000   0.0000   0.0000   0.0000   0.0000   0.0000   0.0000
     0.0000   0.0000   0.0000   0.0000   0.0000   0.0000   0.0000   0.0000
     0.0000   0.0000   0.0000   0.0000   0.0000   0.0000   0.0000   0.0000
     0.0000   0.0000   0.0000   0.0000   0.0000   0.0000   0.0000   0.0000

          k =-0.1250-0.3608 0.1533 ( 51279 PWs)   bands (ev):

    -6.3491  -6.2131  -6.0584  -6.0070  -5.9806  -5.9516  -5.8867  -5.8244
    -5.8138  -5.8047  -5.7619  -5.7572  -5.7458  -5.7052  -5.7016  -5.6992
    -5.6903  -5.6844  -5.6647  -5.6594  -5.6576  -5.6499  -5.6432  -5.6301
    -5.6278  -5.6213  -5.6175  -5.6043  -5.6006  -5.5982  -5.5953  -5.5922
    -5.5913  -5.5800  -5.5764  -5.5730  -5.5680  -5.5638  -5.5598  -5.5569
    -5.5527  -5.5508  -5.5477  -5.5467  -5.5431  -5.5419  -5.5395  -5.5361
    -5.5346  -5.5294  -5.5213  -5.4954  -5.4940  -4.2513  -4.1980  -4.1873
    -4.1860  -4.1825  -4.1810  -4.1740  -4.1728  -4.1707  -4.1636  -4.1633
    -4.1621  -4.1606  -4.1580  -4.1572  -4.1556  -4.1542  -4.1531  -4.1519
    -4.1517  -4.1497  -4.1488  -4.1473  -4.1458  -4.1440  -4.1431  -4.1426
    -4.1418  -4.1395  -4.1391  -4.1380  -4.1354  -4.1338  -4.1331  -4.1317
    -4.1308  -4.1295  -4.1280  -4.1270  -4.1254  -4.1242  -4.1225  -4.1221
    -4.1209  -4.1200  -4.1181  -4.1151  -4.1145  -4.1135  -4.1116  -4.1106
    -4.1100  -4.1081  -4.1076  -4.1044  -4.1039  -4.1019  -4.0996  -4.0975
    -4.0962  -4.0938  -4.0917  -4.0908  -4.0887  -4.0872  -4.0853  -4.0830
    -4.0819  -4.0797  -4.0773  -4.0759  -4.0750  -4.0737  -4.0725  -4.0690
    -4.0677  -4.0641  -4.0630  -4.0612  -4.0596  -4.0571  -4.0544  -4.0527
    -4.0505  -4.0493  -4.0444  -4.0434  -4.0396  -4.0376  -4.0337  -4.0319
    -4.0298  -4.0288  -4.0261  -4.0235  -4.0217  -4.0179  -4.0160  -4.0151
    -4.0125  -4.0117  -4.0110  -4.0087  -4.0080  -4.0066  -4.0057  -4.0041
    -4.0028  -4.0010  -3.9998  -3.9985  -3.9984  -3.9967  -3.9956  -3.9949
    -3.9927  -3.9908  -3.9897  -3.9879  -3.9872  -3.9847  -3.9838  -3.9832
    -3.9823  -3.9809  -3.9797  -3.9774  -3.9761  -3.9756  -3.9745  -3.9730
    -3.9720  -3.9707  -3.9701  -3.9692  -3.9683  -3.9666  -3.9658  -3.9649
    -3.9632  -3.9606  -3.9601  -3.9581  -3.9574  -3.9553  -3.9536  -3.9516
    -3.9492  -3.9480  -3.9467  -3.9452  -3.9439  -3.9421  -3.9412  -3.9409
    -3.9380  -3.9355  -3.9342  -3.9326  -3.9308  -3.9291  -3.9283  -3.9261
    -3.9242  -3.9233  -3.9225  -3.9212  -3.9195  -3.9185  -3.9174  -3.9158
    -3.9152  -3.9123  -3.9116  -3.9100  -3.9088  -3.9072  -3.9058  -3.9045
    -3.9036  -3.9025  -3.9006  -3.8999  -3.8992  -3.8978  -3.8973  -3.8961
    -3.8949  -3.8931  -3.8920  -3.8912  -3.8893  -3.8883  -3.8864  -3.8849
    -3.8835  -3.8818  -3.8778  -3.8769  -3.8762  -3.8716  -3.8705  -3.8672
    -3.8620  -3.8586  -3.8572  -3.8494  -3.8457  -3.8422  -3.8396  -3.8216
    -3.8128  -3.7998  -3.7820  -3.7772  -3.7604  -3.7477  -3.7420  -3.7367
    -3.7325  -3.7244  -3.6842  -3.6316  -3.6222  -3.5655  -3.5218  -3.4889
    -3.4631  -3.3783  -3.2749  -3.2083  -3.1781  -3.1503  -3.0939  -3.0327
    -2.9799  -2.9577  -2.9055  -2.8824  -2.8216  -2.7961  -2.7369  -2.7219
    -2.6770  -2.6632  -2.6463  -2.6314  -2.6066  -2.5728  -2.5078  -2.4886
    -2.4676  -2.4579  -2.4230  -2.3991  -2.3633  -2.3354  -2.2981  -2.2873
    -2.2643  -2.2550  -2.2436  -2.1725  -2.1363  -2.1170  -2.1113  -2.0929
    -2.0756  -2.0588  -2.0015  -0.1276   2.6753   2.8371   2.8770   2.9703
     3.0170   3.0281   3.0435   3.1182   3.1442   3.1572   3.2010   3.2340
     3.2463   3.2876   3.3166   3.3407   3.3729   3.3787   3.4261   3.4553
     3.4897   3.5108   3.5385   3.5882   3.6047   3.6771   3.7180   3.7292
     3.7814   3.8012   3.8607   3.8990   3.9217   4.0716   4.1170   4.1692
     4.2730   4.3347   4.3695   4.4139   4.5440   4.6138   4.7534   4.8115
     4.8795   4.9545   5.0232   5.0517   5.1125   5.1398   5.1714   5.1946
     5.2351   5.3189   5.4118   5.4488   5.4804   5.5490   5.6019   5.7185
     5.7432   5.8010   5.8193   5.8807   5.8912   5.9479   5.9782   6.0224
     6.0710   6.1100   6.1204   6.1973   6.3212   6.3467   6.4304   6.4645
     6.5186   6.5719   6.5901   6.6058   6.6212   6.6495   6.6625   6.6712
     6.6908   6.7056   6.7307   6.7610   6.8127   6.8392   6.8848   6.9081
     6.9766   6.9898   7.0323   7.0769   7.1378   7.1806   7.2217   7.2292
     7.2396   7.2811   7.2974   7.3297   7.3591   7.3986   7.4128   7.4310
     7.4550   7.4837   7.4956   7.5038   7.5321   7.5588   7.5778   7.6034
     7.6443   7.6796   7.6860   7.7033   7.7309   7.7456   7.7792   7.7846
     7.8210   7.8360   7.8529   7.8593   7.8740   7.8937   7.9090   7.9213
     7.9546   7.9644   7.9907   8.0194   8.0404   8.0506   8.0934   8.1135
     8.1685   8.1907   8.2112   8.2242   8.2497   8.3027   8.3180   8.3580
     8.4067   8.4550   8.4875   8.5282   8.5801   8.6234   8.6859   8.7291
     8.8147   8.8571   8.9969   9.0413   9.1979   9.3333  12.0335  12.7413
    13.2674  13.4736  13.4958  13.5501  13.5666  13.6083  13.7061  13.7460
    13.7978  14.0315  14.0463  14.0636  14.0789  14.0967  14.1135  14.1524
    14.1819  14.2180  14.2487  14.2912  14.3222  14.3732  14.4477  14.4969
    14.5581  14.6231  14.6522  14.6956  14.7408  14.7933  14.8204  14.8442
    14.8669  14.9123  14.9268  14.9858  15.0453  15.0800  15.1148  15.1787
    15.2265  15.3234  15.3901  15.4267  15.4702  15.5512  15.5732  15.6162
    15.6496  15.6878  15.7340  15.8258  15.9510  15.9613  16.0263  16.1351
    16.1902  16.2233  16.3479  16.3818  16.3980  16.4378  16.4929  16.5042
    16.5176  16.5462  16.5551  16.6521  16.6900  16.7015  16.7285  16.7418

     occupation numbers 
     1.0000   1.0000   1.0000   1.0000   1.0000   1.0000   1.0000   1.0000
     1.0000   1.0000   1.0000   1.0000   1.0000   1.0000   1.0000   1.0000
     1.0000   1.0000   1.0000   1.0000   1.0000   1.0000   1.0000   1.0000
     1.0000   1.0000   1.0000   1.0000   1.0000   1.0000   1.0000   1.0000
     1.0000   1.0000   1.0000   1.0000   1.0000   1.0000   1.0000   1.0000
     1.0000   1.0000   1.0000   1.0000   1.0000   1.0000   1.0000   1.0000
     1.0000   1.0000   1.0000   1.0000   1.0000   1.0000   1.0000   1.0000
     1.0000   1.0000   1.0000   1.0000   1.0000   1.0000   1.0000   1.0000
     1.0000   1.0000   1.0000   1.0000   1.0000   1.0000   1.0000   1.0000
     1.0000   1.0000   1.0000   1.0000   1.0000   1.0000   1.0000   1.0000
     1.0000   1.0000   1.0000   1.0000   1.0000   1.0000   1.0000   1.0000
     1.0000   1.0000   1.0000   1.0000   1.0000   1.0000   1.0000   1.0000
     1.0000   1.0000   1.0000   1.0000   1.0000   1.0000   1.0000   1.0000
     1.0000   1.0000   1.0000   1.0000   1.0000   1.0000   1.0000   1.0000
     1.0000   1.0000   1.0000   1.0000   1.0000   1.0000   1.0000   1.0000
     1.0000   1.0000   1.0000   1.0000   1.0000   1.0000   1.0000   1.0000
     1.0000   1.0000   1.0000   1.0000   1.0000   1.0000   1.0000   1.0000
     1.0000   1.0000   1.0000   1.0000   1.0000   1.0000   1.0000   1.0000
     1.0000   1.0000   1.0000   1.0000   1.0000   1.0000   1.0000   1.0000
     1.0000   1.0000   1.0000   1.0000   1.0000   1.0000   1.0000   1.0000
     1.0000   1.0000   1.0000   1.0000   1.0000   1.0000   1.0000   1.0000
     1.0000   1.0000   1.0000   1.0000   1.0000   1.0000   1.0000   1.0000
     1.0000   1.0000   1.0000   1.0000   1.0000   1.0000   1.0000   1.0000
     1.0000   1.0000   1.0000   1.0000   1.0000   1.0000   1.0000   1.0000
     1.0000   1.0000   1.0000   1.0000   1.0000   1.0000   1.0000   1.0000
     1.0000   1.0000   1.0000   1.0000   1.0000   1.0000   1.0000   1.0000
     1.0000   1.0000   1.0000   1.0000   1.0000   1.0000   1.0000   1.0000
     1.0000   1.0000   1.0000   1.0000   1.0000   1.0000   1.0000   1.0000
     1.0000   1.0000   1.0000   1.0000   1.0000   1.0000   1.0000   1.0000
     1.0000   1.0000   1.0000   1.0000   1.0000   1.0000   1.0000   1.0000
     1.0000   1.0000   1.0000   1.0000   1.0000   1.0000   1.0000   1.0000
     1.0000   1.0000   1.0000   1.0000   1.0000   1.0000   1.0000   1.0000
     1.0000   1.0000   1.0000   1.0000   1.0000   1.0000   1.0000   1.0000
     1.0000   1.0000   1.0000   1.0000   1.0000   1.0000   1.0000   1.0000
     1.0000   1.0000   1.0000   1.0000   1.0000   1.0000   1.0000   1.0000
     1.0000   1.0000   1.0000   1.0000   1.0000   1.0000   1.0000   1.0000
     1.0000   1.0000   1.0000   1.0000   1.0000   1.0000   1.0000   1.0000
     1.0000   1.0000   1.0000   1.0000   1.0000   1.0000   1.0000   1.0000
     1.0000   1.0000   1.0000   1.0000   1.0000   1.0000   1.0000   1.0000
     1.0000   1.0000   1.0000   1.0000   1.0000   1.0000   1.0000   1.0000
     1.0000   1.0000   1.0000   1.0000   1.0000   1.0000   1.0000   1.0000
     1.0000   1.0000   1.0000   1.0000   1.0000   1.0000   1.0000   1.0000
     1.0000   1.0000   1.0000   1.0000   1.0000   1.0000   1.0000   1.0000
     1.0000   1.0000   1.0000   1.0000   1.0000   1.0000   1.0000   1.0000
     1.0000   1.0000   1.0000   1.0000   1.0000   1.0000   1.0000   1.0000
     1.0000   1.0000   1.0000   1.0000   1.0000   1.0000   1.0000   1.0000
     1.0000   1.0000   1.0000   1.0000   1.0000   1.0000   1.0000   1.0000
     1.0000   1.0000   1.0000   1.0000   1.0000   1.0000   1.0000   1.0000
     1.0000   1.0000   1.0000   1.0000   1.0000   1.0000   1.0000   1.0000
     1.0000   1.0000   1.0000   1.0000   1.0000   1.0000   1.0000   1.0000
     1.0000   1.0000   1.0000   1.0000   1.0000   1.0000   1.0000   1.0000
     1.0000   1.0000   1.0000   1.0000   1.0000   1.0000   1.0000   1.0000
     1.0000   1.0000   1.0000   1.0000   1.0000   1.0000   1.0000   1.0000
     1.0000   1.0000   1.0000   1.0000   1.0000   1.0000   1.0000   1.0000
     1.0000   1.0000   1.0000   1.0000   1.0000   1.0000   1.0000   1.0000
     1.0000   1.0000   1.0000   1.0000   1.0000   1.0000   1.0000   1.0000
     1.0000   1.0000   1.0000   1.0000   1.0000   1.0000   1.0000   1.0000
     1.0000   1.0000   1.0000   1.0000   1.0000   1.0000   1.0000   1.0000
     1.0000   1.0000   1.0000   1.0000   1.0000   1.0000   1.0000   1.0000
     1.0000   1.0000   1.0000   1.0000   1.0000   1.0000   1.0000   1.0000
     1.0000   1.0000   1.0000   1.0000   1.0000   0.5086   0.0000   0.0000
     0.0000   0.0000   0.0000   0.0000   0.0000   0.0000   0.0000   0.0000
     0.0000   0.0000   0.0000   0.0000   0.0000   0.0000   0.0000   0.0000
     0.0000   0.0000   0.0000   0.0000   0.0000   0.0000   0.0000   0.0000
     0.0000   0.0000   0.0000   0.0000   0.0000   0.0000   0.0000   0.0000
     0.0000   0.0000   0.0000   0.0000   0.0000   0.0000   0.0000   0.0000
     0.0000   0.0000   0.0000   0.0000   0.0000   0.0000   0.0000   0.0000
     0.0000   0.0000   0.0000   0.0000   0.0000   0.0000   0.0000   0.0000
     0.0000   0.0000   0.0000   0.0000   0.0000   0.0000   0.0000   0.0000
     0.0000   0.0000   0.0000   0.0000   0.0000   0.0000   0.0000   0.0000

          k =-0.1250-0.5052 0.1533 ( 51231 PWs)   bands (ev):

    -6.2668  -6.1662  -6.1368  -6.0476  -5.9964  -5.9462  -5.9026  -5.8740
    -5.8272  -5.7774  -5.7694  -5.7578  -5.7269  -5.7072  -5.6833  -5.6789
    -5.6742  -5.6696  -5.6641  -5.6606  -5.6561  -5.6481  -5.6429  -5.6388
    -5.6348  -5.6302  -5.6174  -5.6128  -5.6068  -5.6039  -5.6005  -5.5940
    -5.5891  -5.5825  -5.5764  -5.5724  -5.5681  -5.5644  -5.5599  -5.5574
    -5.5516  -5.5486  -5.5456  -5.5442  -5.5427  -5.5415  -5.5374  -5.5356
    -5.5339  -5.5322  -5.5204  -5.4953  -5.4933  -4.2501  -4.1897  -4.1806
    -4.1795  -4.1760  -4.1756  -4.1732  -4.1681  -4.1675  -4.1658  -4.1641
    -4.1630  -4.1602  -4.1574  -4.1568  -4.1537  -4.1518  -4.1513  -4.1502
    -4.1493  -4.1478  -4.1465  -4.1457  -4.1445  -4.1433  -4.1422  -4.1410
    -4.1390  -4.1383  -4.1373  -4.1357  -4.1351  -4.1340  -4.1313  -4.1307
    -4.1292  -4.1273  -4.1264  -4.1247  -4.1230  -4.1221  -4.1218  -4.1203
    -4.1191  -4.1174  -4.1151  -4.1142  -4.1133  -4.1120  -4.1108  -4.1103
    -4.1089  -4.1082  -4.1072  -4.1057  -4.1046  -4.1028  -4.1022  -4.1016
    -4.1000  -4.0983  -4.0970  -4.0944  -4.0924  -4.0912  -4.0877  -4.0872
    -4.0849  -4.0824  -4.0809  -4.0795  -4.0781  -4.0770  -4.0759  -4.0740
    -4.0718  -4.0680  -4.0662  -4.0645  -4.0637  -4.0627  -4.0598  -4.0569
    -4.0553  -4.0520  -4.0466  -4.0429  -4.0403  -4.0380  -4.0371  -4.0345
    -4.0326  -4.0316  -4.0279  -4.0257  -4.0245  -4.0237  -4.0212  -4.0186
    -4.0158  -4.0144  -4.0122  -4.0107  -4.0098  -4.0086  -4.0070  -4.0065
    -4.0050  -4.0037  -4.0007  -4.0003  -3.9983  -3.9968  -3.9957  -3.9947
    -3.9942  -3.9922  -3.9912  -3.9906  -3.9884  -3.9862  -3.9848  -3.9841
    -3.9832  -3.9821  -3.9798  -3.9791  -3.9771  -3.9760  -3.9754  -3.9738
    -3.9733  -3.9711  -3.9704  -3.9693  -3.9677  -3.9663  -3.9659  -3.9641
    -3.9623  -3.9606  -3.9598  -3.9591  -3.9572  -3.9556  -3.9549  -3.9520
    -3.9494  -3.9478  -3.9461  -3.9458  -3.9444  -3.9417  -3.9402  -3.9397
    -3.9388  -3.9358  -3.9339  -3.9327  -3.9303  -3.9295  -3.9278  -3.9253
    -3.9240  -3.9232  -3.9213  -3.9203  -3.9184  -3.9173  -3.9158  -3.9140
    -3.9132  -3.9122  -3.9110  -3.9096  -3.9089  -3.9076  -3.9062  -3.9053
    -3.9041  -3.9027  -3.9014  -3.8995  -3.8991  -3.8980  -3.8966  -3.8960
    -3.8954  -3.8945  -3.8937  -3.8907  -3.8897  -3.8890  -3.8870  -3.8859
    -3.8842  -3.8826  -3.8813  -3.8798  -3.8759  -3.8731  -3.8698  -3.8675
    -3.8662  -3.8645  -3.8612  -3.8563  -3.8482  -3.8418  -3.8389  -3.8230
    -3.8132  -3.7994  -3.7853  -3.7773  -3.7643  -3.7513  -3.7455  -3.7409
    -3.7331  -3.7251  -3.6977  -3.6797  -3.6250  -3.6192  -3.5114  -3.4876
    -3.4431  -3.3993  -3.3302  -3.1791  -3.1256  -3.0814  -2.9829  -2.9547
    -2.8806  -2.8522  -2.8316  -2.8150  -2.7987  -2.7794  -2.7422  -2.7197
    -2.6706  -2.6634  -2.6463  -2.6162  -2.5986  -2.5839  -2.5487  -2.5331
    -2.5007  -2.4670  -2.4530  -2.4197  -2.4100  -2.3876  -2.3428  -2.3110
    -2.2821  -2.2492  -2.2062  -2.1841  -2.1711  -2.1510  -2.1277  -2.0966
    -2.0700  -2.0246  -1.9934  -0.1257   2.7275   2.7422   2.8050   2.9305
     2.9554   2.9642   2.9706   2.9924   3.0127   3.0462   3.1525   3.2157
     3.2353   3.2557   3.2685   3.2848   3.2989   3.3198   3.3834   3.4627
     3.5018   3.5232   3.5420   3.5727   3.5793   3.6475   3.6815   3.7043
     3.7174   3.7638   3.8056   3.9533   3.9828   4.0282   4.1285   4.1649
     4.1931   4.2666   4.4252   4.4485   4.4894   4.6819   4.7713   4.9149
     5.0968   5.1520   5.2287   5.2489   5.2710   5.3058   5.3251   5.3457
     5.4854   5.5173   5.5999   5.6832   5.6924   5.7483   5.7946   5.8131
     5.8456   5.8831   5.9017   5.9265   5.9607   5.9701   6.0510   6.0974
     6.1259   6.1568   6.2394   6.2617   6.3126   6.3210   6.3515   6.3739
     6.4253   6.4877   6.5128   6.5370   6.5563   6.5825   6.5996   6.7335
     6.7604   6.7801   6.7996   6.8774   6.8865   6.9057   6.9096   6.9223
     6.9571   6.9742   7.0331   7.0997   7.1636   7.1787   7.1917   7.2136
     7.2330   7.2357   7.2444   7.2604   7.2695   7.2847   7.2951   7.3229
     7.3468   7.3697   7.3945   7.4177   7.4344   7.4605   7.4906   7.5208
     7.5645   7.5830   7.6255   7.6486   7.6793   7.7001   7.7210   7.7354
     7.7626   7.7836   7.8020   7.8124   7.8357   7.8418   7.8447   7.8573
     7.8692   7.8845   7.9094   7.9371   7.9568   7.9636   7.9753   8.0185
     8.0511   8.1105   8.1322   8.1724   8.2203   8.2375   8.3167   8.3343
     8.3618   8.4460   8.4817   8.5263   8.5810   8.6222   8.7122   8.7538
     8.7799   8.8769   8.9208   8.9738   9.1592   9.2763  12.4582  12.8798
    13.0330  13.3011  13.4271  13.5514  13.6058  13.7911  13.8217  13.9765
    13.9920  14.0190  14.0708  14.2749  14.2946  14.3204  14.3298  14.3717
    14.3853  14.4016  14.4033  14.4273  14.4467  14.4575  14.4889  14.5182
    14.5736  14.6445  14.6830  14.7074  14.7576  14.8019  14.8157  14.8660
    14.8973  14.9372  14.9649  15.0131  15.0458  15.0919  15.1144  15.1944
    15.2582  15.3531  15.5017  15.5453  15.5535  15.5767  15.5930  15.6185
    15.6301  15.6417  15.6713  15.7030  15.8169  15.9299  16.0093  16.0570
    16.2747  16.3479  16.4180  16.4213  16.4509  16.4785  16.5017  16.5164
    16.6211  16.6399  16.6548  16.6854  16.7059  16.7489  16.8041  16.8236

     occupation numbers 
     1.0000   1.0000   1.0000   1.0000   1.0000   1.0000   1.0000   1.0000
     1.0000   1.0000   1.0000   1.0000   1.0000   1.0000   1.0000   1.0000
     1.0000   1.0000   1.0000   1.0000   1.0000   1.0000   1.0000   1.0000
     1.0000   1.0000   1.0000   1.0000   1.0000   1.0000   1.0000   1.0000
     1.0000   1.0000   1.0000   1.0000   1.0000   1.0000   1.0000   1.0000
     1.0000   1.0000   1.0000   1.0000   1.0000   1.0000   1.0000   1.0000
     1.0000   1.0000   1.0000   1.0000   1.0000   1.0000   1.0000   1.0000
     1.0000   1.0000   1.0000   1.0000   1.0000   1.0000   1.0000   1.0000
     1.0000   1.0000   1.0000   1.0000   1.0000   1.0000   1.0000   1.0000
     1.0000   1.0000   1.0000   1.0000   1.0000   1.0000   1.0000   1.0000
     1.0000   1.0000   1.0000   1.0000   1.0000   1.0000   1.0000   1.0000
     1.0000   1.0000   1.0000   1.0000   1.0000   1.0000   1.0000   1.0000
     1.0000   1.0000   1.0000   1.0000   1.0000   1.0000   1.0000   1.0000
     1.0000   1.0000   1.0000   1.0000   1.0000   1.0000   1.0000   1.0000
     1.0000   1.0000   1.0000   1.0000   1.0000   1.0000   1.0000   1.0000
     1.0000   1.0000   1.0000   1.0000   1.0000   1.0000   1.0000   1.0000
     1.0000   1.0000   1.0000   1.0000   1.0000   1.0000   1.0000   1.0000
     1.0000   1.0000   1.0000   1.0000   1.0000   1.0000   1.0000   1.0000
     1.0000   1.0000   1.0000   1.0000   1.0000   1.0000   1.0000   1.0000
     1.0000   1.0000   1.0000   1.0000   1.0000   1.0000   1.0000   1.0000
     1.0000   1.0000   1.0000   1.0000   1.0000   1.0000   1.0000   1.0000
     1.0000   1.0000   1.0000   1.0000   1.0000   1.0000   1.0000   1.0000
     1.0000   1.0000   1.0000   1.0000   1.0000   1.0000   1.0000   1.0000
     1.0000   1.0000   1.0000   1.0000   1.0000   1.0000   1.0000   1.0000
     1.0000   1.0000   1.0000   1.0000   1.0000   1.0000   1.0000   1.0000
     1.0000   1.0000   1.0000   1.0000   1.0000   1.0000   1.0000   1.0000
     1.0000   1.0000   1.0000   1.0000   1.0000   1.0000   1.0000   1.0000
     1.0000   1.0000   1.0000   1.0000   1.0000   1.0000   1.0000   1.0000
     1.0000   1.0000   1.0000   1.0000   1.0000   1.0000   1.0000   1.0000
     1.0000   1.0000   1.0000   1.0000   1.0000   1.0000   1.0000   1.0000
     1.0000   1.0000   1.0000   1.0000   1.0000   1.0000   1.0000   1.0000
     1.0000   1.0000   1.0000   1.0000   1.0000   1.0000   1.0000   1.0000
     1.0000   1.0000   1.0000   1.0000   1.0000   1.0000   1.0000   1.0000
     1.0000   1.0000   1.0000   1.0000   1.0000   1.0000   1.0000   1.0000
     1.0000   1.0000   1.0000   1.0000   1.0000   1.0000   1.0000   1.0000
     1.0000   1.0000   1.0000   1.0000   1.0000   1.0000   1.0000   1.0000
     1.0000   1.0000   1.0000   1.0000   1.0000   1.0000   1.0000   1.0000
     1.0000   1.0000   1.0000   1.0000   1.0000   1.0000   1.0000   1.0000
     1.0000   1.0000   1.0000   1.0000   1.0000   1.0000   1.0000   1.0000
     1.0000   1.0000   1.0000   1.0000   1.0000   1.0000   1.0000   1.0000
     1.0000   1.0000   1.0000   1.0000   1.0000   1.0000   1.0000   1.0000
     1.0000   1.0000   1.0000   1.0000   1.0000   1.0000   1.0000   1.0000
     1.0000   1.0000   1.0000   1.0000   1.0000   1.0000   1.0000   1.0000
     1.0000   1.0000   1.0000   1.0000   1.0000   1.0000   1.0000   1.0000
     1.0000   1.0000   1.0000   1.0000   1.0000   1.0000   1.0000   1.0000
     1.0000   1.0000   1.0000   1.0000   1.0000   1.0000   1.0000   1.0000
     1.0000   1.0000   1.0000   1.0000   1.0000   1.0000   1.0000   1.0000
     1.0000   1.0000   1.0000   1.0000   1.0000   1.0000   1.0000   1.0000
     1.0000   1.0000   1.0000   1.0000   1.0000   1.0000   1.0000   1.0000
     1.0000   1.0000   1.0000   1.0000   1.0000   1.0000   1.0000   1.0000
     1.0000   1.0000   1.0000   1.0000   1.0000   1.0000   1.0000   1.0000
     1.0000   1.0000   1.0000   1.0000   1.0000   1.0000   1.0000   1.0000
     1.0000   1.0000   1.0000   1.0000   1.0000   1.0000   1.0000   1.0000
     1.0000   1.0000   1.0000   1.0000   1.0000   1.0000   1.0000   1.0000
     1.0000   1.0000   1.0000   1.0000   1.0000   1.0000   1.0000   1.0000
     1.0000   1.0000   1.0000   1.0000   1.0000   1.0000   1.0000   1.0000
     1.0000   1.0000   1.0000   1.0000   1.0000   1.0000   1.0000   1.0000
     1.0000   1.0000   1.0000   1.0000   1.0000   1.0000   1.0000   1.0000
     1.0000   1.0000   1.0000   1.0000   1.0000   1.0000   1.0000   1.0000
     1.0000   1.0000   1.0000   1.0000   1.0000   1.0000   1.0000   1.0000
     1.0000   1.0000   1.0000   1.0000   1.0000   1.0674   0.0000   0.0000
     0.0000   0.0000   0.0000   0.0000   0.0000   0.0000   0.0000   0.0000
     0.0000   0.0000   0.0000   0.0000   0.0000   0.0000   0.0000   0.0000
     0.0000   0.0000   0.0000   0.0000   0.0000   0.0000   0.0000   0.0000
     0.0000   0.0000   0.0000   0.0000   0.0000   0.0000   0.0000   0.0000
     0.0000   0.0000   0.0000   0.0000   0.0000   0.0000   0.0000   0.0000
     0.0000   0.0000   0.0000   0.0000   0.0000   0.0000   0.0000   0.0000
     0.0000   0.0000   0.0000   0.0000   0.0000   0.0000   0.0000   0.0000
     0.0000   0.0000   0.0000   0.0000   0.0000   0.0000   0.0000   0.0000
     0.0000   0.0000   0.0000   0.0000   0.0000   0.0000   0.0000   0.0000

     the Fermi energy is     9.3346 ev
     (compare with:     9.3523 eV, computed in scf)

     Writing all to output data dir ./tmp/GaN.save/ :
     XML data file, pseudopotentials, collected wavefunctions
 
     init_run     :      3.31s CPU      4.07s WALL (       1 calls)
     electrons    :  22302.59s CPU  23129.31s WALL (       1 calls)

     Called by init_run:
     wfcinit      :      0.00s CPU      0.00s WALL (       1 calls)
     wfcinit:atom :      0.87s CPU      2.09s WALL (      70 calls)
     wfcinit:wfcr :    326.23s CPU    335.04s WALL (      70 calls)
     potinit      :      1.35s CPU      1.50s WALL (       1 calls)
     hinit0       :      0.67s CPU      0.76s WALL (       1 calls)

     Called by electrons:
     c_bands      :  22301.32s CPU  23127.96s WALL (       1 calls)
     v_of_rho     :      0.25s CPU      0.31s WALL (       1 calls)
     v_h          :      0.02s CPU      0.02s WALL (       1 calls)
     v_xc         :      0.23s CPU      0.30s WALL (       1 calls)
     newd         :      0.62s CPU      1.06s WALL (       1 calls)
     PAW_pot      :      1.02s CPU      1.05s WALL (       1 calls)

     Called by c_bands:
     init_us_2    :      3.12s CPU      3.45s WALL (      70 calls)
     cegterg      :  21947.49s CPU  22715.51s WALL (     400 calls)

     Called by sum_band:

     Called by *egterg:
     cdiaghg      :  10183.50s CPU  10593.98s WALL (    7875 calls)
     cegterg:over :   2455.70s CPU   2557.21s WALL (    7805 calls)
     cegterg:upda :   1790.26s CPU   1824.45s WALL (    7805 calls)
     cegterg:last :   1322.93s CPU   1325.97s WALL (     750 calls)
     cdiaghg:chol :    294.60s CPU    448.62s WALL (    7875 calls)
     cdiaghg:inve :     71.73s CPU    101.36s WALL (    7875 calls)
     cdiaghg:para :   1891.83s CPU   1946.64s WALL (   15750 calls)
     h_psi        :   4868.68s CPU   5035.17s WALL (    8275 calls)
     s_psi        :   1338.09s CPU   1354.28s WALL (    8275 calls)
     g_psi        :     13.22s CPU     13.28s WALL (    7805 calls)

     Called by h_psi:
     h_psi:calbec :   1431.47s CPU   1435.68s WALL (    8275 calls)
     vloc_psi     :   2065.05s CPU   2194.85s WALL (    8275 calls)
     add_vuspsi   :   1349.76s CPU   1368.10s WALL (    8275 calls)

     General routines
     calbec       :   1431.42s CPU   1435.64s WALL (    8275 calls)
     fft          :      0.11s CPU      0.16s WALL (      23 calls)
     ffts         :      0.00s CPU      0.01s WALL (       2 calls)
     fftw         :   1382.22s CPU   1475.39s WALL ( 2405666 calls)
     interpolate  :      0.02s CPU      0.02s WALL (       2 calls)
     davcio       :      0.99s CPU     48.05s WALL (     140 calls)
 
     Parallel routines

     PAW routines
     PAW_pot      :      1.02s CPU      1.05s WALL (       1 calls)
 
     PWSCF        :      6h12m CPU      6h30m WALL

 
   This run was terminated on:   1: 3:54   1Sep2026            

=------------------------------------------------------------------------------=
   JOB DONE.
=------------------------------------------------------------------------------=
