<UPF version="2.0.1">
  <PP_INFO>
    Generated using "atomic" code by A. Dal Corso  v.7.3.1
    Author: ADC
    Generation date: 24Apr2026
    Pseudopotential type: PAW
    Element:  C
    Functional:  SLA  PW   PBX  PBC
    Suggested minimum cutoff for wavefunctions:  40. Ry
    Suggested minimum cutoff for charge density: 326. Ry
    The Pseudo was generated with a Scalar-Relativistic Calculation
    Local Potential by smoothing AE potential with Bessel fncs, cutoff radius:   0.9000
    Valence configuration: 
    nl pn  l   occ       Rcut    Rcut US       E pseu
    2S  1  0  2.00      1.000      1.200    -1.010678
    2P  2  1  2.00      0.900      1.400    -0.388489
    Generation configuration:
    2S  1  0  2.00      1.000      1.200    -1.010669
    2S  1  0  0.00      1.000      1.200     3.000000
    2P  2  1  2.00      0.900      1.400    -0.388487
    2P  2  1  0.00      0.900      1.400     0.050000
    Pseudization used: troullier-martins
    <PP_INPUTFILE>
@input
title='C',
zed=6.,
rel=1,
config='[He] 2s2 2p2',
iswitch=3,
dft='PBE'
/
@inputp
lpaw=.true.,
pseudotype=3,
file_pseudopw='C.pbe-n-kjpaw_psl.1.0.0.UPF',
author='ADC',
lloc=-1,
rcloc=0.9
which_augfun='PSQ',
rmatch_augfun_nc=.true.,
nlcc=.true.,
new_core_ps=.true.,
rcore=0.7,
tm=.true.
/
4
2S  1  0  2.00  0.00  1.00  1.20  0.0
2S  1  0  0.00  3.00  1.00  1.20  0.0
2P  2  1  2.00  0.00  0.90  1.40  0.0
2P  2  1  0.00  0.05  0.90  1.40  0.0
    </PP_INPUTFILE>
  </PP_INFO>
    <!-- END OF HUMAN READABLE SECTION -->
  <PP_HEADER generated="Generated using 'atomic' code by A. Dal Corso  v.7.3.1" author="ADC" date="24Apr2026" comment="" element=" C" pseudo_type="PAW" relativistic="scalar" is_ultrasoft="true" is_paw="true" is_coulomb="false" has_so="false" has_wfc="true" has_gipaw="false" paw_as_gipaw="false" core_correction="true" with_metagga_info="false" functional=" SLA  PW   PBX  PBC" z_valence="4.00000000000000" total_psenergy="-17.7658519914888" wfc_cutoff="40.1867664546329" rho_cutoff="326.260590019327" l_max="1" l_max_rho="2" l_local="-1" mesh_size="1073" number_of_wfc="2" number_of_proj="4"/>
  <PP_MESH mesh="1073" dx="1.250000000000000E-002" xmin="-7.00000000000000" rmax="100.000000000000" zmesh="6.00000000000000">
    <PP_R>
   1.519803275924194E-04   1.538920047781704E-04   1.558277279027637E-04
   1.577877994268757E-04   1.597725256156700E-04   1.617822165866515E-04
   1.638171863581231E-04   1.658777528982519E-04   1.679642381747517E-04
   1.700769682051924E-04   1.722162731079395E-04   1.743824871537364E-04
   1.765759488179350E-04   1.787970008333828E-04   1.810459902439763E-04
   1.833232684588864E-04   1.856291913074672E-04   1.879641190948554E-04
   1.903284166582679E-04   1.927224534240096E-04   1.951466034651957E-04
   1.976012455602021E-04   2.000867632518501E-04   2.026035449073358E-04
   2.051519837789135E-04   2.077324780653416E-04   2.103454309741024E-04
   2.129912507844041E-04   2.156703509109746E-04   2.183831499686600E-04
   2.211300718378319E-04   2.239115457306211E-04   2.267280062579823E-04
   2.295798934976028E-04   2.324676530626665E-04   2.353917361714803E-04
   2.383525997179791E-04   2.413507063431159E-04   2.443865245071505E-04
   2.474605285628478E-04   2.505731988295954E-04   2.537250216684552E-04
   2.569164895581584E-04   2.601481011720554E-04   2.634203614560362E-04
   2.667337817074274E-04   2.700888796548844E-04   2.734861795392877E-04
   2.769262121956556E-04   2.804095151360902E-04   2.839366326337623E-04
   2.875081158079570E-04   2.911245227101866E-04   2.947864184113868E-04
   2.984943750902116E-04   3.022489721224359E-04   3.060507961714845E-04
   3.099004412801001E-04   3.137985089631629E-04   3.177456083016794E-04
   3.217423560379515E-04   3.257893766719445E-04   3.298873025588661E-04
   3.340367740079732E-04   3.382384393826223E-04   3.424929552015765E-04
   3.468009862415882E-04   3.511632056412723E-04   3.555802950062847E-04
   3.600529445158257E-04   3.645818530304808E-04   3.691677282014195E-04
   3.738112865809672E-04   3.785132537345678E-04   3.832743643541560E-04
   3.880953623729523E-04   3.929770010817054E-04   3.979200432463956E-04
   4.029252612274172E-04   4.079934371002638E-04   4.131253627777264E-04
   4.183218401336331E-04   4.235836811281430E-04   4.289117079346167E-04
   4.343067530680830E-04   4.397696595153202E-04   4.453012808665751E-04
   4.509024814489378E-04   4.565741364613947E-04   4.623171321115814E-04
   4.681323657542521E-04   4.740207460314946E-04   4.799831930147072E-04
   4.860206383483612E-04   4.921340253955744E-04   4.983243093855100E-04
   5.045924575626359E-04   5.109394493378571E-04   5.173662764415514E-04
   5.238739430785300E-04   5.304634660849444E-04   5.371358750871710E-04
   5.438922126626913E-04   5.507335345029970E-04   5.576609095785453E-04
   5.646754203057852E-04   5.717781627162890E-04   5.789702466280089E-04
   5.862527958186881E-04   5.936269482014549E-04   6.010938560026217E-04
   6.086546859417239E-04   6.163106194138220E-04   6.240628526740967E-04
   6.319125970247679E-04   6.398610790043606E-04   6.479095405793550E-04
   6.560592393382472E-04   6.643114486880484E-04   6.726674580532597E-04
   6.811285730773444E-04   6.896961158267394E-04   6.983714249974299E-04
   7.071558561241233E-04   7.160507817920566E-04   7.250575918514615E-04
   7.341776936347343E-04   7.434125121763336E-04   7.527634904354445E-04
   7.622320895214454E-04   7.718197889222076E-04   7.815280867352685E-04
   7.913584999019129E-04   8.013125644441975E-04   8.113918357049605E-04
   8.215978885908419E-04   8.319323178183695E-04   8.423967381631357E-04
   8.529927847121086E-04   8.637221131191208E-04   8.745863998635640E-04
   8.855873425123459E-04   8.967266599851367E-04   9.080060928229541E-04
   9.194274034601286E-04   9.309923764996833E-04   9.427028189921846E-04
   9.545605607180975E-04   9.665674544736902E-04   9.787253763605419E-04
   9.910362260786823E-04   1.003501927223426E-03   1.016124427585940E-03
   1.028905699457584E-03   1.041847739938093E-03   1.054952571247624E-03
   1.068222241042730E-03   1.081658822736315E-03   1.095264415821602E-03
   1.109041146200195E-03   1.122991166514245E-03   1.137116656482804E-03
   1.151419823242422E-03   1.165902901692002E-03   1.180568154842021E-03
   1.195417874168116E-03   1.210454379969149E-03   1.225680021729739E-03
   1.241097178487390E-03   1.256708259204213E-03   1.272515703143327E-03
   1.288521980250012E-03   1.304729591537629E-03   1.321141069478416E-03
   1.337758978399193E-03   1.354585914882035E-03   1.371624508170005E-03
   1.388877420577968E-03   1.406347347908588E-03   1.424037019873558E-03
   1.441949200520106E-03   1.460086688662905E-03   1.478452318321376E-03
   1.497048959162519E-03   1.515879516949304E-03   1.534946933994690E-03
   1.554254189621388E-03   1.573804300627369E-03   1.593600321757251E-03
   1.613645346179615E-03   1.633942505970304E-03   1.654494972601835E-03
   1.675305957438931E-03   1.696378712240311E-03   1.717716529666792E-03
   1.739322743795751E-03   1.761200730642109E-03   1.783353908685821E-03
   1.805785739406025E-03   1.828499727821915E-03   1.851499423040384E-03
   1.874788418810611E-03   1.898370354085563E-03   1.922248913590603E-03
   1.946427828399242E-03   1.970910876516103E-03   1.995701883467270E-03
   2.020804722898016E-03   2.046223317178073E-03   2.071961638014515E-03
   2.098023707072333E-03   2.124413596602845E-03   2.151135430079979E-03
   2.178193382844580E-03   2.205591682756823E-03   2.233334610856804E-03
   2.261426502033489E-03   2.289871745702024E-03   2.318674786489603E-03
   2.347840124929956E-03   2.377372318166543E-03   2.407275980664646E-03
   2.437555784932370E-03   2.468216462250733E-03   2.499262803412953E-03
   2.530699659472991E-03   2.562531942503572E-03   2.594764626363682E-03
   2.627402747475748E-03   2.660451405612604E-03   2.693915764694312E-03
   2.727801053595071E-03   2.762112566960209E-03   2.796855666033493E-03
   2.832035779494847E-03   2.867658404308564E-03   2.903729106582252E-03
   2.940253522436527E-03   2.977237358885672E-03   3.014686394729385E-03
   3.052606481455696E-03   3.091003544155314E-03   3.129883582447401E-03
   3.169252671417043E-03   3.209116962564488E-03   3.249482684766332E-03
   3.290356145248797E-03   3.331743730573238E-03   3.373651907634065E-03
   3.416087224669209E-03   3.459056312283290E-03   3.502565884483672E-03
   3.546622739729529E-03   3.591233761994128E-03   3.636405921840462E-03
   3.682146277510407E-03   3.728461976027600E-03   3.775360254314162E-03
   3.822848440321488E-03   3.870933954175262E-03   3.919624309334851E-03
   3.968927113767313E-03   4.018850071136146E-03   4.069400982005006E-03
   4.120587745056566E-03   4.172418358326691E-03   4.224900920454158E-03
   4.278043631946072E-03   4.331854796459225E-03   4.386342822097552E-03
   4.441516222725914E-03   4.497383619300414E-03   4.553953741215428E-03
   4.611235427667596E-03   4.669237629036970E-03   4.727969408285517E-03
   4.787439942373239E-03   4.847658523692079E-03   4.908634561517881E-03
   4.970377583480618E-03   5.032897237053083E-03   5.096203291058349E-03
   5.160305637196149E-03   5.225214291588481E-03   5.290939396344658E-03
   5.357491221146011E-03   5.424880164850572E-03   5.493116757117894E-03
   5.562211660054346E-03   5.632175669879093E-03   5.703019718611005E-03
   5.774754875776837E-03   5.847392350140840E-03   5.920943491456160E-03
   5.995419792238278E-03   6.070832889560705E-03   6.147194566873336E-03
   6.224516755843603E-03   6.302811538220847E-03   6.382091147724110E-03
   6.462367971953668E-03   6.543654554326636E-03   6.625963596036886E-03
   6.709307958039642E-03   6.793700663061037E-03   6.879154897632925E-03
   6.965684014153319E-03   7.053301532972719E-03   7.142021144506698E-03
   7.231856711375062E-03   7.322822270567903E-03   7.414932035638920E-03
   7.508200398926303E-03   7.602641933801568E-03   7.698271396946687E-03
   7.795103730659830E-03   7.893154065190155E-03   7.992437721101912E-03
   8.092970211668328E-03   8.194767245295597E-03   8.297844727977323E-03
   8.402218765779896E-03   8.507905667359069E-03   8.614921946508234E-03
   8.723284324738730E-03   8.833009733892633E-03   8.944115318788356E-03
   9.056618439899581E-03   9.170536676067875E-03   9.285887827249399E-03
   9.402689917296224E-03   9.520961196772548E-03   9.640720145806414E-03
   9.761985476977259E-03   9.884776138239786E-03   1.000911131588466E-02
   1.013501043753633E-02   1.026249317518870E-02   1.039157944827891E-02
   1.052228942679973E-02   1.065464353445126E-02   1.078866245183209E-02
   1.092436711967073E-02   1.106177874209761E-02   1.120091878995829E-02
   1.134180900416836E-02   1.148447139911043E-02   1.162892826607394E-02
   1.177520217673827E-02   1.192331598669953E-02   1.207329283904191E-02
   1.222515616795369E-02   1.237892970238898E-02   1.253463746977540E-02
   1.269230379976839E-02   1.285195332805279E-02   1.301361100019219E-02
   1.317730207552678E-02   1.334305213112010E-02   1.351088706575554E-02
   1.368083310398313E-02   1.385291680021709E-02   1.402716504288507E-02
   1.420360505862948E-02   1.438226441656175E-02   1.456317103257006E-02
   1.474635317368122E-02   1.493183946247745E-02   1.511965888156876E-02
   1.530984077812148E-02   1.550241486844391E-02   1.569741124262945E-02
   1.589486036925827E-02   1.609479310015814E-02   1.629724067522501E-02
   1.650223472730438E-02   1.670980728713396E-02   1.691999078834851E-02
   1.713281807254774E-02   1.734832239442777E-02   1.756653742697739E-02
   1.778749726673937E-02   1.801123643913822E-02   1.823778990387483E-02
   1.846719306038899E-02   1.869948175339062E-02   1.893469227846063E-02
   1.917286138772207E-02   1.941402629558284E-02   1.965822468455043E-02
   1.990549471111994E-02   2.015587501173612E-02   2.040940470883032E-02
   2.066612341693354E-02   2.092607124886622E-02   2.118928882200593E-02
   2.145581726463404E-02   2.172569822236195E-02   2.199897386463838E-02
   2.227568689133842E-02   2.255588053943545E-02   2.283959858975708E-02
   2.312688537382588E-02   2.341778578078636E-02   2.371234526441894E-02
   2.401060985024221E-02   2.431262614270457E-02   2.461844133246614E-02
   2.492810320377252E-02   2.524166014192111E-02   2.555916114082141E-02
   2.588065581065050E-02   2.620619438560461E-02   2.653582773174839E-02
   2.686960735496281E-02   2.720758540899307E-02   2.754981470359776E-02
   2.789634871280042E-02   2.824724158324503E-02   2.860254814265648E-02
   2.896232390840752E-02   2.932662509619358E-02   2.969550862881641E-02
   3.006903214507848E-02   3.044725400878913E-02   3.083023331788404E-02
   3.121802991365951E-02   3.161070439012255E-02   3.200831810345903E-02
   3.241093318162061E-02   3.281861253403234E-02   3.323141986142253E-02
   3.364941966577591E-02   3.407267726041235E-02   3.450125878019213E-02
   3.493523119184963E-02   3.537466230445718E-02   3.581962078002011E-02
   3.627017614420550E-02   3.672639879720566E-02   3.718836002473830E-02
   3.765613200918515E-02   3.812978784087041E-02   3.860940152948148E-02
   3.909504801563297E-02   3.958680318257635E-02   4.008474386805703E-02
   4.058894787632013E-02   4.109949399026776E-02   4.161646198376895E-02
   4.213993263412441E-02   4.266998773468834E-02   4.320671010764860E-02
   4.375018361696790E-02   4.430049318148779E-02   4.485772478819731E-02
   4.542196550566877E-02   4.599330349766220E-02   4.657182803690124E-02
   4.715762951902217E-02   4.775079947669834E-02   4.835143059394256E-02
   4.895961672058882E-02   4.957545288695678E-02   5.019903531870038E-02
   5.083046145184321E-02   5.146982994800332E-02   5.211724070980898E-02
   5.277279489650889E-02   5.343659493977848E-02   5.410874455972495E-02
   5.478934878109402E-02   5.547851394967994E-02   5.617634774894241E-02
   5.688295921683232E-02   5.759845876282908E-02   5.832295818519257E-02
   5.905657068843147E-02   5.979941090099196E-02   6.055159489316858E-02
   6.131324019524038E-02   6.208446581583550E-02   6.286539226052618E-02
   6.365614155065819E-02   6.445683724241691E-02   6.526760444613317E-02
   6.608856984583215E-02   6.691986171902779E-02   6.776160995676656E-02
   6.861394608392313E-02   6.947700327975140E-02   7.035091639869426E-02
   7.123582199145446E-02   7.213185832633125E-02   7.303916541082492E-02
   7.395788501351330E-02   7.488816068620360E-02   7.583013778636227E-02
   7.678396349982768E-02   7.774978686380811E-02   7.872775879016911E-02
   7.971803208901401E-02   8.072076149256044E-02   8.173610367931772E-02
   8.276421729856831E-02   8.380526299515681E-02   8.485940343459154E-02
   8.592680332846071E-02   8.700762946016939E-02   8.810205071099961E-02
   8.921023808649838E-02   9.033236474319786E-02   9.146860601567110E-02
   9.261913944392861E-02   9.378414480115935E-02   9.496380412182050E-02
   9.615830173008112E-02   9.736782426862267E-02   9.859256072780256E-02
   9.983270247518429E-02   1.010884432854389E-01   1.023599793706230E-01
   1.036475094108367E-01   1.049512345852684E-01   1.062713586036290E-01
   1.076080877379820E-01   1.089616308549746E-01   1.103321994484724E-01
   1.117200076726066E-01   1.131252723752358E-01   1.145482131318287E-01
   1.159890522797737E-01   1.174480149531189E-01   1.189253291177505E-01
   1.204212256070121E-01   1.219359381577736E-01   1.234697034469530E-01
   1.250227611284970E-01   1.265953538708282E-01   1.281877273947618E-01
   1.298001305119008E-01   1.314328151635128E-01   1.330860364598962E-01
   1.347600527202421E-01   1.364551255129971E-01   1.381715196967334E-01
   1.399095034615346E-01   1.416693483708997E-01   1.434513294041764E-01
   1.452557249995264E-01   1.470828170974326E-01   1.489328911847526E-01
   1.508062363393266E-01   1.527031452751463E-01   1.546239143880923E-01
   1.565688438022459E-01   1.585382374167857E-01   1.605324029534703E-01
   1.625516520047222E-01   1.645963000823137E-01   1.666666666666667E-01
   1.687630752567724E-01   1.708858534207382E-01   1.730353328469709E-01
   1.752118493960041E-01   1.774157431529765E-01   1.796473584807720E-01
   1.819070440738253E-01   1.841951530126080E-01   1.865120428187969E-01
   1.888580755111377E-01   1.912336176620121E-01   1.936390404547139E-01
   1.960747197414485E-01   1.985410361020598E-01   2.010383749034968E-01
   2.035671263600283E-01   2.061276855942142E-01   2.087204526986442E-01
   2.113458327984534E-01   2.140042361146235E-01   2.166960780280819E-01
   2.194217791446036E-01   2.221817653605339E-01   2.249764679293340E-01
   2.278063235289660E-01   2.306717743301253E-01   2.335732680653290E-01
   2.365112580988763E-01   2.394862034976876E-01   2.424985691030335E-01
   2.455488256031693E-01   2.486374496068784E-01   2.517649237179456E-01
   2.549317366105633E-01   2.581383831056888E-01   2.613853642483615E-01
   2.646731873859907E-01   2.680023662476306E-01   2.713734210242518E-01
   2.747868784500214E-01   2.782432718846072E-01   2.817431413965153E-01
   2.852870338474776E-01   2.888755029778994E-01   2.925091094933830E-01
   2.961884211523398E-01   2.999140128547015E-01   3.036864667317516E-01
   3.075063722370835E-01   3.113743262387037E-01   3.152909331122950E-01
   3.192568048356494E-01   3.232725610842925E-01   3.273388293283080E-01
   3.314562449303819E-01   3.356254512450795E-01   3.398470997193693E-01
   3.441218499944146E-01   3.484503700086428E-01   3.528333361021124E-01
   3.572714331221932E-01   3.617653545305738E-01   3.663158025116172E-01
   3.709234880820782E-01   3.755891312022014E-01   3.803134608882173E-01
   3.850972153262507E-01   3.899411419876653E-01   3.948459977458569E-01
   3.998125489945163E-01   4.048415717673814E-01   4.099338518594918E-01
   4.150901849499720E-01   4.203113767263583E-01   4.255982430104878E-01
   4.309516098859745E-01   4.363723138272836E-01   4.418612018304346E-01
   4.474191315453453E-01   4.530469714098408E-01   4.587456007853512E-01
   4.645159100943086E-01   4.703588009592832E-01   4.762751863438609E-01
   4.822659906952935E-01   4.883321500889508E-01   4.944746123745781E-01
   5.006943373244053E-01   5.069922967831109E-01   5.133694748196718E-01
   5.198268678811325E-01   5.263654849482948E-01   5.329863476933790E-01
   5.396904906396605E-01   5.464789613231122E-01   5.533528204560918E-01
   5.603131420930717E-01   5.673610137984696E-01   5.744975368165794E-01
   5.817238262436402E-01   5.890410112020789E-01   5.964502350169301E-01
   6.039526553944901E-01   6.115494446032077E-01   6.192417896568506E-01
   6.270308924999857E-01   6.349179701957770E-01   6.429042551161621E-01
   6.509909951344091E-01   6.591794538200961E-01   6.674709106365548E-01
   6.758666611407793E-01   6.843680171858685E-01   6.929763071260018E-01
   7.016928760239933E-01   7.105190858614703E-01   7.194563157516740E-01
   7.285059621549594E-01   7.376694390969896E-01   7.469481783896774E-01
   7.563436298549179E-01   7.658572615511150E-01   7.754905600025781E-01
   7.852450304317907E-01   7.951221969946004E-01   8.051236030183806E-01
   8.152508112431677E-01   8.255054040658522E-01   8.358889837874270E-01
   8.464031728633469E-01   8.570496141570485E-01   8.678299711966417E-01
   8.787459284348482E-01   8.897991915121966E-01   9.009914875235278E-01
   9.123245652878675E-01   9.238001956216706E-01   9.354201716155257E-01
   9.471863089143246E-01   9.591004460009551E-01   9.711644444835799E-01
   9.833801893865030E-01   9.957495894447203E-01   1.008274577402158E+00
   1.020957110313664E+00   1.033799169850812E+00   1.046802762611528E+00
   1.059969920433638E+00   1.073302700712344E+00   1.086803186721685E+00
   1.100473487940072E+00   1.114315740379879E+00   1.128332106921212E+00
   1.142524777649864E+00   1.156895970199506E+00   1.171447930098217E+00
   1.186182931119333E+00   1.201103275636744E+00   1.216211294984639E+00
   1.231509349821775E+00   1.246999830500348E+00   1.262685157439475E+00
   1.278567781503404E+00   1.294650184384463E+00   1.310934878990815E+00
   1.327424409839130E+00   1.344121353452146E+00   1.361028318761274E+00
   1.378147947514246E+00   1.395482914687877E+00   1.413035928906063E+00
   1.430809732862983E+00   1.448807103751667E+00   1.467030853697935E+00
   1.485483830199789E+00   1.504168916572355E+00   1.523089032398388E+00
   1.542247133984481E+00   1.561646214822989E+00   1.581289306059754E+00
   1.601179476967752E+00   1.621319835426648E+00   1.641713528408430E+00
   1.662363742469121E+00   1.683273704246675E+00   1.704446680965168E+00
   1.725885980945282E+00   1.747594954121262E+00   1.769576992564335E+00
   1.791835531012726E+00   1.814374047408358E+00   1.837196063440267E+00
   1.860305145094894E+00   1.883704903213265E+00   1.907398994055187E+00
   1.931391119870567E+00   1.955685029477869E+00   1.980284518849899E+00
   2.005193431706923E+00   2.030415660117245E+00   2.055955145105377E+00
   2.081815877267802E+00   2.108001897396537E+00   2.134517297110507E+00
   2.161366219494855E+00   2.188552859748338E+00   2.216081465838798E+00
   2.243956339166951E+00   2.272181835238460E+00   2.300762364344516E+00
   2.329702392250941E+00   2.359006440895968E+00   2.388679089096825E+00
   2.418724973265154E+00   2.449148788131490E+00   2.479955287478808E+00
   2.511149284885299E+00   2.542735654476530E+00   2.574719331687004E+00
   2.607105314031362E+00   2.639898661885239E+00   2.673104499275946E+00
   2.706728014683143E+00   2.740774461849510E+00   2.775249160601691E+00
   2.810157497681508E+00   2.845504927587643E+00   2.881296973427944E+00
   2.917539227782382E+00   2.954237353576940E+00   2.991397084968443E+00
   3.029024228240511E+00   3.067124662710845E+00   3.105704341649836E+00
   3.144769293210814E+00   3.184325621371944E+00   3.224379506889969E+00
   3.264937208266003E+00   3.306005062723389E+00   3.347589487197944E+00
   3.389696979340604E+00   3.432334118532673E+00   3.475507566913905E+00
   3.519224070423438E+00   3.563490459853890E+00   3.608313651918679E+00
   3.653700650332745E+00   3.699658546906944E+00   3.746194522656104E+00
   3.793315848921122E+00   3.841029888505100E+00   3.889344096823787E+00
   3.938266023070542E+00   3.987803311395858E+00   4.037963702101830E+00
   4.088755032851562E+00   4.140185239893808E+00   4.192262359303066E+00
   4.244994528235182E+00   4.298389986198844E+00   4.352457076342999E+00
   4.407204246760466E+00   4.462640051808026E+00   4.518773153442984E+00
   4.575612322576683E+00   4.633166440444948E+00   4.691444499995775E+00
   4.750455607294553E+00   4.810208982946839E+00   4.870713963539156E+00
   4.931980003097830E+00   4.994016674566170E+00   5.056833671300327E+00
   5.120440808583822E+00   5.184848025161276E+00   5.250065384791327E+00
   5.316103077819083E+00   5.382971422768454E+00   5.450680867954362E+00
   5.519241993115385E+00   5.588665511066827E+00   5.658962269374592E+00
   5.730143252050205E+00   5.802219581267008E+00   5.875202519098090E+00
   5.949103469275984E+00   6.023933978974489E+00   6.099705740613006E+00
   6.176430593683432E+00   6.254120526600166E+00   6.332787678573300E+00
   6.412444341505356E+00   6.493102961912003E+00   6.574776142866758E+00
   6.657476645970322E+00   6.741217393344572E+00   6.826011469651633E+00
   6.911872124138469E+00   6.998812772707002E+00   7.086847000010463E+00
   7.175988561575993E+00   7.266251385953918E+00   7.357649576894215E+00
   7.450197415550143E+00   7.543909362709794E+00   7.638800061055584E+00
   7.734884337452162E+00   7.832177205263225E+00   7.930693866697283E+00
   8.030449715183135E+00   8.131460337775076E+00   8.233741517588363E+00
   8.337309236265469E+00   8.442179676473110E+00   8.548369224430949E+00
   8.655894472471914E+00   8.764772221634741E+00   8.875019484289282E+00
   8.986653486794594E+00   9.099691672190705E+00   9.214151702924081E+00
   9.330051463607358E+00   9.447409063813978E+00   9.566242840907705E+00
   9.686571362907998E+00   9.808413431391243E+00   9.931788084428497E+00
   1.005671459956034E+01   1.018321249680890E+01   1.031130154172798E+01
   1.044100174849149E+01   1.057233338302056E+01   1.070531696615032E+01
   1.083997327683617E+01   1.097632335540062E+01   1.111438850682087E+01
   1.125419030405769E+01   1.139575059142637E+01   1.153909148800977E+01
   1.168423539111464E+01   1.183120497977115E+01   1.198002321827651E+01
   1.213071335978329E+01   1.228329894993264E+01   1.243780383053348E+01
   1.259425214328778E+01   1.275266833356265E+01   1.291307715421016E+01
   1.307550366943486E+01   1.323997325871022E+01   1.340651162074422E+01
   1.357514477749469E+01   1.374589907823552E+01   1.391880120367355E+01
   1.409387817011767E+01   1.427115733370011E+01   1.445066639465082E+01
   1.463243340162582E+01   1.481648675608972E+01   1.500285521675363E+01
   1.519156790406874E+01   1.538265430477631E+01   1.557614427651529E+01
   1.577206805248736E+01   1.597045624618115E+01   1.617133985615557E+01
   1.637475027088334E+01   1.658071927365566E+01   1.678927904754818E+01
   1.700046218044995E+01   1.721430167015514E+01   1.743083092951904E+01
   1.765008379167900E+01   1.787209451534076E+01   1.809689779013160E+01
   1.832452874202060E+01   1.855502293880706E+01   1.878841639567822E+01
   1.902474558083651E+01   1.926404742119794E+01   1.950635930816198E+01
   1.975171910345389E+01   2.000016514504092E+01   2.025173625312249E+01
   2.050647173619609E+01   2.076441139719924E+01   2.102559553972869E+01
   2.129006497433817E+01   2.155786102491483E+01   2.182902553513643E+01
   2.210360087500944E+01   2.238162994748925E+01   2.266315619518419E+01
   2.294822360714312E+01   2.323687672572919E+01   2.352916065357950E+01
   2.382512106065234E+01   2.412480419136352E+01   2.442825687181186E+01
   2.473552651709610E+01   2.504666113872350E+01   2.536170935211160E+01
   2.568072038418482E+01   2.600374408106585E+01   2.633083091586457E+01
   2.666203199656444E+01   2.699739907400806E+01   2.733698454998366E+01
   2.768084148541269E+01   2.802902360864091E+01   2.838158532383352E+01
   2.873858171947572E+01   2.910006857698074E+01   2.946610237940541E+01
   2.983674032027611E+01   3.021204031252523E+01   3.059206099754000E+01
   3.097686175432572E+01   3.136650270878341E+01   3.176104474310500E+01
   3.216054950528610E+01   3.256507941875849E+01   3.297469769214429E+01
   3.338946832913197E+01   3.380945613847748E+01   3.423472674413055E+01
   3.466534659548844E+01   3.510138297777912E+01   3.554290402257434E+01
   3.598997871843568E+01   3.644267692169403E+01   3.690106936736453E+01
   3.736522768019955E+01   3.783522438587968E+01   3.831113292234647E+01
   3.879302765127704E+01   3.928098386970310E+01   3.977507782177664E+01
   4.027538671068280E+01   4.078198871070339E+01   4.129496297943172E+01
   4.181438967014076E+01   4.234034994430787E+01   4.287292598429583E+01
   4.341220100619446E+01   4.395825927282321E+01   4.451118610689702E+01
   4.507106790435883E+01   4.563799214787842E+01   4.621204742052232E+01
   4.679332341959492E+01   4.738191097065349E+01   4.797790204170056E+01
   4.858138975755336E+01   4.919246841439538E+01   4.981123349451009E+01
   5.043778168119997E+01   5.107221087389409E+01   5.171462020344440E+01
   5.236511004761570E+01   5.302378204676967E+01   5.369073911974608E+01
   5.436608547994472E+01   5.504992665160815E+01   5.574236948631084E+01
   5.644352217965459E+01   5.715349428817406E+01   5.787239674645585E+01
   5.860034188447146E+01   5.933744344512985E+01   6.008381660204962E+01
   6.083957797755481E+01   6.160484566089821E+01   6.237973922671203E+01
   6.316437975369259E+01   6.395888984351870E+01   6.476339364000813E+01
   6.557801684851607E+01   6.640288675557599E+01   6.723813224878919E+01
   6.808388383696342E+01   6.894027367050479E+01   6.980743556206738E+01
   7.068550500746076E+01   7.157461920682232E+01   7.247491708605477E+01
   7.338653931853315E+01   7.430962834708626E+01   7.524432840625258E+01
   7.619078554481816E+01   7.714914764863659E+01   7.811956446373617E+01
   7.910218761971882E+01   8.009717065345156E+01   8.110466903305786E+01
   8.212484018220945E+01   8.315784350472367E+01   8.420384040947158E+01
   8.526299433559737E+01   8.633547077805699E+01   8.742143731347673E+01
   8.852106362633685E+01   8.963452153548623E+01   9.076198502098823E+01
   9.190363025130645E+01   9.305963561083099E+01   9.423018172775086E+01
   9.541545150227864E+01   9.661563013522773E+01   9.783090515695147E+01
   9.906146645664469E+01   1.003075063120137E+02
    </PP_R>
    <PP_RAB>
   1.899754094905242E-06   1.923650059727130E-06   1.947846598784546E-06
   1.972347492835946E-06   1.997156570195875E-06   2.022277707333143E-06
   2.047714829476539E-06   2.073471911228148E-06   2.099552977184397E-06
   2.125962102564905E-06   2.152703413849244E-06   2.179781089421705E-06
   2.207199360224188E-06   2.234962510417285E-06   2.263074878049704E-06
   2.291540855736080E-06   2.320364891343340E-06   2.349551488685692E-06
   2.379105208228349E-06   2.409030667800121E-06   2.439332543314947E-06
   2.470015569502527E-06   2.501084540648127E-06   2.532544311341697E-06
   2.564399797236419E-06   2.596655975816770E-06   2.629317887176280E-06
   2.662390634805051E-06   2.695879386387183E-06   2.729789374608250E-06
   2.764125897972899E-06   2.798894321632764E-06   2.834100078224779E-06
   2.869748668720035E-06   2.905845663283331E-06   2.942396702143504E-06
   2.979407496474738E-06   3.016883829288949E-06   3.054831556339381E-06
   3.093256607035598E-06   3.132164985369943E-06   3.171562770855691E-06
   3.211456119476980E-06   3.251851264650692E-06   3.292754518200452E-06
   3.334172271342842E-06   3.376110995686056E-06   3.418577244241096E-06
   3.461577652445695E-06   3.505118939201127E-06   3.549207907922029E-06
   3.593851447599463E-06   3.639056533877332E-06   3.684830230142335E-06
   3.731179688627645E-06   3.778112151530448E-06   3.825634952143557E-06
   3.873755516001252E-06   3.922481362039536E-06   3.971820103770993E-06
   4.021779450474394E-06   4.072367208399306E-06   4.123591281985827E-06
   4.175459675099665E-06   4.227980492282779E-06   4.281161940019706E-06
   4.335012328019853E-06   4.389540070515904E-06   4.444753687578559E-06
   4.500661806447822E-06   4.557273162881010E-06   4.614596602517744E-06
   4.672641082262090E-06   4.731415671682098E-06   4.790929554426950E-06
   4.851192029661904E-06   4.912212513521318E-06   4.974000540579945E-06
   5.036565765342716E-06   5.099917963753298E-06   5.164067034721580E-06
   5.229023001670413E-06   5.294796014101789E-06   5.361396349182709E-06
   5.428834413351038E-06   5.497120743941503E-06   5.566266010832188E-06
   5.636281018111723E-06   5.707176705767435E-06   5.778964151394767E-06
   5.851654571928151E-06   5.925259325393683E-06   5.999789912683840E-06
   6.075257979354516E-06   6.151675317444680E-06   6.229053867318876E-06
   6.307405719532949E-06   6.386743116723215E-06   6.467078455519393E-06
   6.548424288481625E-06   6.630793326061805E-06   6.714198438589638E-06
   6.798652658283641E-06   6.884169181287463E-06   6.970761369731816E-06
   7.058442753822316E-06   7.147227033953613E-06   7.237128082850111E-06
   7.328159947733601E-06   7.420336852518187E-06   7.513673200032772E-06
   7.608183574271550E-06   7.703882742672776E-06   7.800785658426209E-06
   7.898907462809599E-06   7.998263487554507E-06   8.098869257241939E-06
   8.200740491728090E-06   8.303893108600606E-06   8.408343225665747E-06
   8.514107163466806E-06   8.621201447834243E-06   8.729642812467874E-06
   8.839448201551542E-06   8.950634772400708E-06   9.063219898143270E-06
   9.177221170434179E-06   9.292656402204171E-06   9.409543630443056E-06
   9.527901119018068E-06   9.647747361527595E-06   9.769101084190857E-06
   9.891981248773911E-06   1.001640705555247E-05   1.014239794631201E-05
   1.026997360738552E-05   1.039915397272962E-05   1.052995922703920E-05
   1.066240980890136E-05   1.079652641398901E-05   1.093232999829455E-05
   1.106984178140433E-05   1.120908324981421E-05   1.135007616028693E-05
   1.149284254325161E-05   1.163740470624604E-05   1.178378523740231E-05
   1.193200700897622E-05   1.208209318092113E-05   1.223406720450677E-05
   1.238795282598353E-05   1.254377409029283E-05   1.270155534482424E-05
   1.286132124321979E-05   1.302309674922617E-05   1.318690714059531E-05
   1.335277801303413E-05   1.352073528420393E-05   1.369080519777003E-05
   1.386301432750244E-05   1.403738958142806E-05   1.421395820603506E-05
   1.439274779053028E-05   1.457378627115002E-05   1.475710193552526E-05
   1.494272342710146E-05   1.513067974961436E-05   1.532100027162174E-05
   1.551371473109237E-05   1.570885324005266E-05   1.590644628929159E-05
   1.610652475312515E-05   1.630911989422036E-05   1.651426336848020E-05
   1.672198722998992E-05   1.693232393602544E-05   1.714530635212506E-05
   1.736096775722460E-05   1.757934184885735E-05   1.780046274841947E-05
   1.802436500650132E-05   1.825108360828631E-05   1.848065397901721E-05
   1.871311198953149E-05   1.894849396186630E-05   1.918683667493363E-05
   1.942817737026735E-05   1.967255375784211E-05   1.992000402196563E-05
   2.017056682724519E-05   2.042428132462881E-05   2.068118715752294E-05
   2.094132446798664E-05   2.120473390300389E-05   2.147145662083489E-05
   2.174153429744688E-05   2.201500913302636E-05   2.229192385857277E-05
   2.257232174257532E-05   2.285624659777394E-05   2.314374278800481E-05
   2.343485523513264E-05   2.372962942606954E-05   2.402811141988254E-05
   2.433034785499053E-05   2.463638595645129E-05   2.494627354334088E-05
   2.526005903622521E-05   2.557779146472591E-05   2.589952047518144E-05
   2.622529633840416E-05   2.655516995753556E-05   2.688919287599974E-05
   2.722741728555725E-05   2.756989603446029E-05   2.791668263571006E-05
   2.826783127541861E-05   2.862339682127530E-05   2.898343483112004E-05
   2.934800156162445E-05   2.971715397708178E-05   3.009094975830808E-05
   3.046944731165463E-05   3.085270577813417E-05   3.124078504266191E-05
   3.163374574341239E-05   3.203164928129465E-05   3.243455782954603E-05
   3.284253434344684E-05   3.325564257015755E-05   3.367394705867890E-05
   3.409751316993839E-05   3.452640708700261E-05   3.496069582541866E-05
   3.540044724368559E-05   3.584573005385705E-05   3.629661383227816E-05
   3.675316903045659E-05   3.721546698607091E-05   3.768357993411732E-05
   3.815758101819621E-05   3.863754430194143E-05   3.912354478059252E-05
   3.961565839271304E-05   4.011396203205611E-05   4.061853355957916E-05
   4.112945181560996E-05   4.164679663216548E-05   4.217064884542582E-05
   4.270109030836512E-05   4.323820390354113E-05   4.378207355604590E-05
   4.433278424661912E-05   4.489042202492661E-05   4.545507402300578E-05
   4.602682846888009E-05   4.660577470034500E-05   4.719200317892703E-05
   4.778560550401861E-05   4.838667442719078E-05   4.899530386668564E-05
   4.961158892209141E-05   5.023562588920182E-05   5.086751227506258E-05
   5.150734681320708E-05   5.215522947908364E-05   5.281126150567697E-05
   5.347554539932591E-05   5.414818495574031E-05   5.482928527621940E-05
   5.551895278407392E-05   5.621729524125517E-05   5.692442176519285E-05
   5.764044284584495E-05   5.836547036296212E-05   5.909961760356897E-05
   5.984299927966548E-05   6.059573154615099E-05   6.135793201897352E-05
   6.212971979350773E-05   6.291121546316354E-05   6.370254113822937E-05
   6.450382046495187E-05   6.531517864485602E-05   6.613674245430823E-05
   6.696864026432515E-05   6.781100206063215E-05   6.866395946397367E-05
   6.952764575067933E-05   7.040219587348866E-05   7.128774648263757E-05
   7.218443594721047E-05   7.309240437676049E-05   7.401179364320201E-05
   7.494274740297847E-05   7.588541111950882E-05   7.683993208591670E-05
   7.780645944804505E-05   7.878514422776059E-05   7.977613934655138E-05
   8.077959964942085E-05   8.179568192908296E-05   8.282454495046108E-05
   8.386634947549553E-05   8.492125828826297E-05   8.598943622041156E-05
   8.707105017691649E-05   8.816626916215900E-05   8.927526430633372E-05
   9.039820889218828E-05   9.153527838209880E-05   9.268665044548651E-05
   9.385250498657879E-05   9.503302417251960E-05   9.622839246183359E-05
   9.743879663324788E-05   9.866442581487695E-05   9.990547151377391E-05
   1.011621276458541E-04   1.024345905661950E-04   1.037230590997165E-04
   1.050277345722487E-04   1.063488208419884E-04   1.076865243313529E-04
   1.090410540592341E-04   1.104126216736579E-04   1.118014414848544E-04
   1.132077304987448E-04   1.146317084508484E-04   1.160735978406175E-04
   1.175336239662028E-04   1.190120149596569E-04   1.205090018225802E-04
   1.220248184622157E-04   1.235597017279973E-04   1.251138914485582E-04
   1.266876304692041E-04   1.282811646898588E-04   1.298947431034864E-04
   1.315286178349966E-04   1.331830441806408E-04   1.348582806479011E-04
   1.365545889958841E-04   1.382722342762201E-04   1.400114848744786E-04
   1.417726125521046E-04   1.435558924888804E-04   1.453616033259243E-04
   1.471900272092284E-04   1.490414498337442E-04   1.509161604880239E-04
   1.528144520994211E-04   1.547366212798623E-04   1.566829683721925E-04
   1.586537974971048E-04   1.606494166006598E-04   1.626701375024024E-04
   1.647162759440848E-04   1.667881516390012E-04   1.688860883219442E-04
   1.710104137997892E-04   1.731614600027137E-04   1.753395630360634E-04
   1.775450632328685E-04   1.797783052070219E-04   1.820396379071258E-04
   1.843294146710152E-04   1.866479932809682E-04   1.889957360196095E-04
   1.913730097265185E-04   1.937801858555489E-04   1.962176405328681E-04
   1.986857546157284E-04   2.011849137519768E-04   2.037155084403126E-04
   2.062779340913048E-04   2.088725910891745E-04   2.114998848543564E-04
   2.141602259068467E-04   2.168540299303472E-04   2.195817178372173E-04
   2.223437158342421E-04   2.251404554892277E-04   2.279723737984354E-04
   2.308399132548624E-04   2.337435219173828E-04   2.366836534807578E-04
   2.396607673465259E-04   2.426753286947855E-04   2.457278085568804E-04
   2.488186838889992E-04   2.519484376467015E-04   2.551175588603791E-04
   2.583265427116693E-04   2.615758906108277E-04   2.648661102750741E-04
   2.681977158079255E-04   2.715712277795244E-04   2.749871733079798E-04
   2.784460861417302E-04   2.819485067429431E-04   2.854949823719635E-04
   2.890860671728235E-04   2.927223222598295E-04   2.964043158052368E-04
   3.001326231280277E-04   3.039078267838071E-04   3.077305166558268E-04
   3.116012900471565E-04   3.155207517740139E-04   3.194895142602677E-04
   3.235081976331313E-04   3.275774298200576E-04   3.316978466468549E-04
   3.358700919370352E-04   3.400948176124134E-04   3.443726837949720E-04
   3.487043589100053E-04   3.530905197905629E-04   3.575318517832059E-04
   3.620290488550941E-04   3.665828137024198E-04   3.711938578602052E-04
   3.758629018134810E-04   3.805906751098642E-04   3.853779164735506E-04
   3.902253739207439E-04   3.951338048765319E-04   4.001039762932379E-04
   4.051366647702577E-04   4.102326566754043E-04   4.153927482677816E-04
   4.206177458221988E-04   4.259084657551543E-04   4.312657347524016E-04
   4.366903898981204E-04   4.421832788057148E-04   4.477452597502514E-04
   4.533772018025687E-04   4.590799849650708E-04   4.648545003092287E-04
   4.707016501148144E-04   4.766223480108802E-04   4.826175191185185E-04
   4.886881001954121E-04   4.948350397822044E-04   5.010592983507128E-04
   5.073618484540016E-04   5.137436748783471E-04   5.202057747971119E-04
   5.267491579265552E-04   5.333748466836043E-04   5.400838763456075E-04
   5.468772952120988E-04   5.537561647685974E-04   5.607215598524664E-04
   5.677745688208597E-04   5.749162937207776E-04   5.821478504612655E-04
   5.894703689877772E-04   5.968849934587293E-04   6.043928824242821E-04
   6.119952090073603E-04   6.196931610869599E-04   6.274879414837548E-04
   6.353807681480401E-04   6.433728743500415E-04   6.514655088726123E-04
   6.596599362063612E-04   6.679574367472311E-04   6.763593069965619E-04
   6.848668597636753E-04   6.934814243709993E-04   7.022043468617802E-04
   7.110369902104041E-04   7.199807345353636E-04   7.290369773149071E-04
   7.382071336053934E-04   7.474926362623995E-04   7.568949361646073E-04
   7.664155024405049E-04   7.760558226979438E-04   7.858174032565773E-04
   7.957017693832274E-04   8.057104655302114E-04   8.158450555766646E-04
   8.261071230729020E-04   8.364982714878475E-04   8.470201244595819E-04
   8.576743260490391E-04   8.684625409968925E-04   8.793864549836782E-04
   8.904477748931808E-04   9.016482290791407E-04   9.129895676353115E-04
   9.244735626689163E-04   9.361020085775451E-04   9.478767223295285E-04
   9.597995437478460E-04   9.718723357976015E-04   9.840969848771140E-04
   9.964754011126751E-04   1.009009518657006E-03   1.021701295991471E-03
   1.034552716232104E-03   1.047565787439460E-03   1.060742542932394E-03
   1.074085041605759E-03   1.087595368252117E-03   1.101275633887495E-03
   1.115127976081230E-03   1.129154559289973E-03   1.143357575195889E-03
   1.157739243049108E-03   1.172301810014492E-03   1.187047551522756E-03
   1.201978771626014E-03   1.217097803357783E-03   1.232407009097532E-03
   1.247908780939804E-03   1.263605541067986E-03   1.279499742132787E-03
   1.295593867635459E-03   1.311890432315855E-03   1.328391982545362E-03
   1.345101096724775E-03   1.362020385687182E-03   1.379152493105905E-03
   1.396500095907583E-03   1.414065904690447E-03   1.431852664147859E-03
   1.449863153497171E-03   1.468100186913987E-03   1.486566613971881E-03
   1.505265320087651E-03   1.524199226972170E-03   1.543371293086912E-03
   1.562784514106213E-03   1.582441923385352E-03   1.602346592434523E-03
   1.622501631398760E-03   1.642910189543910E-03   1.663575455748702E-03
   1.684500659003027E-03   1.705689068912463E-03   1.727143996209167E-03
   1.748868793269182E-03   1.770866854636247E-03   1.793141617552205E-03
   1.815696562494080E-03   1.838535213717907E-03   1.861661139809408E-03
   1.885077954241583E-03   1.908789315939329E-03   1.932798929851153E-03
   1.957110547528074E-03   1.981727967709821E-03   2.006655036918379E-03
   2.031895650059028E-03   2.057453751028921E-03   2.083333333333333E-03
   2.109538440709655E-03   2.136073167759228E-03   2.162941660587136E-03
   2.190148117450052E-03   2.217696789412207E-03   2.245591981009650E-03
   2.273838050922817E-03   2.302439412657600E-03   2.331400535234961E-03
   2.360725943889221E-03   2.390420220775151E-03   2.420488005683924E-03
   2.450933996768107E-03   2.481762951275748E-03   2.512979686293710E-03
   2.544589079500354E-03   2.576596069927677E-03   2.609005658733052E-03
   2.641822909980667E-03   2.675052951432794E-03   2.708700975351024E-03
   2.742772239307546E-03   2.777272067006674E-03   2.812205849116675E-03
   2.847579044112076E-03   2.883397179126566E-03   2.919665850816612E-03
   2.956390726235954E-03   2.993577543721095E-03   3.031232113787919E-03
   3.069360320039616E-03   3.107968120085981E-03   3.147061546474320E-03
   3.186646707632041E-03   3.226729788821110E-03   3.267317053104519E-03
   3.308414842324883E-03   3.350029578095383E-03   3.392167762803148E-03
   3.434835980625267E-03   3.478040898557590E-03   3.521789267456442E-03
   3.566087923093470E-03   3.610943787223742E-03   3.656363868667288E-03
   3.702355264404248E-03   3.748925160683769E-03   3.796080834146896E-03
   3.843829652963544E-03   3.892179077983796E-03   3.941136663903688E-03
   3.990710060445618E-03   4.040907013553656E-03   4.091735366603851E-03
   4.143203061629775E-03   4.195318140563494E-03   4.248088746492116E-03
   4.301523124930182E-03   4.355629625108035E-03   4.410416701276405E-03
   4.465892914027415E-03   4.522066931632172E-03   4.578947531395215E-03
   4.636543601025978E-03   4.694864140027517E-03   4.753918261102717E-03
   4.813715191578135E-03   4.874264274845817E-03   4.935574971823212E-03
   4.997656862431455E-03   5.060519647092268E-03   5.124173148243647E-03
   5.188627311874651E-03   5.253892209079479E-03   5.319978037631097E-03
   5.386895123574681E-03   5.454653922841045E-03   5.523265022880433E-03
   5.592739144316817E-03   5.663087142623011E-03   5.734320009816891E-03
   5.806448876178857E-03   5.879485011991040E-03   5.953439829298262E-03
   6.028324883691170E-03   6.104151876111886E-03   6.180932654682226E-03
   6.258679216555066E-03   6.337403709788886E-03   6.417118435245898E-03
   6.497835848514157E-03   6.579568561853686E-03   6.662329346167239E-03
   6.746131132995756E-03   6.830987016538903E-03   6.916910255701148E-03
   7.003914276163397E-03   7.092012672480870E-03   7.181219210207243E-03
   7.271547828045503E-03   7.363012640025986E-03   7.455627937711626E-03
   7.549408192431126E-03   7.644368057540096E-03   7.740522370710633E-03
   7.837886156249821E-03   7.936474627447213E-03   8.036303188952027E-03
   8.137387439180114E-03   8.239743172751201E-03   8.343386382956937E-03
   8.448333264259741E-03   8.554600214823356E-03   8.662203839075023E-03
   8.771160950299917E-03   8.881488573268379E-03   8.993203946895926E-03
   9.106324526936993E-03   9.220867988712370E-03   9.336852229870967E-03
   9.454295373186474E-03   9.573215769388937E-03   9.693632000032227E-03
   9.815562880397385E-03   9.939027462432505E-03   1.006404503772976E-02
   1.019063514053960E-02   1.031881755082315E-02   1.044861229734284E-02
   1.058003966079184E-02   1.071312017696311E-02   1.084787463995802E-02
   1.098432410543560E-02   1.112248989390246E-02   1.126239359404410E-02
   1.140405706609834E-02   1.154750244527088E-02   1.169275214519407E-02
   1.183982886142906E-02   1.198875557501194E-02   1.213955555604475E-02
   1.229225236733129E-02   1.244686986805900E-02   1.260343221752698E-02
   1.276196387892081E-02   1.292248962313515E-02   1.308503453264410E-02
   1.324962400542048E-02   1.341628375890430E-02   1.358503983402107E-02
   1.375591859925090E-02   1.392894675474848E-02   1.410415133651515E-02
   1.428155972062330E-02   1.446119962749382E-02   1.464309912622771E-02
   1.482728663899166E-02   1.501379094545930E-02   1.520264118730799E-02
   1.539386687277219E-02   1.558749788125435E-02   1.578356446799343E-02
   1.598209726879255E-02   1.618312730480579E-02   1.638668598738519E-02
   1.659280512298912E-02   1.680151691815182E-02   1.701285398451593E-02
   1.722684934392807E-02   1.744353643359847E-02   1.766294911132579E-02
   1.788512166078729E-02   1.811008879689583E-02   1.833788567122419E-02
   1.856854787749737E-02   1.880211145715444E-02   1.903861290497985E-02
   1.927808917480602E-02   1.952057768528737E-02   1.976611632574693E-02
   2.001474346209690E-02   2.026649794283310E-02   2.052141910510538E-02
   2.077954678086402E-02   2.104092130308344E-02   2.130558351206460E-02
   2.157357476181603E-02   2.184493692651577E-02   2.211971240705419E-02
   2.239794413765907E-02   2.267967559260448E-02   2.296495079300334E-02
   2.325381431368618E-02   2.354631129016581E-02   2.384248742568984E-02
   2.414238899838209E-02   2.444606286847336E-02   2.475355648562374E-02
   2.506491789633654E-02   2.538019575146557E-02   2.569943931381722E-02
   2.602269846584753E-02   2.635002371745671E-02   2.668146621388133E-02
   2.701707774368569E-02   2.735691074685423E-02   2.770101832298497E-02
   2.804945423958689E-02   2.840227294048076E-02   2.875952955430645E-02
   2.912127990313677E-02   2.948758051119960E-02   2.985848861371031E-02
   3.023406216581442E-02   3.061435985164362E-02   3.099944109348510E-02
   3.138936606106623E-02   3.178419568095663E-02   3.218399164608755E-02
   3.258881642539202E-02   3.299873327356549E-02   3.341380624094933E-02
   3.383410018353929E-02   3.425968077311888E-02   3.469061450752114E-02
   3.512696872101885E-02   3.556881159484554E-02   3.601621216784930E-02
   3.646924034727977E-02   3.692796691971175E-02   3.739246356210554E-02
   3.786280285300639E-02   3.833905828388556E-02   3.882130427062295E-02
   3.930961616513517E-02   3.980407026714931E-02   4.030474383612462E-02
   4.081171510332504E-02   4.132506328404236E-02   4.184486858997431E-02
   4.237121224175756E-02   4.290417648165841E-02   4.344384458642382E-02
   4.399030088029297E-02   4.454363074817363E-02   4.510392064898349E-02
   4.567125812915931E-02   4.624573183633680E-02   4.682743153320131E-02
   4.741644811151402E-02   4.801287360631375E-02   4.861680121029734E-02
   4.922832528838177E-02   4.984754139244824E-02   5.047454627627287E-02
   5.110943791064453E-02   5.175231549867260E-02   5.240327949128833E-02
   5.306243160293977E-02   5.372987482748555E-02   5.440571345428749E-02
   5.509005308450583E-02   5.578300064760033E-02   5.648466441803730E-02
   5.719515403220854E-02   5.791458050556186E-02   5.864305624994719E-02
   5.938069509118191E-02   6.012761228683549E-02   6.088392454423946E-02
   6.164975003872288E-02   6.242520843207713E-02   6.321042089125409E-02
   6.400551010729778E-02   6.481060031451595E-02   6.562581730989159E-02
   6.645128847273854E-02   6.728714278460567E-02   6.813351084942952E-02
   6.899052491394231E-02   6.985831888833534E-02   7.073702836718240E-02
   7.162679065062756E-02   7.252774476583761E-02   7.344003148872612E-02
   7.436379336594981E-02   7.529917473718112E-02   7.624632175766258E-02
   7.720538242104291E-02   7.817650658250208E-02   7.915984598216626E-02
   8.015555426881696E-02   8.116378702390004E-02   8.218470178583448E-02
   8.321845807462902E-02   8.426521741680715E-02   8.532514337064542E-02
   8.639840155173087E-02   8.748515965883752E-02   8.858558750013079E-02
   8.969985701969992E-02   9.082814232442399E-02   9.197061971117769E-02
   9.312746769437680E-02   9.429886703387243E-02   9.548500076319481E-02
   9.668605421815203E-02   9.790221506579032E-02   9.913367333371605E-02
   1.003806214397892E-01   1.016432542221885E-01   1.029217689698546E-01
   1.042163654533184E-01   1.055272459559139E-01   1.068546153053869E-01
   1.081986809058989E-01   1.095596527704343E-01   1.109377435536160E-01
   1.123331685849324E-01   1.137461459023838E-01   1.151768962865510E-01
   1.166256432950920E-01   1.180926132976747E-01   1.195780355113463E-01
   1.210821420363500E-01   1.226051678923905E-01   1.241473510553562E-01
   1.257089324945043E-01   1.272901562101112E-01   1.288912692715997E-01
   1.305125218561436E-01   1.321541672877569E-01   1.338164620768791E-01
   1.354996659604521E-01   1.372040419425077E-01   1.389298563352609E-01
   1.406773788007211E-01   1.424468823928296E-01   1.442386436001222E-01
   1.460529423889330E-01   1.478900622471394E-01   1.497502902284564E-01
   1.516339169972911E-01   1.535412368741580E-01   1.554725478816686E-01
   1.574281517910973E-01   1.594083541695331E-01   1.614134644276270E-01
   1.634437958679358E-01   1.654996657338778E-01   1.675813952593027E-01
   1.696893097186836E-01   1.718237384779440E-01   1.739850150459193E-01
   1.761734771264708E-01   1.783894666712514E-01   1.806333299331352E-01
   1.829054175203227E-01   1.852060844511215E-01   1.875356902094204E-01
   1.898945988008593E-01   1.922831788097039E-01   1.947018034564411E-01
   1.971508506560920E-01   1.996307030772643E-01   2.021417482019447E-01
   2.046843783860418E-01   2.072589909206957E-01   2.098659880943523E-01
   2.125057772556244E-01   2.151787708769393E-01   2.178853866189880E-01
   2.206260473959875E-01   2.234011814417595E-01   2.262112223766450E-01
   2.290566092752575E-01   2.319377867350882E-01   2.348552049459778E-01
   2.378093197604563E-01   2.408005927649743E-01   2.438294913520248E-01
   2.468964887931736E-01   2.500020643130116E-01   2.531467031640312E-01
   2.563308967024511E-01   2.595551424649905E-01   2.628199442466087E-01
   2.661258121792272E-01   2.694732628114354E-01   2.728628191892054E-01
   2.762950109376180E-01   2.797703743436157E-01   2.832894524398024E-01
   2.868527950892890E-01   2.904609590716149E-01   2.941145081697438E-01
   2.978140132581542E-01   3.015600523920441E-01   3.053532108976483E-01
   3.091940814637013E-01   3.130832642340438E-01   3.170213669013950E-01
   3.210090048023102E-01   3.250468010133232E-01   3.291353864483072E-01
   3.332753999570556E-01   3.374674884251008E-01   3.417123068747958E-01
   3.460105185676586E-01   3.503627951080113E-01   3.547698165479191E-01
   3.592322714934466E-01   3.637508572122592E-01   3.683262797425676E-01
   3.729592540034514E-01   3.776505039065653E-01   3.824007624692500E-01
   3.872107719290715E-01   3.920812838597927E-01   3.970130592888125E-01
   4.020068688160763E-01   4.070634927344811E-01   4.121837211518036E-01
   4.173683541141497E-01   4.226182017309685E-01   4.279340843016319E-01
   4.333168324436055E-01   4.387672872222391E-01   4.442863002821793E-01
   4.498747339804460E-01   4.555334615211754E-01   4.612633670920566E-01
   4.670653460024943E-01   4.729403048234961E-01   4.788891615293309E-01
   4.849128456409630E-01   4.910122983712888E-01   4.971884727722080E-01
   5.034423338835350E-01   5.097748588837925E-01   5.161870372428965E-01
   5.226798708767596E-01   5.292543743038485E-01   5.359115748036979E-01
   5.426525125774309E-01   5.494782409102901E-01   5.563898263362128E-01
   5.633883488044854E-01   5.704749018484803E-01   5.776505927565291E-01
   5.849165427449365E-01   5.922738871331686E-01   5.997237755212570E-01
   6.072673719694170E-01   6.149058551799422E-01   6.226404186813762E-01
   6.304722710149997E-01   6.384026359236762E-01   6.464327525430550E-01
   6.545638755951964E-01   6.627972755846210E-01   6.711342389968261E-01
   6.795760684993090E-01   6.881240831451019E-01   6.967796185788855E-01
   7.055440272456824E-01   7.144186786021758E-01   7.234049593306981E-01
   7.325042735558933E-01   7.417180430641231E-01   7.510477075256202E-01
   7.604947247194351E-01   7.700605707612276E-01   7.797467403339003E-01
   7.895547469211573E-01   7.994861230439838E-01   8.095424205001017E-01
   8.197252106064510E-01   8.300360844446999E-01   8.404766531098649E-01
   8.510485479620429E-01   8.617534208813100E-01   8.725929445258424E-01
   8.835688125932596E-01   8.946827400852790E-01   9.059364635756847E-01
   9.173317414816644E-01   9.288703543385783E-01   9.405541050781573E-01
   9.523848193102270E-01   9.643643456079574E-01   9.764945557967022E-01
   9.887773452464853E-01   1.001214633168144E+00   1.013808362913223E+00
   1.026560502277618E+00   1.039473043809046E+00   1.052548005118395E+00
   1.065787429194967E+00   1.079193384725712E+00   1.092767966418459E+00
   1.106513295329211E+00   1.120431519193578E+00   1.134524812762353E+00
   1.148795378141331E+00   1.163245445135388E+00   1.177877271596886E+00
   1.192693143778483E+00   1.207695376690347E+00   1.222886314461894E+00
   1.238268330708059E+00   1.253843828900171E+00
    </PP_RAB>
  </PP_MESH>
  <PP_NLCC size="1073">
   2.196585236874695E+00   2.196585228352973E+00   2.196585219615522E+00
   2.196585210656882E+00   2.196585201471454E+00   2.196585192053495E+00
   2.196585182397119E+00   2.196585172496291E+00   2.196585162344822E+00
   2.196585151936368E+00   2.196585141264423E+00   2.196585130322316E+00
   2.196585119103208E+00   2.196585107600088E+00   2.196585095805764E+00
   2.196585083712866E+00   2.196585071313835E+00   2.196585058600920E+00
   2.196585045566177E+00   2.196585032201458E+00   2.196585018498410E+00
   2.196585004448467E+00   2.196584990042847E+00   2.196584975272549E+00
   2.196584960128339E+00   2.196584944600751E+00   2.196584928680081E+00
   2.196584912356377E+00   2.196584895619437E+00   2.196584878458799E+00
   2.196584860863737E+00   2.196584842823255E+00   2.196584824326075E+00
   2.196584805360637E+00   2.196584785915088E+00   2.196584765977272E+00
   2.196584745534728E+00   2.196584724574679E+00   2.196584703084024E+00
   2.196584681049330E+00   2.196584658456825E+00   2.196584635292389E+00
   2.196584611541542E+00   2.196584587189441E+00   2.196584562220863E+00
   2.196584536620203E+00   2.196584510371459E+00   2.196584483458226E+00
   2.196584455863681E+00   2.196584427570577E+00   2.196584398561230E+00
   2.196584368817509E+00   2.196584338320821E+00   2.196584307052107E+00
   2.196584274991822E+00   2.196584242119928E+00   2.196584208415878E+00
   2.196584173858606E+00   2.196584138426513E+00   2.196584102097454E+00
   2.196584064848720E+00   2.196584026657031E+00   2.196583987498515E+00
   2.196583947348697E+00   2.196583906182482E+00   2.196583863974141E+00
   2.196583820697290E+00   2.196583776324882E+00   2.196583730829182E+00
   2.196583684181753E+00   2.196583636353441E+00   2.196583587314349E+00
   2.196583537033828E+00   2.196583485480451E+00   2.196583432621995E+00
   2.196583378425422E+00   2.196583322856857E+00   2.196583265881568E+00
   2.196583207463946E+00   2.196583147567474E+00   2.196583086154718E+00
   2.196583023187292E+00   2.196582958625840E+00   2.196582892430009E+00
   2.196582824558424E+00   2.196582754968664E+00   2.196582683617232E+00
   2.196582610459533E+00   2.196582535449840E+00   2.196582458541269E+00
   2.196582379685752E+00   2.196582298834000E+00   2.196582215935479E+00
   2.196582130938374E+00   2.196582043789561E+00   2.196581954434569E+00
   2.196581862817547E+00   2.196581768881233E+00   2.196581672566913E+00
   2.196581573814388E+00   2.196581472561935E+00   2.196581368746269E+00
   2.196581262302502E+00   2.196581153164101E+00   2.196581041262855E+00
   2.196580926528819E+00   2.196580808890283E+00   2.196580688273719E+00
   2.196580564603739E+00   2.196580437803044E+00   2.196580307792382E+00
   2.196580174490490E+00   2.196580037814053E+00   2.196579897677643E+00
   2.196579753993670E+00   2.196579606672329E+00   2.196579455621541E+00
   2.196579300746891E+00   2.196579141951583E+00   2.196578979136361E+00
   2.196578812199465E+00   2.196578641036552E+00   2.196578465540641E+00
   2.196578285602043E+00   2.196578101108291E+00   2.196577911944071E+00
   2.196577717991151E+00   2.196577519128306E+00   2.196577315231240E+00
   2.196577106172513E+00   2.196576891821457E+00   2.196576672044097E+00
   2.196576446703067E+00   2.196576215657522E+00   2.196575978763054E+00
   2.196575735871597E+00   2.196575486831338E+00   2.196575231486620E+00
   2.196574969677848E+00   2.196574701241383E+00   2.196574426009446E+00
   2.196574143810012E+00   2.196573854466698E+00   2.196573557798657E+00
   2.196573253620466E+00   2.196572941742005E+00   2.196572621968345E+00
   2.196572294099618E+00   2.196571957930899E+00   2.196571613252075E+00
   2.196571259847715E+00   2.196570897496933E+00   2.196570525973252E+00
   2.196570145044460E+00   2.196569754472472E+00   2.196569354013168E+00
   2.196568943416257E+00   2.196568522425105E+00   2.196568090776584E+00
   2.196567648200907E+00   2.196567194421454E+00   2.196566729154605E+00
   2.196566252109560E+00   2.196565762988156E+00   2.196565261484684E+00
   2.196564747285696E+00   2.196564220069809E+00   2.196563679507502E+00
   2.196563125260917E+00   2.196562556983640E+00   2.196561974320490E+00
   2.196561376907292E+00   2.196560764370656E+00   2.196560136327737E+00
   2.196559492385998E+00   2.196558832142970E+00   2.196558155185990E+00
   2.196557461091953E+00   2.196556749427041E+00   2.196556019746458E+00
   2.196555271594142E+00   2.196554504502494E+00   2.196553717992071E+00
   2.196552911571300E+00   2.196552084736159E+00   2.196551236969870E+00
   2.196550367742574E+00   2.196549476510997E+00   2.196548562718116E+00
   2.196547625792804E+00   2.196546665149479E+00   2.196545680187735E+00
   2.196544670291969E+00   2.196543634830993E+00   2.196542573157643E+00
   2.196541484608370E+00   2.196540368502834E+00   2.196539224143469E+00
   2.196538050815052E+00   2.196536847784255E+00   2.196535614299190E+00
   2.196534349588933E+00   2.196533052863047E+00   2.196531723311086E+00
   2.196530360102091E+00   2.196528962384067E+00   2.196527529283454E+00
   2.196526059904577E+00   2.196524553329094E+00   2.196523008615412E+00
   2.196521424798108E+00   2.196519800887318E+00   2.196518135868125E+00
   2.196516428699921E+00   2.196514678315757E+00   2.196512883621679E+00
   2.196511043496041E+00   2.196509156788804E+00   2.196507222320824E+00
   2.196505238883107E+00   2.196503205236057E+00   2.196501120108704E+00
   2.196498982197904E+00   2.196496790167531E+00   2.196494542647638E+00
   2.196492238233605E+00   2.196489875485256E+00   2.196487452925965E+00
   2.196484969041729E+00   2.196482422280223E+00   2.196479811049835E+00
   2.196477133718664E+00   2.196474388613507E+00   2.196471574018807E+00
   2.196468688175591E+00   2.196465729280363E+00   2.196462695483977E+00
   2.196459584890490E+00   2.196456395555969E+00   2.196453125487281E+00
   2.196449772640847E+00   2.196446334921367E+00   2.196442810180507E+00
   2.196439196215563E+00   2.196435490768081E+00   2.196431691522446E+00
   2.196427796104440E+00   2.196423802079754E+00   2.196419706952472E+00
   2.196415508163507E+00   2.196411203089010E+00   2.196406789038724E+00
   2.196402263254308E+00   2.196397622907614E+00   2.196392865098919E+00
   2.196387986855116E+00   2.196382985127859E+00   2.196377856791656E+00
   2.196372598641917E+00   2.196367207392956E+00   2.196361679675940E+00
   2.196356012036782E+00   2.196350200933984E+00   2.196344242736432E+00
   2.196338133721123E+00   2.196331870070841E+00   2.196325447871779E+00
   2.196318863111089E+00   2.196312111674382E+00   2.196305189343156E+00
   2.196298091792167E+00   2.196290814586723E+00   2.196283353179924E+00
   2.196275702909815E+00   2.196267858996485E+00   2.196259816539077E+00
   2.196251570512731E+00   2.196243115765453E+00   2.196234447014893E+00
   2.196225558845054E+00   2.196216445702910E+00   2.196207101894939E+00
   2.196197521583575E+00   2.196187698783409E+00   2.196177627358106E+00
   2.196167301015507E+00   2.196156713304693E+00   2.196145857610897E+00
   2.196134727153063E+00   2.196123314977737E+00   2.196111613955867E+00
   2.196099616778193E+00   2.196087315950100E+00   2.196074703787799E+00
   2.196061772413221E+00   2.196048513748534E+00   2.196034919512220E+00
   2.196020981212899E+00   2.196006690144598E+00   2.195992037380696E+00
   2.195977013769564E+00   2.195961609927515E+00   2.195945816233999E+00
   2.195929622824549E+00   2.195913019586065E+00   2.195895996148865E+00
   2.195878541881501E+00   2.195860645883877E+00   2.195842296979668E+00
   2.195823483710626E+00   2.195804194328283E+00   2.195784416787208E+00
   2.195764138737910E+00   2.195743347517940E+00   2.195722030144985E+00
   2.195700173308993E+00   2.195677763362842E+00   2.195654786314539E+00
   2.195631227818821E+00   2.195607073167319E+00   2.195582307279900E+00
   2.195556914695838E+00   2.195530879562991E+00   2.195504185629147E+00
   2.195476816230872E+00   2.195448754283973E+00   2.195419982272468E+00
   2.195390482237608E+00   2.195360235767036E+00   2.195329223983189E+00
   2.195297427531818E+00   2.195264826569090E+00   2.195231400750239E+00
   2.195197129216760E+00   2.195161990582749E+00   2.195125962922852E+00
   2.195089023757410E+00   2.195051150038968E+00   2.195012318138205E+00
   2.194972503829586E+00   2.194931682274756E+00   2.194889828009634E+00
   2.194846914926107E+00   2.194802916257534E+00   2.194757804560759E+00
   2.194711551701559E+00   2.194664128833824E+00   2.194615506384520E+00
   2.194565654033922E+00   2.194514540697209E+00   2.194462134505231E+00
   2.194408402784807E+00   2.194353312038361E+00   2.194296827923879E+00
   2.194238915232266E+00   2.194179537866950E+00   2.194118658821112E+00
   2.194056240154104E+00   2.193992242969904E+00   2.193926627390294E+00
   2.193859352533053E+00   2.193790376484937E+00   2.193719656276445E+00
   2.193647147855356E+00   2.193572806058995E+00   2.193496584587525E+00
   2.193418435974257E+00   2.193338311557129E+00   2.193256161448355E+00
   2.193171934504088E+00   2.193085578292648E+00   2.192997039062532E+00
   2.192906261709017E+00   2.192813189740857E+00   2.192717765244900E+00
   2.192619928851223E+00   2.192519619696183E+00   2.192416775385371E+00
   2.192311331955331E+00   2.192203223834384E+00   2.192092383802311E+00
   2.191978742949403E+00   2.191862230634152E+00   2.191742774440244E+00
   2.191620300132299E+00   2.191494731610304E+00   2.191365990863293E+00
   2.191233997922077E+00   2.191098670809931E+00   2.190959925493266E+00
   2.190817675829804E+00   2.190671833516865E+00   2.190522308037155E+00
   2.190369006604126E+00   2.190211834105529E+00   2.190050693045587E+00
   2.189885483486246E+00   2.189716102986297E+00   2.189542446539527E+00
   2.189364406511345E+00   2.189181872573669E+00   2.188994731638248E+00
   2.188802867788710E+00   2.188606162210414E+00   2.188404493119243E+00
   2.188197735688195E+00   2.187985761972418E+00   2.187768440832635E+00
   2.187545637856236E+00   2.187317215276995E+00   2.187083031892709E+00
   2.186842942980613E+00   2.186596800211361E+00   2.186344451560282E+00
   2.186085741217210E+00   2.185820509493550E+00   2.185548592727758E+00
   2.185269823188157E+00   2.184984028973581E+00   2.184691033911933E+00
   2.184390657455949E+00   2.184082714576937E+00   2.183767015655811E+00
   2.183443366371684E+00   2.183111567587805E+00   2.182771415235011E+00
   2.182422700192288E+00   2.182065208164865E+00   2.181698719559220E+00
   2.181323009355440E+00   2.180937846976628E+00   2.180542996155243E+00
   2.180138214796675E+00   2.179723254839359E+00   2.179297862112160E+00
   2.178861776188249E+00   2.178414730235861E+00   2.177956450865760E+00
   2.177486657975293E+00   2.177005064588848E+00   2.176511376695155E+00
   2.176005293080736E+00   2.175486505159833E+00   2.174954696800598E+00
   2.174409544147674E+00   2.173850715440842E+00   2.173277870829758E+00
   2.172690662184922E+00   2.172088732904489E+00   2.171471717717163E+00
   2.170839242480820E+00   2.170190923977090E+00   2.169526369701602E+00
   2.168845177650061E+00   2.168146936099781E+00   2.167431223386989E+00
   2.166697607679551E+00   2.165945646745229E+00   2.165174887715295E+00
   2.164384866843656E+00   2.163575109261143E+00   2.162745128725151E+00
   2.161894427364569E+00   2.161022495419731E+00   2.160128810977765E+00
   2.159212839702771E+00   2.158274034561301E+00   2.157311835542772E+00
   2.156325669374996E+00   2.155314949234520E+00   2.154279074452222E+00
   2.153217430213608E+00   2.152129387254277E+00   2.151014301550192E+00
   2.149871514003062E+00   2.148700350120548E+00   2.147500119691574E+00
   2.146270116456561E+00   2.145009617772828E+00   2.143717884274967E+00
   2.142394159530404E+00   2.141037669690170E+00   2.139647623134904E+00
   2.138223210116249E+00   2.136763602393661E+00   2.135267952866733E+00
   2.133735395203252E+00   2.132165043462964E+00   2.130555991717363E+00
   2.128907313665477E+00   2.127218062246020E+00   2.125487269245948E+00
   2.123713944905737E+00   2.121897077521553E+00   2.120035633044557E+00
   2.118128554677739E+00   2.116174762470359E+00   2.114173152910567E+00
   2.112122598516310E+00   2.110021947425130E+00   2.107870022983011E+00
   2.105665623332926E+00   2.103407521003382E+00   2.101094462497564E+00
   2.098725167883518E+00   2.096298330386028E+00   2.093812615980690E+00
   2.091266662990919E+00   2.088659081688477E+00   2.085988453898347E+00
   2.083253332608620E+00   2.080452241586309E+00   2.077583674999883E+00
   2.074646097049508E+00   2.071637941605897E+00   2.068557611858888E+00
   2.065403479976759E+00   2.062173886777496E+00   2.058867141413209E+00
   2.055481521068971E+00   2.052015270677480E+00   2.048466602650927E+00
   2.044833696631614E+00   2.041114699262892E+00   2.037307723982116E+00
   2.033410850837327E+00   2.029422126329561E+00   2.025339563282700E+00
   2.021161140742893E+00   2.016884803909709E+00   2.012508464101228E+00
   2.008029998755460E+00   2.003447251470514E+00   1.998758032086092E+00
   1.993960116809023E+00   1.989051248385622E+00   1.984029136323813E+00
   1.978891457168098E+00   1.973635854830558E+00   1.968259940981200E+00
   1.962761295501166E+00   1.957137467002371E+00   1.951385973417375E+00
   1.945504302663347E+00   1.939489913384239E+00   1.933340235775338E+00
   1.927052672494593E+00   1.920624599665232E+00   1.914053367974388E+00
   1.907336303872546E+00   1.900470710878859E+00   1.893453870997508E+00
   1.886283046250436E+00   1.878955480331979E+00   1.871468400391055E+00
   1.863819018946741E+00   1.856004535943224E+00   1.848022140950277E+00
   1.839869015515540E+00   1.831542335675041E+00   1.823039274628546E+00
   1.814357005586416E+00   1.805492704794817E+00   1.796443554746221E+00
   1.787206747582203E+00   1.777779488695675E+00   1.768159000539751E+00
   1.758342526650460E+00   1.748327335890584E+00   1.738110726921925E+00
   1.727690032913230E+00   1.717062626491031E+00   1.706225924940545E+00
   1.695177395663680E+00   1.683914561901076E+00   1.672435008724903E+00
   1.660736389308939E+00   1.648816431482180E+00   1.636672944571904E+00
   1.624303826541763E+00   1.611707071430026E+00   1.598880777092607E+00
   1.585823153254974E+00   1.572532529876350E+00   1.559007365828961E+00
   1.545246257894241E+00   1.531247950077047E+00   1.517011343237944E+00
   1.502535505042524E+00   1.487819680225543E+00   1.472863301166368E+00
   1.457665998770742E+00   1.442227613652400E+00   1.426548207606298E+00
   1.410628075363443E+00   1.394467756615309E+00   1.378068048293687E+00
   1.361430017089547E+00   1.344555012191990E+00   1.327444678225770E+00
   1.310100968363028E+00   1.292526157581903E+00   1.274722856041475E+00
   1.256694022539135E+00   1.238442978012886E+00   1.219973419047329E+00
   1.201289431338071E+00   1.182395503065195E+00   1.163296538121959E+00
   1.143997869140429E+00   1.124505270250928E+00   1.104824969507273E+00
   1.084963660904694E+00   1.064928515911978E+00   1.044727194434079E+00
   1.024367855115808E+00   1.003859164891632E+00   9.832103076808658E-01
   9.624309921217832E-01   9.415314582324031E-01   9.205224828799489E-01
   8.994153839353037E-01   8.782220229832596E-01   8.569548064539418E-01
   8.356266850357276E-01   8.142511512251330E-01   7.928422348647625E-01
   7.714144965165022E-01   7.499830185137613E-01   7.285633935339544E-01
   7.071717105305217E-01   6.858245378628433E-01   6.645389034625112E-01
   6.433322718756742E-01   6.222225180237991E-01   6.012278975292860E-01
   5.803670134581025E-01   5.596587793392059E-01   5.391223783300395E-01
   5.187772184092059E-01   4.986428834915123E-01   4.787390803772989E-01
   4.590855814674654E-01   4.397021631979445E-01   4.206085401730827E-01
   4.018242950061797E-01   3.833688039078878E-01   3.652611580993119E-01
   3.475200811664273E-01   3.301638425163750E-01   3.132101671439481E-01
   2.966761419684998E-01   2.805781190575837E-01   2.649316161135650E-01
   2.497512146635802E-01   2.350504564609653E-01   2.208417386776604E-01
   2.071362085418196E-01   1.939436581522238E-01   1.812724202810292E-01
   1.691292660578137E-01   1.575193055103496E-01   1.464458920200849E-01
   1.359105318317233E-01   1.259127998357129E-01   1.164502629181564E-01
   1.075184122433627E-01   9.911060589821594E-02   9.121802338271241E-02
   8.382963347560607E-02   7.693217703560436E-02   7.051016631474046E-02
   6.454590235882203E-02   5.901951204741714E-02   5.390900628006502E-02
   4.919036074321018E-02   4.483807522580114E-02   4.082767094509827E-02
   3.713614500314189E-02   3.374173430395472E-02   3.062387191186352E-02
   2.776314245052044E-02   2.514123717316467E-02   2.274090919229006E-02
   2.054592921836742E-02   1.854104203845350E-02   1.671192387354673E-02
   1.504514068885740E-02   1.352810749009751E-02   1.214904861607567E-02
   1.089695902776466E-02   9.761566591843006E-03   8.733295358856768E-03
   7.803229840070447E-03   6.963080291184270E-03   6.205149014482083E-03
   5.522297693225274E-03   4.907915773108938E-03   4.355889905409254E-03
   3.860574465236648E-03   3.416763156256209E-03   3.019661710546359E-03
   2.664861689122711E-03   2.348315385218131E-03   2.066311828823673E-03
   1.815453887369376E-03   1.592636453852182E-03   1.395025710270761E-03
   1.220039450956719E-03   1.065328447338548E-03   9.287588328642050E-04
   8.083954842581344E-04   7.024863730079985E-04   6.094478589681578E-04
   5.278508962304813E-04   4.564081199427863E-04   3.939617815442489E-04
   3.394724989259686E-04   2.920087873025805E-04   2.507373360859008E-04
   2.149139967710366E-04   1.838754467662063E-04   1.570314942058945E-04
   1.338579890688199E-04   1.138903063633861E-04   9.671736772929377E-05
   8.197616852045976E-05   6.934677826693107E-05   5.854778334781733E-05
   4.933214172948211E-05   4.148342071960162E-05   3.481238984502287E-05
   2.915394216688874E-05   2.436431858807882E-05   2.031861097416392E-05
   1.690852118896778E-05   1.404035442946979E-05   1.163322652292881E-05
   9.617466113360182E-06   7.933193907316045E-06   6.529062363597347E-06
   5.361140392227489E-06   4.391928769732997E-06   3.589493076311749E-06
   2.926702012421832E-06   2.380559955030338E-06   1.931623565270051E-06
   1.563493158265203E-06   1.262370391712644E-06   1.016674622304257E-06
   8.167110186041933E-07   6.543842063477217E-07   5.229518584858014E-07
   4.168132291682872E-07   3.313281700222167E-07   2.626626605456813E-07
   2.076573343850837E-07   1.637158920066324E-07   1.287106602137187E-07
   1.009028925536724E-07   7.887570437084803E-08   6.147780455657498E-08
   4.777642533971871E-08   3.701806411332889E-08   2.859583958283993E-08
   2.202243063469308E-08   1.690771234013048E-08   1.294033139143102E-08
   9.872574860332130E-09   7.507983189635405E-09   5.691242372102287E-09
   4.299962803665891E-09   3.238014665601749E-09   2.430143118059186E-09
   1.817632185859364E-09   1.354824987968565E-09   1.006340802589240E-09
   7.448571717537624E-10   5.493485442281241E-10   4.036924621505791E-10
   2.955705679500250E-10   2.156052274288662E-10   1.566837536904881E-10
   1.134314399213403E-10   8.180218181036561E-11   5.876166295398271E-11
   4.204311995579030E-11   2.995979453953947E-11   2.126148413676271E-11
   1.502526017386597E-11   1.057255212811421E-11   7.406493371466546E-12
   5.164773291460464E-12   3.584306469999453E-12   2.474869181451804E-12
   1.699511473143723E-12   1.160066551162717E-12   7.864780664656375E-13
   5.289743334145974E-13   3.523560456116873E-13   2.318453150085413E-13
   1.500869020492296E-13   9.497692262735876E-14   5.827771216032933E-14
   3.360944785627611E-14   0.000000000000000E+00   0.000000000000000E+00
   0.000000000000000E+00   0.000000000000000E+00   0.000000000000000E+00
   0.000000000000000E+00   0.000000000000000E+00   0.000000000000000E+00
   0.000000000000000E+00   0.000000000000000E+00   0.000000000000000E+00
   0.000000000000000E+00   0.000000000000000E+00   0.000000000000000E+00
   0.000000000000000E+00   0.000000000000000E+00   0.000000000000000E+00
   0.000000000000000E+00   0.000000000000000E+00   0.000000000000000E+00
   0.000000000000000E+00   0.000000000000000E+00   0.000000000000000E+00
   0.000000000000000E+00   0.000000000000000E+00   0.000000000000000E+00
   0.000000000000000E+00   0.000000000000000E+00   0.000000000000000E+00
   0.000000000000000E+00   0.000000000000000E+00   0.000000000000000E+00
   0.000000000000000E+00   0.000000000000000E+00   0.000000000000000E+00
   0.000000000000000E+00   0.000000000000000E+00   0.000000000000000E+00
   0.000000000000000E+00   0.000000000000000E+00   0.000000000000000E+00
   0.000000000000000E+00   0.000000000000000E+00   0.000000000000000E+00
   0.000000000000000E+00   0.000000000000000E+00   0.000000000000000E+00
   0.000000000000000E+00   0.000000000000000E+00   0.000000000000000E+00
   0.000000000000000E+00   0.000000000000000E+00   0.000000000000000E+00
   0.000000000000000E+00   0.000000000000000E+00   0.000000000000000E+00
   0.000000000000000E+00   0.000000000000000E+00   0.000000000000000E+00
   0.000000000000000E+00   0.000000000000000E+00   0.000000000000000E+00
   0.000000000000000E+00   0.000000000000000E+00   0.000000000000000E+00
   0.000000000000000E+00   0.000000000000000E+00   0.000000000000000E+00
   0.000000000000000E+00   0.000000000000000E+00   0.000000000000000E+00
   0.000000000000000E+00   0.000000000000000E+00   0.000000000000000E+00
   0.000000000000000E+00   0.000000000000000E+00   0.000000000000000E+00
   0.000000000000000E+00   0.000000000000000E+00   0.000000000000000E+00
   0.000000000000000E+00   0.000000000000000E+00   0.000000000000000E+00
   0.000000000000000E+00   0.000000000000000E+00   0.000000000000000E+00
   0.000000000000000E+00   0.000000000000000E+00   0.000000000000000E+00
   0.000000000000000E+00   0.000000000000000E+00   0.000000000000000E+00
   0.000000000000000E+00   0.000000000000000E+00   0.000000000000000E+00
   0.000000000000000E+00   0.000000000000000E+00   0.000000000000000E+00
   0.000000000000000E+00   0.000000000000000E+00   0.000000000000000E+00
   0.000000000000000E+00   0.000000000000000E+00   0.000000000000000E+00
   0.000000000000000E+00   0.000000000000000E+00   0.000000000000000E+00
   0.000000000000000E+00   0.000000000000000E+00   0.000000000000000E+00
   0.000000000000000E+00   0.000000000000000E+00   0.000000000000000E+00
   0.000000000000000E+00   0.000000000000000E+00   0.000000000000000E+00
   0.000000000000000E+00   0.000000000000000E+00   0.000000000000000E+00
   0.000000000000000E+00   0.000000000000000E+00   0.000000000000000E+00
   0.000000000000000E+00   0.000000000000000E+00   0.000000000000000E+00
   0.000000000000000E+00   0.000000000000000E+00   0.000000000000000E+00
   0.000000000000000E+00   0.000000000000000E+00   0.000000000000000E+00
   0.000000000000000E+00   0.000000000000000E+00   0.000000000000000E+00
   0.000000000000000E+00   0.000000000000000E+00   0.000000000000000E+00
   0.000000000000000E+00   0.000000000000000E+00   0.000000000000000E+00
   0.000000000000000E+00   0.000000000000000E+00   0.000000000000000E+00
   0.000000000000000E+00   0.000000000000000E+00   0.000000000000000E+00
   0.000000000000000E+00   0.000000000000000E+00   0.000000000000000E+00
   0.000000000000000E+00   0.000000000000000E+00   0.000000000000000E+00
   0.000000000000000E+00   0.000000000000000E+00   0.000000000000000E+00
   0.000000000000000E+00   0.000000000000000E+00   0.000000000000000E+00
   0.000000000000000E+00   0.000000000000000E+00   0.000000000000000E+00
   0.000000000000000E+00   0.000000000000000E+00   0.000000000000000E+00
   0.000000000000000E+00   0.000000000000000E+00   0.000000000000000E+00
   0.000000000000000E+00   0.000000000000000E+00   0.000000000000000E+00
   0.000000000000000E+00   0.000000000000000E+00   0.000000000000000E+00
   0.000000000000000E+00   0.000000000000000E+00   0.000000000000000E+00
   0.000000000000000E+00   0.000000000000000E+00   0.000000000000000E+00
   0.000000000000000E+00   0.000000000000000E+00   0.000000000000000E+00
   0.000000000000000E+00   0.000000000000000E+00   0.000000000000000E+00
   0.000000000000000E+00   0.000000000000000E+00   0.000000000000000E+00
   0.000000000000000E+00   0.000000000000000E+00   0.000000000000000E+00
   0.000000000000000E+00   0.000000000000000E+00   0.000000000000000E+00
   0.000000000000000E+00   0.000000000000000E+00   0.000000000000000E+00
   0.000000000000000E+00   0.000000000000000E+00   0.000000000000000E+00
   0.000000000000000E+00   0.000000000000000E+00   0.000000000000000E+00
   0.000000000000000E+00   0.000000000000000E+00   0.000000000000000E+00
   0.000000000000000E+00   0.000000000000000E+00   0.000000000000000E+00
   0.000000000000000E+00   0.000000000000000E+00   0.000000000000000E+00
   0.000000000000000E+00   0.000000000000000E+00   0.000000000000000E+00
   0.000000000000000E+00   0.000000000000000E+00   0.000000000000000E+00
   0.000000000000000E+00   0.000000000000000E+00   0.000000000000000E+00
   0.000000000000000E+00   0.000000000000000E+00   0.000000000000000E+00
   0.000000000000000E+00   0.000000000000000E+00   0.000000000000000E+00
   0.000000000000000E+00   0.000000000000000E+00   0.000000000000000E+00
   0.000000000000000E+00   0.000000000000000E+00   0.000000000000000E+00
   0.000000000000000E+00   0.000000000000000E+00   0.000000000000000E+00
   0.000000000000000E+00   0.000000000000000E+00   0.000000000000000E+00
   0.000000000000000E+00   0.000000000000000E+00   0.000000000000000E+00
   0.000000000000000E+00   0.000000000000000E+00   0.000000000000000E+00
   0.000000000000000E+00   0.000000000000000E+00   0.000000000000000E+00
   0.000000000000000E+00   0.000000000000000E+00   0.000000000000000E+00
   0.000000000000000E+00   0.000000000000000E+00   0.000000000000000E+00
   0.000000000000000E+00   0.000000000000000E+00   0.000000000000000E+00
   0.000000000000000E+00   0.000000000000000E+00   0.000000000000000E+00
   0.000000000000000E+00   0.000000000000000E+00   0.000000000000000E+00
   0.000000000000000E+00   0.000000000000000E+00   0.000000000000000E+00
   0.000000000000000E+00   0.000000000000000E+00
  </PP_NLCC>
  <PP_LOCAL size="1073">
  -1.946109460651855E+01  -1.946109458479661E+01  -1.946109456251305E+01
  -1.946109453965415E+01  -1.946109451620594E+01  -1.946109449215425E+01
  -1.946109446745289E+01  -1.946109444249763E+01  -1.946109441649185E+01
  -1.946109438982772E+01  -1.946109436248860E+01  -1.946109433445736E+01
  -1.946109430571651E+01  -1.946109427624809E+01  -1.946109424603367E+01
  -1.946109421505439E+01  -1.946109418329086E+01  -1.946109415072322E+01
  -1.946109411733112E+01  -1.946109408309371E+01  -1.946109404864582E+01
  -1.946109401266965E+01  -1.946109397578273E+01  -1.946109393796199E+01
  -1.946109389970206E+01  -1.946109385995533E+01  -1.946109381920240E+01
  -1.946109377741783E+01  -1.946109373457545E+01  -1.946109369064853E+01
  -1.946109364560960E+01  -1.946109359943050E+01  -1.946109355208234E+01
  -1.946109350353561E+01  -1.946109345375988E+01  -1.946109340272410E+01
  -1.946109335039634E+01  -1.946109329674385E+01  -1.946109324173315E+01
  -1.946109318532990E+01  -1.946109312749878E+01  -1.946109306820365E+01
  -1.946109300740742E+01  -1.946109294507217E+01  -1.946109288210257E+01
  -1.946109281659525E+01  -1.946109274942953E+01  -1.946109268126222E+01
  -1.946109261067049E+01  -1.946109253829189E+01  -1.946109246408089E+01
  -1.946109238799120E+01  -1.946109230997542E+01  -1.946109222998459E+01
  -1.946109214796882E+01  -1.946109206387671E+01  -1.946109197765592E+01
  -1.946109188925240E+01  -1.946109179861093E+01  -1.946109170567482E+01
  -1.946109161038609E+01  -1.946109151268510E+01  -1.946109141251078E+01
  -1.946109130980055E+01  -1.946109120449021E+01  -1.946109109651393E+01
  -1.946109098580422E+01  -1.946109087229192E+01  -1.946109075590594E+01
  -1.946109063657377E+01  -1.946109051422057E+01  -1.946109038877008E+01
  -1.946109026014377E+01  -1.946109012826122E+01  -1.946108999304016E+01
  -1.946108985439587E+01  -1.946108971224181E+01  -1.946108956808267E+01
  -1.946108941868059E+01  -1.946108926654533E+01  -1.946108910950978E+01
  -1.946108894849907E+01  -1.946108878341210E+01  -1.946108861414606E+01
  -1.946108844059498E+01  -1.946108826265042E+01  -1.946108808020135E+01
  -1.946108789313332E+01  -1.946108770132991E+01  -1.946108750467074E+01
  -1.946108730303322E+01  -1.946108709629135E+01  -1.946108688431561E+01
  -1.946108666697394E+01  -1.946108644413015E+01  -1.946108621564492E+01
  -1.946108598137572E+01  -1.946108574117587E+01  -1.946108549489543E+01
  -1.946108524238046E+01  -1.946108498347296E+01  -1.946108471801128E+01
  -1.946108444582929E+01  -1.946108416675709E+01  -1.946108388062015E+01
  -1.946108358723972E+01  -1.946108328643228E+01  -1.946108297800988E+01
  -1.946108266177990E+01  -1.946108233754437E+01  -1.946108200510098E+01
  -1.946108166424171E+01  -1.946108131475355E+01  -1.946108095641801E+01
  -1.946108058901130E+01  -1.946108021230378E+01  -1.946107982605970E+01
  -1.946107943003815E+01  -1.946107902399111E+01  -1.946107860766488E+01
  -1.946107818079962E+01  -1.946107774312808E+01  -1.946107729437694E+01
  -1.946107683426583E+01  -1.946107636250693E+01  -1.946107587880539E+01
  -1.946107538285910E+01  -1.946107487435786E+01  -1.946107435298379E+01
  -1.946107381841141E+01  -1.946107327030611E+01  -1.946107270832550E+01
  -1.946107213211863E+01  -1.946107154557711E+01  -1.946107094203488E+01
  -1.946107032111441E+01  -1.946106968447512E+01  -1.946106903172001E+01
  -1.946106836244019E+01  -1.946106767621714E+01  -1.946106697262282E+01
  -1.946106625121698E+01  -1.946106551154926E+01  -1.946106475315686E+01
  -1.946106397556521E+01  -1.946106317828949E+01  -1.946106236083068E+01
  -1.946106152267775E+01  -1.946106066330732E+01  -1.946105978218264E+01
  -1.946105887875243E+01  -1.946105795245057E+01  -1.946105700270006E+01
  -1.946105602890808E+01  -1.946105503046391E+01  -1.946105400674438E+01
  -1.946105295710940E+01  -1.946105188090287E+01  -1.946105077745332E+01
  -1.946104964606960E+01  -1.946104848604498E+01  -1.946104729665542E+01
  -1.946104607715642E+01  -1.946104482678597E+01  -1.946104354476295E+01
  -1.946104223028522E+01  -1.946104088253243E+01  -1.946103950066226E+01
  -1.946103808380953E+01  -1.946103663108982E+01  -1.946103514159631E+01
  -1.946103361439587E+01  -1.946103204853346E+01  -1.946103044303388E+01
  -1.946102879689179E+01  -1.946102710907648E+01  -1.946102537853580E+01
  -1.946102360418824E+01  -1.946102178492317E+01  -1.946101991960389E+01
  -1.946101800706522E+01  -1.946101604611110E+01  -1.946101403551708E+01
  -1.946101197402618E+01  -1.946100986034903E+01  -1.946100769316547E+01
  -1.946100547112151E+01  -1.946100319282764E+01  -1.946100085685977E+01
  -1.946099846175871E+01  -1.946099600602674E+01  -1.946099348813001E+01
  -1.946099090649514E+01  -1.946098825950676E+01  -1.946098554551212E+01
  -1.946098276281564E+01  -1.946097990967661E+01  -1.946097698431262E+01
  -1.946097398489589E+01  -1.946097090955168E+01  -1.946096775635735E+01
  -1.946096452334260E+01  -1.946096120848756E+01  -1.946095780971959E+01
  -1.946095432491562E+01  -1.946095075189756E+01  -1.946094708843190E+01
  -1.946094333222946E+01  -1.946093948094278E+01  -1.946093553216599E+01
  -1.946093148342996E+01  -1.946092733220432E+01  -1.946092307589602E+01
  -1.946091871184512E+01  -1.946091423732395E+01  -1.946090964953565E+01
  -1.946090494561399E+01  -1.946090012261901E+01  -1.946089517753710E+01
  -1.946089010727864E+01  -1.946088490867318E+01  -1.946087957847287E+01
  -1.946087411334823E+01  -1.946086850988257E+01  -1.946086276457434E+01
  -1.946085687383433E+01  -1.946085083398069E+01  -1.946084464123890E+01
  -1.946083829173955E+01  -1.946083178151537E+01  -1.946082510649826E+01
  -1.946081826251557E+01  -1.946081124529224E+01  -1.946080405044410E+01
  -1.946079667347344E+01  -1.946078910977124E+01  -1.946078135461209E+01
  -1.946077340315019E+01  -1.946076525041633E+01  -1.946075689131668E+01
  -1.946074832062733E+01  -1.946073953299368E+01  -1.946073052292693E+01
  -1.946072128479476E+01  -1.946071181282502E+01  -1.946070210110143E+01
  -1.946069214355520E+01  -1.946068193396401E+01  -1.946067146594946E+01
  -1.946066073297251E+01  -1.946064972832638E+01  -1.946063844513479E+01
  -1.946062687634933E+01  -1.946061501474244E+01  -1.946060285290350E+01
  -1.946059038323456E+01  -1.946057759794489E+01  -1.946056448904663E+01
  -1.946055104835067E+01  -1.946053726746107E+01  -1.946052313776896E+01
  -1.946050865044601E+01  -1.946049379644317E+01  -1.946047856648182E+01
  -1.946046295104661E+01  -1.946044694038478E+01  -1.946043052449454E+01
  -1.946041369312132E+01  -1.946039643575205E+01  -1.946037874160656E+01
  -1.946036059963440E+01  -1.946034199850336E+01  -1.946032292659380E+01
  -1.946030337199548E+01  -1.946028332249428E+01  -1.946026276556782E+01
  -1.946024168837867E+01  -1.946022007776186E+01  -1.946019792022160E+01
  -1.946017520192028E+01  -1.946015190866957E+01  -1.946012802586825E+01
  -1.946010353872262E+01  -1.946007843197422E+01  -1.946005268976586E+01
  -1.946002629596465E+01  -1.945999923428228E+01  -1.945997148797921E+01
  -1.945994303939939E+01  -1.945991387085684E+01  -1.945988396422248E+01
  -1.945985330064611E+01  -1.945982186127120E+01  -1.945978962635395E+01
  -1.945975657564284E+01  -1.945972268873759E+01  -1.945968794436422E+01
  -1.945965232064582E+01  -1.945961579552305E+01  -1.945957834635817E+01
  -1.945953994962282E+01  -1.945950058123471E+01  -1.945946021674772E+01
  -1.945941883103145E+01  -1.945937639804748E+01  -1.945933289154237E+01
  -1.945928828436371E+01  -1.945924254846875E+01  -1.945919565552985E+01
  -1.945914757611876E+01  -1.945909828037276E+01  -1.945904773760702E+01
  -1.945899591591738E+01  -1.945894278331025E+01  -1.945888830677537E+01
  -1.945883245190728E+01  -1.945877518409244E+01  -1.945871646776262E+01
  -1.945865626593722E+01  -1.945859454129016E+01  -1.945853125547712E+01
  -1.945846636880633E+01  -1.945839984087583E+01  -1.945833163018535E+01
  -1.945826169427885E+01  -1.945818998953243E+01  -1.945811647115286E+01
  -1.945804109345735E+01  -1.945796380956301E+01  -1.945788457112061E+01
  -1.945780332855936E+01  -1.945772003157753E+01  -1.945763462825738E+01
  -1.945754706526017E+01  -1.945745728822029E+01  -1.945736524093059E+01
  -1.945727086601598E+01  -1.945717410514166E+01  -1.945707489780305E+01
  -1.945697318209473E+01  -1.945686889500955E+01  -1.945676197132510E+01
  -1.945665234428244E+01  -1.945653994612011E+01  -1.945642470694129E+01
  -1.945630655449951E+01  -1.945618541555585E+01  -1.945606121485166E+01
  -1.945593387486562E+01  -1.945580331653039E+01  -1.945566945860851E+01
  -1.945553221799682E+01  -1.945539150929141E+01  -1.945524724473337E+01
  -1.945509933494921E+01  -1.945494768791498E+01  -1.945479220937706E+01
  -1.945463280282360E+01  -1.945446936889054E+01  -1.945430180641250E+01
  -1.945413001127234E+01  -1.945395387659931E+01  -1.945377329307302E+01
  -1.945358814858833E+01  -1.945339832840982E+01  -1.945320371456273E+01
  -1.945300418624272E+01  -1.945279961977099E+01  -1.945258988827190E+01
  -1.945237486168234E+01  -1.945215440662499E+01  -1.945192838647147E+01
  -1.945169666116335E+01  -1.945145908706597E+01  -1.945121551705949E+01
  -1.945096580026095E+01  -1.945070978204288E+01  -1.945044730399185E+01
  -1.945017820359581E+01  -1.944990231430107E+01  -1.944961946546087E+01
  -1.944932948216825E+01  -1.944903218520023E+01  -1.944872739076882E+01
  -1.944841491040229E+01  -1.944809455117287E+01  -1.944776611529801E+01
  -1.944742939992777E+01  -1.944708419723095E+01  -1.944673029419710E+01
  -1.944636747259960E+01  -1.944599550871209E+01  -1.944561417327055E+01
  -1.944522323129494E+01  -1.944482244196190E+01  -1.944441155856288E+01
  -1.944399032812076E+01  -1.944355849148030E+01  -1.944311578315367E+01
  -1.944266193092392E+01  -1.944219665588099E+01  -1.944171967225802E+01
  -1.944123068716614E+01  -1.944072940055078E+01  -1.944021550489469E+01
  -1.943968868512243E+01  -1.943914861841764E+01  -1.943859497389842E+01
  -1.943802741265117E+01  -1.943744558739117E+01  -1.943684914225059E+01
  -1.943623771268567E+01  -1.943561092515510E+01  -1.943496839696056E+01
  -1.943430973602042E+01  -1.943363454069544E+01  -1.943294239945762E+01
  -1.943223289071540E+01  -1.943150558263476E+01  -1.943076003276640E+01
  -1.942999578792373E+01  -1.942921238388674E+01  -1.942840934508152E+01
  -1.942758618439657E+01  -1.942674240289076E+01  -1.942587748951319E+01
  -1.942499092083820E+01  -1.942408216072540E+01  -1.942315066008674E+01
  -1.942219585656844E+01  -1.942121717424365E+01  -1.942021402331089E+01
  -1.941918579973405E+01  -1.941813188499207E+01  -1.941705164568088E+01
  -1.941594443320477E+01  -1.941480958348350E+01  -1.941364641647984E+01
  -1.941245423591266E+01  -1.941123232897647E+01  -1.940997996584226E+01
  -1.940869639927596E+01  -1.940738086434751E+01  -1.940603257802797E+01
  -1.940465073870551E+01  -1.940323452581282E+01  -1.940178309947211E+01
  -1.940029560002257E+01  -1.939877114758277E+01  -1.939720884161627E+01
  -1.939560776050621E+01  -1.939396696111718E+01  -1.939228547829880E+01
  -1.939056232441012E+01  -1.938879648888867E+01  -1.938698693774461E+01
  -1.938513261304445E+01  -1.938323243245412E+01  -1.938128528872656E+01
  -1.937929004913606E+01  -1.937724555500812E+01  -1.937515062118020E+01
  -1.937300403544308E+01  -1.937080455802021E+01  -1.936855092096938E+01
  -1.936624182766716E+01  -1.936387595224761E+01  -1.936145193896220E+01
  -1.935896840162462E+01  -1.935642392305615E+01  -1.935381705443529E+01
  -1.935114631469965E+01  -1.934841018996133E+01  -1.934560713285835E+01
  -1.934273556191508E+01  -1.933979386092151E+01  -1.933678037830375E+01
  -1.933369342647129E+01  -1.933053128113457E+01  -1.932729218065599E+01
  -1.932397432539805E+01  -1.932057587703627E+01  -1.931709495789015E+01
  -1.931352965022033E+01  -1.930987799554579E+01  -1.930613799396263E+01
  -1.930230760343518E+01  -1.929838473909035E+01  -1.929436727250489E+01
  -1.929025303100924E+01  -1.928603979696936E+01  -1.928172530706141E+01
  -1.927730725154696E+01  -1.927278327356521E+01  -1.926815096840600E+01
  -1.926340788276545E+01  -1.925855151403598E+01  -1.925357930957603E+01
  -1.924848866597759E+01  -1.924327692832698E+01  -1.923794138948753E+01
  -1.923247928937296E+01  -1.922688781420760E+01  -1.922116409580942E+01
  -1.921530521086697E+01  -1.920930818021376E+01  -1.920316996810728E+01
  -1.919688748151809E+01  -1.919045756941845E+01  -1.918387702206890E+01
  -1.917714257031741E+01  -1.917025088490433E+01  -1.916319857576422E+01
  -1.915598219134005E+01  -1.914859821790481E+01  -1.914104307888035E+01
  -1.913331313417554E+01  -1.912540467952476E+01  -1.911731394582864E+01
  -1.910903709851868E+01  -1.910057023691519E+01  -1.909190939359498E+01
  -1.908305053378387E+01  -1.907398955474078E+01  -1.906472228515183E+01
  -1.905524448455262E+01  -1.904555184274228E+01  -1.903563997921153E+01
  -1.902550444258939E+01  -1.901514071009261E+01  -1.900454418699540E+01
  -1.899371020610221E+01  -1.898263402723174E+01  -1.897131083672717E+01
  -1.895973574696543E+01  -1.894790379587971E+01  -1.893580994651129E+01
  -1.892344908655813E+01  -1.891081602794282E+01  -1.889790550640640E+01
  -1.888471218110742E+01  -1.887123063423992E+01  -1.885745537067312E+01
  -1.884338081761179E+01  -1.882900132427205E+01  -1.881431116157906E+01
  -1.879930452189570E+01  -1.878397551877360E+01  -1.876831818672333E+01
  -1.875232648102408E+01  -1.873599427756854E+01  -1.871931537273063E+01
  -1.870228348327823E+01  -1.868489224633123E+01  -1.866713521935983E+01
  -1.864900588023244E+01  -1.863049762732149E+01  -1.861160377966623E+01
  -1.859231757719871E+01  -1.857263218104527E+01  -1.855254067389950E+01
  -1.853203606048200E+01  -1.851111126809365E+01  -1.848975914726173E+01
  -1.846797247249951E+01  -1.844574394318229E+01  -1.842306618454440E+01
  -1.839993174881698E+01  -1.837633311651328E+01  -1.835226269786767E+01
  -1.832771283444297E+01  -1.830267580092406E+01  -1.827714380710151E+01
  -1.825110900005669E+01  -1.822456346656849E+01  -1.819749923575015E+01
  -1.816990828192642E+01  -1.814178252776413E+01  -1.811311384767289E+01
  -1.808389407148096E+01  -1.805411498839563E+01  -1.802376835126439E+01
  -1.799284588113808E+01  -1.796133927214167E+01  -1.792924019666070E+01
  -1.789654031083992E+01  -1.786323126039233E+01  -1.782930468671400E+01
  -1.779475223329175E+01  -1.775956555238998E+01  -1.772373631199202E+01
  -1.768725620296857E+01  -1.765011694643815E+01  -1.761231030127163E+01
  -1.757382807168585E+01  -1.753466211486046E+01  -1.749480434849822E+01
  -1.745424675823416E+01  -1.741298140478641E+01  -1.737100043071971E+01
  -1.732829606667841E+01  -1.728486063692358E+01  -1.724068656398281E+01
  -1.719576637220423E+01  -1.715009268997617E+01  -1.710365825034710E+01
  -1.705645588975593E+01  -1.700847854455072E+01  -1.695971924494750E+01
  -1.691017110605407E+01  -1.685982731555659E+01  -1.680868111764211E+01
  -1.675672579271725E+01  -1.670395463246992E+01  -1.665036090981702E+01
  -1.659593784329505E+01  -1.654067855547559E+01  -1.648457602503674E+01
  -1.642762303219146E+01  -1.636981209727771E+01  -1.631113541245776E+01
  -1.625158476665598E+01  -1.619115146410599E+01  -1.612982623717337E+01
  -1.606759915448408E+01  -1.600445952583798E+01  -1.594039580591217E+01
  -1.587539549937510E+01  -1.580944507075082E+01  -1.574252986318385E+01
  -1.567463403115815E+01  -1.560574049321928E+01  -1.553583091181583E+01
  -1.546488570849273E+01  -1.539288412381065E+01  -1.531980433248422E+01
  -1.524562362527775E+01  -1.517031867010559E+01  -1.509386586546547E+01
  -1.501624179969633E+01  -1.493742382946826E+01  -1.485739079023261E+01
  -1.477612384990136E+01  -1.469360751454042E+01  -1.460983079104765E+01
  -1.452478850622585E+01  -1.443848277380010E+01  -1.435092459003110E+01
  -1.426213552365837E+01  -1.417214944571187E+01  -1.408101421769095E+01
  -1.398879322091424E+01  -1.389556656359388E+01  -1.380143174379038E+01
  -1.370650347531029E+01  -1.361091230150370E+01  -1.351480153459396E+01
  -1.341832197806044E+01  -1.332162383886520E+01  -1.322484524992179E+01
  -1.312809695055956E+01  -1.303144297574222E+01  -1.293487774889919E+01
  -1.283830080800675E+01  -1.274149152175777E+01  -1.264408748403030E+01
  -1.254557159022862E+01  -1.244527372436966E+01  -1.234239301710465E+01
  -1.223604523076648E+01  -1.212533657570132E+01  -1.200946010245029E+01
  -1.188780427736707E+01  -1.176005674279020E+01  -1.162638532065448E+01
  -1.148800069552963E+01  -1.134694433662228E+01  -1.120474720368188E+01
  -1.106219872084020E+01  -1.091994896139283E+01  -1.077858996041732E+01
  -1.063859492666852E+01  -1.050031344262082E+01  -1.036397769635251E+01
  -1.022971678629437E+01  -1.009757570448165E+01  -9.967535833373031E+00
  -9.839534473852130E+00  -9.713481797989992E+00  -9.589274465326371E+00
  -9.466805812461303E+00  -9.345972965969874E+00  -9.226681448025502E+00
  -9.108847890218563E+00  -8.992484905151988E+00  -8.877984276565396E+00
  -8.765774566193929E+00  -8.655673120913386E+00  -8.547355621193546E+00
  -8.440782473237775E+00  -8.335990406326722E+00  -8.233011669592159E+00
  -8.131870497536770E+00  -8.032460449742590E+00  -7.934134287844683E+00
  -7.836209446666112E+00  -7.738914654886724E+00  -7.642727923800702E+00
  -7.547742013499516E+00  -7.453941390599245E+00  -7.361310770819266E+00
  -7.269835111595615E+00  -7.179499605032431E+00  -7.090289671180686E+00
  -7.002190951633088E+00  -6.915189303423435E+00  -6.829270793218623E+00
  -6.744421691791716E+00  -6.660628468763914E+00  -6.577877787603441E+00
  -6.496156500869740E+00  -6.415451645690695E+00  -6.335750439461524E+00
  -6.257040275753662E+00  -6.179308720422378E+00  -6.102543507902347E+00
  -6.026732537679900E+00  -5.951863870931344E+00  -5.877925727315379E+00
  -5.804906481911442E+00  -5.732794662269805E+00  -5.661578945708621E+00
  -5.591248156658674E+00  -5.521791264007332E+00  -5.453197378665307E+00
  -5.385455751217188E+00  -5.318555769665128E+00  -5.252486957247432E+00
  -5.187238970334378E+00  -5.122801596398559E+00  -5.059164752052336E+00
  -4.996318481147382E+00  -4.934252952932622E+00  -4.872958460265895E+00
  -4.812425417875703E+00  -4.752644360669539E+00  -4.693605942085288E+00
  -4.635300932483132E+00  -4.577720217574913E+00  -4.520854796888534E+00
  -4.464695782265340E+00  -4.409234396388220E+00  -4.354461971338633E+00
  -4.300369947180882E+00  -4.246949870572230E+00  -4.194193393397314E+00
  -4.142092271425602E+00  -4.090638362994454E+00  -4.039823627699662E+00
  -3.989640125119285E+00  -3.940080013571118E+00  -3.891135548853713E+00
  -3.842799083019771E+00  -3.795063063180154E+00  -3.747920030313095E+00
  -3.701362618084538E+00  -3.655383551692827E+00  -3.609975646737858E+00
  -3.565131808082601E+00  -3.520845028738934E+00  -3.477108388776105E+00
  -3.433915054234550E+00  -3.391258276055743E+00  -3.349131389025497E+00
  -3.307527810730698E+00  -3.266441040529043E+00  -3.225864658531801E+00
  -3.185792324599347E+00  -3.146217777349193E+00  -3.107134833176641E+00
  -3.068537385287647E+00  -3.030419402743952E+00  -2.992774929520282E+00
  -2.955598083573440E+00  -2.918883055923280E+00  -2.882624109745256E+00
  -2.846815579474552E+00  -2.811451869921557E+00  -2.776527455398467E+00
  -2.742036878856987E+00  -2.707974751036772E+00  -2.674335749624568E+00
  -2.641114618423800E+00  -2.608306166534379E+00  -2.575905267542689E+00
  -2.543906858721412E+00  -2.512305940239163E+00  -2.481097574379739E+00
  -2.450276884770826E+00  -2.419839055622122E+00  -2.389779330972632E+00
  -2.360093013947205E+00  -2.330775466022121E+00  -2.301822106299602E+00
  -2.273228410791328E+00  -2.244989911710711E+00  -2.217102196773936E+00
  -2.189560908509697E+00  -2.162361743577478E+00  -2.135500452094349E+00
  -2.108972836970143E+00  -2.082774753250956E+00  -2.056902107470853E+00
  -2.031350857011634E+00  -2.006117009470687E+00  -1.981196622036659E+00
  -1.956585800873005E+00  -1.932280700509232E+00  -1.908277523239751E+00
  -1.884572518530309E+00  -1.861161982431818E+00  -1.838042257001593E+00
  -1.815209729731849E+00  -1.792660832985365E+00  -1.770392043438306E+00
  -1.748399881529990E+00  -1.726680910919601E+00  -1.705231737949767E+00
  -1.684049011116780E+00  -1.663129420547519E+00  -1.642469697482862E+00
  -1.622066613767549E+00  -1.601916981346389E+00  -1.582017651766672E+00
  -1.562365515686785E+00  -1.542957502390825E+00  -1.523790579309238E+00
  -1.504861751545334E+00  -1.486168061407590E+00  -1.467706587947748E+00
  -1.449474446504518E+00  -1.431468788252936E+00  -1.413686799759235E+00
  -1.396125702541186E+00  -1.378782752633872E+00  -1.361655240160789E+00
  -1.344740488910257E+00  -1.328035855917086E+00  -1.311538731049373E+00
  -1.295246536600472E+00  -1.279156726885987E+00  -1.263266787845796E+00
  -1.247574236651021E+00  -1.232076621315866E+00  -1.216771520314325E+00
  -1.201656542201621E+00  -1.186729325240395E+00  -1.171987537031548E+00
  -1.157428874149659E+00  -1.143051061782983E+00  -1.128851853377904E+00
  -1.114829030287835E+00  -1.100980401426497E+00  -1.087303802925493E+00
  -1.073797097796181E+00  -1.060458175595718E+00  -1.047284952097291E+00
  -1.034275368964444E+00  -1.021427393429443E+00  -1.008739017975667E+00
  -9.962082600239218E-01  -9.838331616226706E-01  -9.716117891421233E-01
  -9.595422329720966E-01  -9.476226072236723E-01  -9.358510494345215E-01
  -9.242257202779167E-01  -9.127448032753592E-01  -9.014065045127544E-01
  -8.902090523601418E-01  -8.791506971948813E-01  -8.682297111282922E-01
  -8.574443877356932E-01  -8.467930417897716E-01  -8.362740089972801E-01
  -8.258856457390734E-01  -8.156263288129530E-01  -8.054944551810768E-01
  -7.954884409295843E-01  -7.856067242450643E-01  -7.758477602244125E-01
  -7.662100240104581E-01  -7.566920096880422E-01  -7.472922300486781E-01
  -7.380092163581866E-01  -7.288415181272002E-01  -7.197877028845340E-01
  -7.108463559533733E-01  -7.020160802302204E-01  -6.932954959666370E-01
  -6.846832405534985E-01  -6.761779683086326E-01  -6.677783494656571E-01
  -6.594830732342465E-01  -6.512908425870245E-01  -6.432003774714192E-01
  -6.352104137358435E-01  -6.273197029321848E-01  -6.195270121207217E-01
  -6.118311236774873E-01  -6.042308351040012E-01  -5.967249588393780E-01
  -5.893123220748590E-01  -5.819917665694890E-01  -5.747621484766894E-01
  -5.676223381379100E-01  -5.605713746424736E-01  -5.536076882955522E-01
  -5.467306631575400E-01  -5.399390657940362E-01  -5.332318350073678E-01
  -5.266079227791071E-01  -5.200662941095243E-01  -5.136059268558568E-01
  -5.072258115726089E-01  -5.009249513538138E-01  -4.947023616772688E-01
  -4.885570702507058E-01  -4.824881168598603E-01  -4.764945532184445E-01
  -4.705754428199690E-01  -4.647298607914135E-01  -4.589568937487180E-01
  -4.532556396540574E-01  -4.476252077178351E-01  -4.420647180839869E-01
  -4.365733019617014E-01  -4.311501013060386E-01  -4.257942687308620E-01
  -4.205049673764376E-01  -4.152813707786679E-01  -4.101226627399571E-01
  -4.050280372016811E-01  -3.999966981182339E-01  -3.950278593326497E-01
  -3.901207444537595E-01  -3.852745867348797E-01  -3.804886289540095E-01
  -3.757621232955079E-01  -3.710943312332518E-01  -3.664845234152350E-01
  -3.619319795496071E-01  -3.574359882921292E-01  -3.529958471350189E-01
  -3.486108622985342E-01  -3.442803486170624E-01  -3.400036294405050E-01
  -3.357800365227912E-01  -3.316089099189332E-01  -3.274895978819143E-01
  -3.234214567608473E-01  -3.194038509004044E-01  -3.154361525414976E-01
  -3.115177417231847E-01  -3.076480061858042E-01  -3.038263412753051E-01
  -3.000521498487691E-01  -2.963248421811084E-01  -2.926438358729154E-01
  -2.890085557594668E-01  -2.854184338208481E-01  -2.818729090932015E-01
  -2.783714275810761E-01  -2.749134421708608E-01  -2.714984125453012E-01
  -2.681258050990694E-01  -2.647950928553900E-01  -2.615057553836996E-01
  -2.582572787183249E-01  -2.550491552781790E-01  -2.518808837874470E-01
  -2.487519691972616E-01  -2.456619226083538E-01  -2.426102611946560E-01
  -2.395965081278648E-01  -2.366201925029315E-01  -2.336808492644838E-01
  -2.307780191341615E-01  -2.279112485388500E-01  -2.250800895398122E-01
  -2.222840997626939E-01  -2.195228423284037E-01  -2.167958857848503E-01
  -2.141028040395252E-01  -2.114431762929270E-01  -2.088165869728092E-01
  -2.062226256692461E-01  -2.036608870705075E-01  -2.011309708997244E-01
  -1.986324818523490E-01  -1.961650295343839E-01  -1.937282284013841E-01
  -1.913216976982154E-01  -1.889450613995588E-01  -1.865979481511579E-01
  -1.842799912117922E-01  -1.819908283959734E-01  -1.797301020173551E-01
  -1.774974588328404E-01  -1.752925499873900E-01  -1.731150309595107E-01
  -1.709645615074236E-01  -1.688408056159026E-01  -1.667434314437679E-01
  -1.646721112720389E-01  -1.626265214527241E-01  -1.606063423582522E-01
  -1.586112583315302E-01  -1.566409576366194E-01  -1.546951324100280E-01
  -1.527734786126053E-01  -1.508756959820358E-01  -1.490014879859227E-01
  -1.471505617754529E-01  -1.453226281396410E-01  -1.435174014601371E-01
  -1.417345996665994E-01  -1.399739441926213E-01  -1.382351599322021E-01
  -1.365179751967643E-01  -1.348221216726989E-01  -1.331473343794423E-01
  -1.314933516280732E-01  -1.298599149804209E-01  -1.282467692086867E-01
  -1.266536622555614E-01  -1.250803451948422E-01  -1.235265721925378E-01
  -1.219921004684550E-01  -1.204766902582656E-01  -1.189801047760407E-01
  -1.175021101772537E-01  -1.160424755222421E-01  -1.146009727401208E-01
  -1.131773765931479E-01  -1.117714646415288E-01  -1.103830172086606E-01
  -1.090118173468074E-01  -1.076576508032007E-01  -1.063203059865634E-01
  -1.049995739340469E-01  -1.036952482785806E-01  -1.024071252166276E-01
  -1.011350034763385E-01  -9.987868428610354E-02  -9.863797134349302E-02
  -9.741267078458525E-02  -9.620259115367537E-02  -9.500754337335873E-02
  -9.382734071498876E-02  -9.266179876949872E-02  -9.151073541858806E-02
  -9.037397080626679E-02  -8.925132731075111E-02  -8.814262951671116E-02
  -8.704770418786076E-02  -8.596638023988944E-02  -8.489848871373074E-02
  -8.384386274916068E-02  -8.280233755872707E-02  -8.177375040199963E-02
  -8.075794056014234E-02  -7.975474931080107E-02
  </PP_LOCAL>
  <PP_NONLOCAL>
    <PP_BETA.1 index="1" label="2S" angular_momentum="0" cutoff_radius_index="729" cutoff_radius="1.00000000000000" ultrasoft_cutoff_radius="1.20000000000000">
   1.075469080591010E-02   1.088996815066778E-02   1.102694707447804E-02
   1.116564898055242E-02   1.130321146516457E-02   1.145112470005182E-02
   1.158975148528421E-02   1.173747398180502E-02   1.188739205541182E-02
   1.203309744964609E-02   1.218577587436814E-02   1.234068988090807E-02
   1.249436079338606E-02   1.265256371939616E-02   1.281420050244095E-02
   1.297067611970093E-02   1.313740176061043E-02   1.329989153541761E-02
   1.347132837854770E-02   1.363618285485230E-02   1.380992092136003E-02
   1.398416075692237E-02   1.415872153892953E-02   1.433557797414350E-02
   1.451783644495008E-02   1.470109071154838E-02   1.488628452875916E-02
   1.507270080199487E-02   1.526124316823732E-02   1.545509572972059E-02
   1.564856192574469E-02   1.584430505829093E-02   1.604339501034485E-02
   1.624534649632040E-02   1.645054643679872E-02   1.665569958952551E-02
   1.686713666643516E-02   1.707605471209889E-02   1.729509306388261E-02
   1.751279403764897E-02   1.772972071786291E-02   1.795459211000278E-02
   1.818066190342382E-02   1.840941459309459E-02   1.864120124843344E-02
   1.887600593596944E-02   1.911134535250839E-02   1.935177434616744E-02
   1.959849812525061E-02   1.984155551391784E-02   2.009440077874552E-02
   2.034440276960561E-02   2.060066158834106E-02   2.086012740078858E-02
   2.112197013341116E-02   2.138773130146043E-02   2.165786476976439E-02
   2.192998872482432E-02   2.220647401459450E-02   2.248423753331777E-02
   2.276686656876573E-02   2.305271969314573E-02   2.334522025026667E-02
   2.363547665267995E-02   2.393446495924259E-02   2.423649219938404E-02
   2.454282301094321E-02   2.484991722230573E-02   2.516211227970891E-02
   2.547892862618562E-02   2.580076569893650E-02   2.612342222945296E-02
   2.645277421643313E-02   2.678370116935497E-02   2.712151854549633E-02
   2.746216158575326E-02   2.781001748096151E-02   2.815680768784068E-02
   2.851242055833483E-02   2.887077851848183E-02   2.923548040970567E-02
   2.960172786295576E-02   2.997357731498684E-02   3.035095127147208E-02
   3.073465443729242E-02   3.111929503023586E-02   3.151224903936750E-02
   3.190764545388877E-02   3.230845178943356E-02   3.271628322604803E-02
   3.312606583419297E-02   3.354426493457696E-02   3.396549920237546E-02
   3.439254976625583E-02   3.482398395405439E-02   3.526401054445727E-02
   3.570621896411141E-02   3.615491521904912E-02   3.661169290111443E-02
   3.707086992935299E-02   3.753747349624770E-02   3.800969388802627E-02
   3.848838722444820E-02   3.897162333052839E-02   3.946328142145517E-02
   3.995793741177323E-02   4.046007072549490E-02   4.097060584688000E-02
   4.148480091454126E-02   4.200667649756773E-02   4.253585889922451E-02
   4.307074061141247E-02   4.361235422845150E-02   4.416004652346528E-02
   4.471660878022704E-02   4.527771359858990E-02   4.584819746312924E-02
   4.642516072706204E-02   4.700953203272407E-02   4.760026617979241E-02
   4.819878256399329E-02   4.880553986663327E-02   4.941910551002321E-02
   5.004076866308782E-02   5.066987511671245E-02   5.130786996782377E-02
   5.195330260385228E-02   5.260586674422513E-02   5.326774630702841E-02
   5.393772440326677E-02   5.461725043717286E-02   5.530334148960370E-02
   5.599987912816690E-02   5.670375985661363E-02   5.741704854380086E-02
   5.813933056647469E-02   5.887021545721033E-02   5.961139679516964E-02
   6.036160179878886E-02   6.112024215072509E-02   6.188834443379565E-02
   6.266696387331233E-02   6.345563447147401E-02   6.425416390957761E-02
   6.506155378734191E-02   6.587985869400781E-02   6.670945153197094E-02
   6.754801720719206E-02   6.839716349579306E-02   6.925789199720400E-02
   7.012894603000563E-02   7.101099709750114E-02   7.190433708967336E-02
   7.280915464458093E-02   7.372496934503325E-02   7.465197841044391E-02
   7.559088266132041E-02   7.654160005001165E-02   7.750523476068116E-02
   7.847959451208897E-02   7.946639210368867E-02   8.046655029566718E-02
   8.147837262980817E-02   8.250333284249967E-02   8.354078487820948E-02
   8.459177771605375E-02   8.565582618299006E-02   8.673295267581371E-02
   8.782416660419623E-02   8.892866472284522E-02   9.004777157853694E-02
   9.118032612157057E-02   9.232667064866051E-02   9.348829287409732E-02
   9.466424400439011E-02   9.585476953578465E-02   9.706047262710438E-02
   9.828115691056638E-02   9.951785044351036E-02   1.007691578959888E-01
   1.020373947844073E-01   1.033200981427983E-01   1.046199284577327E-01
   1.059356097634854E-01   1.072685304505497E-01   1.086174157028033E-01
   1.099836914853204E-01   1.113673252744380E-01   1.127678305692132E-01
   1.141866213612357E-01   1.156224831120410E-01   1.170771487829908E-01
   1.185495015223332E-01   1.200405059340977E-01   1.215508548400860E-01
   1.230793951768031E-01   1.246276107321975E-01   1.261948346451724E-01
   1.277825357400356E-01   1.293897548607192E-01   1.310171997969352E-01
   1.326653854488589E-01   1.343338238300413E-01   1.360238523919097E-01
   1.377345184158438E-01   1.394667064140511E-01   1.412212903738719E-01
   1.429970616851077E-01   1.447961178918682E-01   1.466173540159514E-01
   1.484612757902390E-01   1.503284746062106E-01   1.522196155222544E-01
   1.541341293868213E-01   1.560731177928461E-01   1.580358827038595E-01
   1.600235626845874E-01   1.620365924620353E-01   1.640747119322583E-01
   1.661382559323978E-01   1.682279233100836E-01   1.703439466103585E-01
   1.724864870068485E-01   1.746558390090631E-01   1.768527188126268E-01
   1.790773603429059E-01   1.813295277520652E-01   1.836106471991470E-01
   1.859197272232218E-01   1.882584484989545E-01   1.906258906599794E-01
   1.930238488123859E-01   1.954517629174670E-01   1.979096780849032E-01
   2.003992525083549E-01   2.029196082423794E-01   2.054719413036936E-01
   2.080563461045042E-01   2.106731267791699E-01   2.133227955324444E-01
   2.160059450821252E-01   2.187227626395911E-01   2.214737575140446E-01
   2.242592789284290E-01   2.270799578817624E-01   2.299361324619529E-01
   2.328278778902682E-01   2.357564518386221E-01   2.387215529375610E-01
   2.417240483352450E-01   2.447642099765373E-01   2.478428002966679E-01
   2.509598977335690E-01   2.541163274198159E-01   2.573125064021606E-01
   2.605486033223903E-01   2.638256139794359E-01   2.671437475067822E-01
   2.705036008286035E-01   2.739056738492431E-01   2.773506964768928E-01
   2.808387222228257E-01   2.843708988021705E-01   2.879474106228881E-01
   2.915688050306273E-01   2.952359384546059E-01   2.989489781447006E-01
   3.027088384550436E-01   3.065157696874832E-01   3.103707058545049E-01
   3.142739685957543E-01   3.182267111265147E-01   3.222286391027644E-01
   3.262813367048691E-01   3.303845777294949E-01   3.345396164107926E-01
   3.387468560304874E-01   3.430070097836668E-01   3.473207644668137E-01
   3.516885533028389E-01   3.561115525609462E-01   3.605899824582099E-01
   3.651246329832802E-01   3.697164209693362E-01   3.743658410205994E-01
   3.790737044752417E-01   3.838406955531397E-01   3.886677793902029E-01
   3.935554223169682E-01   3.985046449384999E-01   4.035159597544409E-01
   4.085903078532431E-01   4.137282441516339E-01   4.189308659076585E-01
   4.241990006498342E-01   4.295332348522325E-01   4.349345259918680E-01
   4.404036433700216E-01   4.459414961958981E-01   4.515491509021197E-01
   4.572269598854555E-01   4.629763989747668E-01   4.687979137288263E-01
   4.746926602931123E-01   4.806613689880233E-01   4.867051620411105E-01
   4.928248134960578E-01   4.990214205650827E-01   5.052958807587897E-01
   5.116491969287691E-01   5.180821922973231E-01   5.245961021514569E-01
   5.311919399569813E-01   5.378704569042752E-01   5.446330066224636E-01
   5.514804048497961E-01   5.584138989901453E-01   5.654343755620435E-01
   5.725431040809541E-01   5.797411041484501E-01   5.870294520516959E-01
   5.944092797617140E-01   6.018819524786556E-01   6.094483512799993E-01
   6.171097855513628E-01   6.248673390870527E-01   6.327224473774899E-01
   6.406760233575381E-01   6.487294691826202E-01   6.568841121686626E-01
   6.651410555174699E-01   6.735016685788002E-01   6.819671314421418E-01
   6.905389603214003E-01   6.992183311272626E-01   7.080066289626119E-01
   7.169052108869121E-01   7.259154273427253E-01   7.350387048794467E-01
   7.442764295461002E-01   7.536301504660416E-01   7.631011053305201E-01
   7.726909410120104E-01   7.824009862754631E-01   7.922328540539763E-01
   8.021880266959185E-01   8.122680953765391E-01   8.224744551355858E-01
   8.328088838974876E-01   8.432728493475752E-01   8.538679560924400E-01
   8.645959387041602E-01   8.754583447992204E-01   8.864569143903509E-01
   8.975933294765346E-01   9.088692679983597E-01   9.202865143663965E-01
   9.318467992287811E-01   9.435518953847541E-01   9.554036303808262E-01
   9.674037703369525E-01   9.795541857103727E-01   9.918567416497037E-01
   1.004313366939894E+00   1.016925941834262E+00   1.029696346035000E+00
   1.042626590837095E+00   1.055718723346486E+00   1.068974617754513E+00
   1.082396347284126E+00   1.095985979249113E+00   1.109745628628573E+00
   1.123677265476637E+00   1.137783148941930E+00   1.152065374784913E+00
   1.166526144399059E+00   1.181167660264460E+00   1.195992060015159E+00
   1.211001760053481E+00   1.226198902637302E+00   1.241585890520946E+00
   1.257165007107020E+00   1.272938636446559E+00   1.288909174260981E+00
   1.305078999140346E+00   1.321450578417679E+00   1.338026402617803E+00
   1.354808975597646E+00   1.371800863640019E+00   1.389004514147000E+00
   1.406422658886575E+00   1.424057809772730E+00   1.441912685554909E+00
   1.459989972975048E+00   1.478292358348185E+00   1.496822542163009E+00
   1.515583399113396E+00   1.534577686157231E+00   1.553808206141007E+00
   1.573277876158134E+00   1.592989600301886E+00   1.612946281439323E+00
   1.633150938324262E+00   1.653606516198382E+00   1.674316058819503E+00
   1.695282683886608E+00   1.716509452406761E+00   1.737999508759591E+00
   1.759756020005119E+00   1.781782182787241E+00   1.804081241033272E+00
   1.826656490781746E+00   1.849511241408804E+00   1.872648768288943E+00
   1.896072537347171E+00   1.919785944399113E+00   1.943792403611864E+00
   1.968095410283407E+00   1.992698539788973E+00   2.017605323444526E+00
   2.042819331426395E+00   2.068344219092360E+00   2.094183677057259E+00
   2.120341391143757E+00   2.146821107273087E+00   2.173626626945413E+00
   2.200761738738059E+00   2.228230319978653E+00   2.256036293907172E+00
   2.284183511995224E+00   2.312676041155111E+00   2.341517829685085E+00
   2.370712932784564E+00   2.400265467877126E+00   2.430179483467430E+00
   2.460459237492614E+00   2.491108839517587E+00   2.522132556718400E+00
   2.553534652222069E+00   2.585319484114788E+00   2.617491291849138E+00
   2.650054577203303E+00   2.683013693093489E+00   2.716373095299851E+00
   2.750137281036658E+00   2.784310798615451E+00   2.818898184776867E+00
   2.853904067282592E+00   2.889333037543629E+00   2.925189796993493E+00
   2.961479034477197E+00   2.998205484663604E+00   3.035373915278186E+00
   3.072989129713331E+00   3.111055949136443E+00   3.149579250641910E+00
   3.188563908794244E+00   3.228014858273170E+00   3.267937044895046E+00
   3.308335447903708E+00   3.349215074821892E+00   3.390580942190205E+00
   3.432438119478388E+00   3.474791662136255E+00   3.517646696523887E+00
   3.561008353079231E+00   3.604881736886814E+00   3.649272015291281E+00
   3.694184383278856E+00   3.739624018419565E+00   3.785596123442158E+00
   3.832105915050814E+00   3.879158614576092E+00   3.926759445762503E+00
   3.974913681196650E+00   4.023626537583173E+00   4.072903252987590E+00
   4.122749084958137E+00   4.173169250564214E+00   4.224168999295138E+00
   4.275753551858394E+00   4.327928114789749E+00   4.380697871867234E+00
   4.434068020479636E+00   4.488043708047059E+00   4.542630044244447E+00
   4.597832176930204E+00   4.653655127861128E+00   4.710103945651461E+00
   4.767183637491783E+00   4.824899125493133E+00   4.883255335232917E+00
   4.942257072655444E+00   5.001909132355870E+00   5.062216258191881E+00
   5.123183070407912E+00   5.184814156118321E+00   5.247113997368821E+00
   5.310087010897007E+00   5.373737482233977E+00   5.438069654970946E+00
   5.503087614863311E+00   5.568795335393439E+00   5.635196702177815E+00
   5.702295456799611E+00   5.770095164858475E+00   5.838599308061411E+00
   5.907811178042806E+00   5.977733889771216E+00   6.048370413155261E+00
   6.119723520306891E+00   6.191795795743353E+00   6.264589609688265E+00
   6.338107116582336E+00   6.412350261136304E+00   6.487320718394713E+00
   6.563019955507343E+00   6.639449125829778E+00   6.716609137634222E+00
   6.794500599616889E+00   6.873123817681872E+00   6.952478766137979E+00
   7.032565082331047E+00   7.113382063193683E+00   7.194928645218674E+00
   7.277203345455504E+00   7.360204297851261E+00   7.443929220224902E+00
   7.528375375003797E+00   7.613539564811560E+00   7.699418110349086E+00
   7.786006847708272E+00   7.873301056126465E+00   7.961295478448243E+00
   8.049984292388174E+00   8.139361090467759E+00   8.229418814928209E+00
   8.320149775123525E+00   8.411545606744838E+00   8.503597257568842E+00
   8.596294917300611E+00   8.689628024892684E+00   8.783585240088769E+00
   8.878154402592571E+00   8.973322467150297E+00   9.069075541622453E+00
   9.165398775527024E+00   9.262276388837122E+00   9.359691580770658E+00
   9.457626535587536E+00   9.556062365927389E+00   9.654979051977151E+00
   9.754355451990619E+00   9.854169207844819E+00   9.954396730116940E+00
   1.005501313858147E+01   1.015599224213857E+01   1.025730644122292E+01
   1.035892673888242E+01   1.046082265477128E+01   1.056296218532903E+01
   1.066531174661779E+01   1.076783611659414E+01   1.087049841152931E+01
   1.097325997666589E+01   1.107608037188110E+01   1.117891730970928E+01
   1.128172656555134E+01   1.138446196339058E+01   1.148707526475141E+01
   1.158951614849587E+01   1.169173211046554E+01   1.179366842994739E+01
   1.189526808472013E+01   1.199647168333591E+01   1.209721740720488E+01
   1.219744094753027E+01   1.229707540081350E+01   1.239605125198251E+01
   1.249429625756240E+01   1.259173539504765E+01   1.268829078678553E+01
   1.278388165315756E+01   1.287842418625368E+01   1.297183153312585E+01
   1.306401369435626E+01   1.315487746467616E+01   1.324432635508730E+01
   1.333226053937877E+01   1.341857676926588E+01   1.350316830771544E+01
   1.358592489057909E+01   1.366673262614900E+01   1.374547395517463E+01
   1.382202760916287E+01   1.389626851135921E+01   1.396806778035136E+01
   1.403729263068014E+01   1.410380636011431E+01   1.416746831537242E+01
   1.422813383928452E+01   1.428565425307765E+01   1.433987683592079E+01
   1.439064482431931E+01   1.443779737272007E+01   1.448116959220013E+01
   1.452059254307670E+01   1.455589325641733E+01   1.458689478423327E+01
   1.461341620744932E+01   1.463527272910366E+01   1.465227573774769E+01
   1.466423285646817E+01   1.467094809513762E+01   1.467222192375783E+01
   1.466785142522622E+01   1.465763044864696E+01   1.464134976635171E+01
   1.461879729103089E+01   1.458975825219989E+01   1.455401547881971E+01
   1.451134963065232E+01   1.446153950359010E+01   1.440436233227024E+01
   1.433959415330887E+01   1.426701017383513E+01   1.418638516627593E+01
   1.409749393692002E+01   1.400011177224658E+01   1.389401497935728E+01
   1.377898140315168E+01   1.365479103418176E+01   1.352122664071905E+01
   1.337807441587924E+01   1.322512470651728E+01   1.306217275770064E+01
   1.288901951015993E+01   1.270547245081511E+01   1.251134649360930E+01
   1.230646492146576E+01   1.209066035521082E+01   1.186377580382216E+01
   1.162566571082209E+01   1.137619710808531E+01   1.111525075119511E+01
   1.084272236075415E+01   1.055852386078732E+01   1.026258467873367E+01
   9.954853097653569E+00   9.635297623862471E+00   9.303908405738582E+00
   8.960698675628464E+00   8.605706241457227E+00   8.238994977172979E+00
   7.860656356567404E+00   7.470811004278488E+00   7.069610236106740E+00
   6.657237647498789E+00   6.233910672716775E+00   5.799882159991228E+00
   5.355441924718491E+00   4.900918308424679E+00   4.436679702439662E+00
   3.963136059231601E+00   3.480740373471136E+00   2.989990117101868E+00
   2.491428670307783E+00   1.985646676123508E+00   1.473283382739254E+00
   9.550279418518102E-01   4.316206501450921E-01  -9.614580440810983E-02
  -6.274251627311287E-01  -1.161316400006285E+00  -1.696862546164397E+00
  -2.233049500914944E+00  -2.768804780879293E+00  -3.302996250402884E+00
  -3.834430714438739E+00  -4.361852406294773E+00  -4.883941301697817E+00
  -5.399311186793440E+00  -5.906507475128080E+00  -6.404004662310257E+00
  -6.890203365764009E+00  -7.363426894025054E+00  -7.821917206886781E+00
  -8.263830243558331E+00  -8.687230469638479E+00  -9.090084562119941E+00
  -9.470254139878399E+00  -9.825487409586273E+00  -1.015340965001478E+01
  -1.045151241062175E+01  -1.071714134977489E+01  -1.094751260055545E+01
  -1.113983285392451E+01  -1.129124771819353E+01  -1.139882500380897E+01
  -1.145957238330404E+01  -1.147045592371507E+01  -1.142841938562786E+01
  -1.133040432744393E+01  -1.117337094678783E+01  -1.095431973690096E+01
  -1.067031396799527E+01  -1.031850304621730E+01  -9.896146822959192E+00
  -9.400640868794758E+00  -8.829542795005821E+00  -8.180599628183890E+00
  -7.451776221409297E+00  -6.641285039214424E+00  -5.747614061245709E+00
  -4.769583749157640E+00  -3.706131949740444E+00  -2.558751051567034E+00
  -1.308165773800118E+00  -1.412718254670285E-01   1.175887636172984E-02
  -3.170063861477323E-03  -1.448121759618071E-03  -1.378558049733742E-03
  -1.146939011416332E-03  -9.333760213977524E-04  -7.202296296303875E-04
  -5.094618594666067E-04  -3.010885419457208E-04  -9.531500506955828E-05
   1.076737709867259E-04   3.076943827002467E-04   5.045628066411195E-04
   6.980990013396656E-04   8.881227788723206E-04   1.074453309761869E-03
   1.256912279409710E-03   1.435319221696765E-03   1.609495888502366E-03
   1.779261545597701E-03   1.944435285783248E-03   2.104836313001734E-03
   2.260281464493521E-03   2.410587162459738E-03   2.555569098008299E-03
   2.695040097031066E-03   2.828813656861352E-03   2.956700488580130E-03
   3.078512001979504E-03   0.000000000000000E+00   0.000000000000000E+00
   0.000000000000000E+00   0.000000000000000E+00   0.000000000000000E+00
   0.000000000000000E+00   0.000000000000000E+00   0.000000000000000E+00
   0.000000000000000E+00   0.000000000000000E+00   0.000000000000000E+00
   0.000000000000000E+00   0.000000000000000E+00   0.000000000000000E+00
   0.000000000000000E+00   0.000000000000000E+00   0.000000000000000E+00
   0.000000000000000E+00   0.000000000000000E+00   0.000000000000000E+00
   0.000000000000000E+00   0.000000000000000E+00   0.000000000000000E+00
   0.000000000000000E+00   0.000000000000000E+00   0.000000000000000E+00
   0.000000000000000E+00   0.000000000000000E+00   0.000000000000000E+00
   0.000000000000000E+00   0.000000000000000E+00   0.000000000000000E+00
   0.000000000000000E+00   0.000000000000000E+00   0.000000000000000E+00
   0.000000000000000E+00   0.000000000000000E+00   0.000000000000000E+00
   0.000000000000000E+00   0.000000000000000E+00   0.000000000000000E+00
   0.000000000000000E+00   0.000000000000000E+00   0.000000000000000E+00
   0.000000000000000E+00   0.000000000000000E+00   0.000000000000000E+00
   0.000000000000000E+00   0.000000000000000E+00   0.000000000000000E+00
   0.000000000000000E+00   0.000000000000000E+00   0.000000000000000E+00
   0.000000000000000E+00   0.000000000000000E+00   0.000000000000000E+00
   0.000000000000000E+00   0.000000000000000E+00   0.000000000000000E+00
   0.000000000000000E+00   0.000000000000000E+00   0.000000000000000E+00
   0.000000000000000E+00   0.000000000000000E+00   0.000000000000000E+00
   0.000000000000000E+00   0.000000000000000E+00   0.000000000000000E+00
   0.000000000000000E+00   0.000000000000000E+00   0.000000000000000E+00
   0.000000000000000E+00   0.000000000000000E+00   0.000000000000000E+00
   0.000000000000000E+00   0.000000000000000E+00   0.000000000000000E+00
   0.000000000000000E+00   0.000000000000000E+00   0.000000000000000E+00
   0.000000000000000E+00   0.000000000000000E+00   0.000000000000000E+00
   0.000000000000000E+00   0.000000000000000E+00   0.000000000000000E+00
   0.000000000000000E+00   0.000000000000000E+00   0.000000000000000E+00
   0.000000000000000E+00   0.000000000000000E+00   0.000000000000000E+00
   0.000000000000000E+00   0.000000000000000E+00   0.000000000000000E+00
   0.000000000000000E+00   0.000000000000000E+00   0.000000000000000E+00
   0.000000000000000E+00   0.000000000000000E+00   0.000000000000000E+00
   0.000000000000000E+00   0.000000000000000E+00   0.000000000000000E+00
   0.000000000000000E+00   0.000000000000000E+00   0.000000000000000E+00
   0.000000000000000E+00   0.000000000000000E+00   0.000000000000000E+00
   0.000000000000000E+00   0.000000000000000E+00   0.000000000000000E+00
   0.000000000000000E+00   0.000000000000000E+00   0.000000000000000E+00
   0.000000000000000E+00   0.000000000000000E+00   0.000000000000000E+00
   0.000000000000000E+00   0.000000000000000E+00   0.000000000000000E+00
   0.000000000000000E+00   0.000000000000000E+00   0.000000000000000E+00
   0.000000000000000E+00   0.000000000000000E+00   0.000000000000000E+00
   0.000000000000000E+00   0.000000000000000E+00   0.000000000000000E+00
   0.000000000000000E+00   0.000000000000000E+00   0.000000000000000E+00
   0.000000000000000E+00   0.000000000000000E+00   0.000000000000000E+00
   0.000000000000000E+00   0.000000000000000E+00   0.000000000000000E+00
   0.000000000000000E+00   0.000000000000000E+00   0.000000000000000E+00
   0.000000000000000E+00   0.000000000000000E+00   0.000000000000000E+00
   0.000000000000000E+00   0.000000000000000E+00   0.000000000000000E+00
   0.000000000000000E+00   0.000000000000000E+00   0.000000000000000E+00
   0.000000000000000E+00   0.000000000000000E+00   0.000000000000000E+00
   0.000000000000000E+00   0.000000000000000E+00   0.000000000000000E+00
   0.000000000000000E+00   0.000000000000000E+00   0.000000000000000E+00
   0.000000000000000E+00   0.000000000000000E+00   0.000000000000000E+00
   0.000000000000000E+00   0.000000000000000E+00   0.000000000000000E+00
   0.000000000000000E+00   0.000000000000000E+00   0.000000000000000E+00
   0.000000000000000E+00   0.000000000000000E+00   0.000000000000000E+00
   0.000000000000000E+00   0.000000000000000E+00   0.000000000000000E+00
   0.000000000000000E+00   0.000000000000000E+00   0.000000000000000E+00
   0.000000000000000E+00   0.000000000000000E+00   0.000000000000000E+00
   0.000000000000000E+00   0.000000000000000E+00   0.000000000000000E+00
   0.000000000000000E+00   0.000000000000000E+00   0.000000000000000E+00
   0.000000000000000E+00   0.000000000000000E+00   0.000000000000000E+00
   0.000000000000000E+00   0.000000000000000E+00   0.000000000000000E+00
   0.000000000000000E+00   0.000000000000000E+00   0.000000000000000E+00
   0.000000000000000E+00   0.000000000000000E+00   0.000000000000000E+00
   0.000000000000000E+00   0.000000000000000E+00   0.000000000000000E+00
   0.000000000000000E+00   0.000000000000000E+00   0.000000000000000E+00
   0.000000000000000E+00   0.000000000000000E+00   0.000000000000000E+00
   0.000000000000000E+00   0.000000000000000E+00   0.000000000000000E+00
   0.000000000000000E+00   0.000000000000000E+00   0.000000000000000E+00
   0.000000000000000E+00   0.000000000000000E+00   0.000000000000000E+00
   0.000000000000000E+00   0.000000000000000E+00   0.000000000000000E+00
   0.000000000000000E+00   0.000000000000000E+00   0.000000000000000E+00
   0.000000000000000E+00   0.000000000000000E+00   0.000000000000000E+00
   0.000000000000000E+00   0.000000000000000E+00   0.000000000000000E+00
   0.000000000000000E+00   0.000000000000000E+00   0.000000000000000E+00
   0.000000000000000E+00   0.000000000000000E+00   0.000000000000000E+00
   0.000000000000000E+00   0.000000000000000E+00   0.000000000000000E+00
   0.000000000000000E+00   0.000000000000000E+00   0.000000000000000E+00
   0.000000000000000E+00   0.000000000000000E+00   0.000000000000000E+00
   0.000000000000000E+00   0.000000000000000E+00   0.000000000000000E+00
   0.000000000000000E+00   0.000000000000000E+00   0.000000000000000E+00
   0.000000000000000E+00   0.000000000000000E+00   0.000000000000000E+00
   0.000000000000000E+00   0.000000000000000E+00   0.000000000000000E+00
   0.000000000000000E+00   0.000000000000000E+00   0.000000000000000E+00
   0.000000000000000E+00   0.000000000000000E+00   0.000000000000000E+00
   0.000000000000000E+00   0.000000000000000E+00   0.000000000000000E+00
   0.000000000000000E+00   0.000000000000000E+00   0.000000000000000E+00
   0.000000000000000E+00   0.000000000000000E+00   0.000000000000000E+00
   0.000000000000000E+00   0.000000000000000E+00   0.000000000000000E+00
   0.000000000000000E+00   0.000000000000000E+00   0.000000000000000E+00
   0.000000000000000E+00   0.000000000000000E+00   0.000000000000000E+00
   0.000000000000000E+00   0.000000000000000E+00   0.000000000000000E+00
   0.000000000000000E+00   0.000000000000000E+00   0.000000000000000E+00
   0.000000000000000E+00   0.000000000000000E+00   0.000000000000000E+00
   0.000000000000000E+00   0.000000000000000E+00   0.000000000000000E+00
   0.000000000000000E+00   0.000000000000000E+00   0.000000000000000E+00
   0.000000000000000E+00   0.000000000000000E+00   0.000000000000000E+00
   0.000000000000000E+00   0.000000000000000E+00   0.000000000000000E+00
   0.000000000000000E+00   0.000000000000000E+00   0.000000000000000E+00
   0.000000000000000E+00   0.000000000000000E+00   0.000000000000000E+00
   0.000000000000000E+00   0.000000000000000E+00   0.000000000000000E+00
   0.000000000000000E+00   0.000000000000000E+00   0.000000000000000E+00
   0.000000000000000E+00   0.000000000000000E+00   0.000000000000000E+00
   0.000000000000000E+00   0.000000000000000E+00   0.000000000000000E+00
   0.000000000000000E+00   0.000000000000000E+00   0.000000000000000E+00
   0.000000000000000E+00   0.000000000000000E+00
    </PP_BETA.1>
    <PP_BETA.2 index="2" label="2S" angular_momentum="0" cutoff_radius_index="729" cutoff_radius="1.00000000000000" ultrasoft_cutoff_radius="1.20000000000000">
  -1.158985441779051E-02  -1.173563682597813E-02  -1.188325295058881E-02
  -1.203272585691532E-02  -1.218144003729452E-02  -1.233989983731358E-02
  -1.249016765517554E-02  -1.264901794289496E-02  -1.281027187195169E-02
  -1.296788769121682E-02  -1.313222480481979E-02  -1.329884704022499E-02
  -1.346472086078199E-02  -1.363507060840950E-02  -1.380885880769768E-02
  -1.397824813573659E-02  -1.415731173792205E-02  -1.433288560483370E-02
  -1.451697935006949E-02  -1.469535525303094E-02  -1.488224308012293E-02
  -1.506991200540593E-02  -1.525823529323603E-02  -1.544906629688336E-02
  -1.564509793244905E-02  -1.584252613629272E-02  -1.604201533439799E-02
  -1.624304930832243E-02  -1.644645171525974E-02  -1.665500431415239E-02
  -1.686366338999463E-02  -1.707480389997422E-02  -1.728937116704921E-02
  -1.750700252367858E-02  -1.772797810049553E-02  -1.794933861311815E-02
  -1.817690021080563E-02  -1.840253601651569E-02  -1.863793946729145E-02
  -1.887248542901689E-02  -1.910680756787306E-02  -1.934885471950035E-02
  -1.959241793801131E-02  -1.983896702103807E-02  -2.008867767127201E-02
  -2.034168095648842E-02  -2.059562283263844E-02  -2.085471412758047E-02
  -2.112009551175320E-02  -2.138256944714151E-02  -2.165451715250888E-02
  -2.192439709128358E-02  -2.220044226272094E-02  -2.248007100985527E-02
  -2.276229568667990E-02  -2.304867950585382E-02  -2.333964335387459E-02
  -2.363289309458799E-02  -2.393079423236091E-02  -2.423036161852429E-02
  -2.453497900526724E-02  -2.484312042569384E-02  -2.515792156516355E-02
  -2.547126906267225E-02  -2.579320350582096E-02  -2.611852481939289E-02
  -2.644840461672215E-02  -2.677959074226643E-02  -2.711611388950852E-02
  -2.745746717398856E-02  -2.780406925718690E-02  -2.815210041527416E-02
  -2.850687899169310E-02  -2.886382852653480E-02  -2.922773379340576E-02
  -2.959488607799393E-02  -2.996937737106342E-02  -3.034357218396391E-02
  -3.072658849970514E-02  -3.111280907407171E-02  -3.150559186314691E-02
  -3.190050973192843E-02  -3.230131195422420E-02  -3.270795064465140E-02
  -3.312112596569022E-02  -3.353595092492462E-02  -3.395918591543523E-02
  -3.438542738371608E-02  -3.481745600849667E-02  -3.525670465268718E-02
  -3.569860877360814E-02  -3.614902846731707E-02  -3.660307786756342E-02
  -3.706334250541152E-02  -3.752846242211905E-02  -3.800233649341980E-02
  -3.847910457573497E-02  -3.896272290623365E-02  -3.945464352984135E-02
  -3.994970074477450E-02  -4.045248378626159E-02  -4.096135789603994E-02
  -4.147712994302705E-02  -4.199803503135302E-02  -4.252764350079880E-02
  -4.306098892951116E-02  -4.360219815739325E-02  -4.415210347717879E-02
  -4.470643105648925E-02  -4.526882355830419E-02  -4.583896791302039E-02
  -4.641540215805151E-02  -4.699910453175243E-02  -4.758947000651498E-02
  -4.818908358618196E-02  -4.879397493612958E-02  -4.940860666152824E-02
  -5.003032208463493E-02  -5.066002685676302E-02  -5.129671308378952E-02
  -5.194175329831580E-02  -5.259554547113926E-02  -5.325680584042752E-02
  -5.392673845436441E-02  -5.460475811795684E-02  -5.529219082190279E-02
  -5.598773315993477E-02  -5.669112227721507E-02  -5.740437233311413E-02
  -5.812638923179192E-02  -5.885850867011228E-02  -5.959802969046663E-02
  -6.034850297419619E-02  -6.110713120772598E-02  -6.187580620557515E-02
  -6.265415694960341E-02  -6.344187229948151E-02  -6.424049939645637E-02
  -6.504890062989155E-02  -6.586654484886079E-02  -6.669441272971932E-02
  -6.753346774140778E-02  -6.838331449505269E-02  -6.924380476610925E-02
  -7.011401878513968E-02  -7.099588097419851E-02  -7.188975164574490E-02
  -7.279351582252019E-02  -7.370869640793881E-02  -7.463617994335892E-02
  -7.557491014933321E-02  -7.652546032174556E-02  -7.748815336696346E-02
  -7.846316962624089E-02  -7.945011005604630E-02  -8.044915583761336E-02
  -8.146098563074500E-02  -8.248555186847362E-02  -8.352388122449250E-02
  -8.457398890773637E-02  -8.563747120673593E-02  -8.671520311161474E-02
  -8.780564158259274E-02  -8.891019637014874E-02  -9.002824509123797E-02
  -9.116083317455359E-02  -9.230750502987928E-02  -9.346832144867501E-02
  -9.464424330461740E-02  -9.583452819209937E-02  -9.704046141328371E-02
  -9.826098322537746E-02  -9.949642475099829E-02  -1.007482187649192E-01
  -1.020154770982814E-01  -1.032984895203580E-01  -1.045978198543959E-01
  -1.059133233120102E-01  -1.072459837105030E-01  -1.085945302171100E-01
  -1.099611375503083E-01  -1.113435740095921E-01  -1.127443029605962E-01
  -1.141622014578918E-01  -1.155985560483899E-01  -1.170522528457011E-01
  -1.185246199678028E-01  -1.200156635719246E-01  -1.215249802030980E-01
  -1.230538821749685E-01  -1.246013217105508E-01  -1.261688908221092E-01
  -1.277556225458968E-01  -1.293624461960720E-01  -1.309899998843942E-01
  -1.326373061814941E-01  -1.343057302046955E-01  -1.359947188315080E-01
  -1.377056596962319E-01  -1.394376912585371E-01  -1.411915331457710E-01
  -1.429676716631368E-01  -1.447657153137709E-01  -1.465869306390327E-01
  -1.484304751172001E-01  -1.502972293614766E-01  -1.521880096382103E-01
  -1.541017689822146E-01  -1.560404681085992E-01  -1.580031361075012E-01
  -1.599902943108147E-01  -1.620025217153096E-01  -1.640404736487726E-01
  -1.661036870174022E-01  -1.681932014716738E-01  -1.703084500343723E-01
  -1.724504990494804E-01  -1.746198153925707E-01  -1.768162112792908E-01
  -1.790400348803516E-01  -1.812919868014935E-01  -1.835723263756726E-01
  -1.858812561313079E-01  -1.882191069590815E-01  -1.905865795316934E-01
  -1.929839505326256E-01  -1.954110576492532E-01  -1.978692620520404E-01
  -2.003577234943410E-01  -2.028780220096467E-01  -2.054293929148081E-01
  -2.080135210638547E-01  -2.106299681538286E-01  -2.132788385053934E-01
  -2.159616931987702E-01  -2.186778173602664E-01  -2.214283523012410E-01
  -2.242134521971890E-01  -2.270334680075581E-01  -2.298889220023224E-01
  -2.327804413642678E-01  -2.357082492773257E-01  -2.386728899502983E-01
  -2.416747486128292E-01  -2.447144735776203E-01  -2.477924499006496E-01
  -2.509088147116849E-01  -2.540647924420907E-01  -2.572601869189606E-01
  -2.604958587705566E-01  -2.637721411957661E-01  -2.670898033732776E-01
  -2.704489950432114E-01  -2.738505554200716E-01  -2.772949406189886E-01
  -2.807823902719409E-01  -2.843138947778132E-01  -2.878897308829009E-01
  -2.915105274523244E-01  -2.951768280645171E-01  -2.988893894792151E-01
  -3.026483433916778E-01  -3.064548282606936E-01  -3.103091086759653E-01
  -3.142117717038548E-01  -3.181636924433024E-01  -3.221651166011905E-01
  -3.262169812447238E-01  -3.303196037270970E-01  -3.344739370083123E-01
  -3.386803774078229E-01  -3.429400730116017E-01  -3.472528596289095E-01
  -3.516202852105281E-01  -3.560422477857874E-01  -3.605199979469158E-01
  -3.650540113941041E-01  -3.696450432499545E-01  -3.742938385747663E-01
  -3.790008941015612E-01  -3.837674025103088E-01  -3.885936763101889E-01
  -3.934805517829210E-01  -3.984289815689848E-01  -4.034395350757181E-01
  -4.085130769978171E-01  -4.136503465732400E-01  -4.188523517470890E-01
  -4.241196398766225E-01  -4.294532702128762E-01  -4.348538366388923E-01
  -4.403223263106315E-01  -4.458593760198291E-01  -4.514661228577985E-01
  -4.571434512509533E-01  -4.628920361335234E-01  -4.687128856510778E-01
  -4.746068421124994E-01  -4.805748757828208E-01  -4.866181011644342E-01
  -4.927369863756397E-01  -4.989330226626483E-01  -5.052067656743979E-01
  -5.115594194798998E-01  -5.179918005087067E-01  -5.245050910625770E-01
  -5.311001480395934E-01  -5.377781329692022E-01  -5.445400239613267E-01
  -5.513868960682555E-01  -5.583196656389808E-01  -5.653396242808530E-01
  -5.724478640972448E-01  -5.796452419324187E-01  -5.869331633529438E-01
  -5.943125455228331E-01  -6.017847056787802E-01  -6.093506273042060E-01
  -6.170116533288490E-01  -6.247688939244851E-01  -6.326235164215666E-01
  -6.405767439089756E-01  -6.486300076610929E-01  -6.567843060566938E-01
  -6.650410285354118E-01  -6.734013590898256E-01  -6.818668085074577E-01
  -6.904384108939441E-01  -6.991176487064026E-01  -7.079059441019186E-01
  -7.168045072809939E-01  -7.258148046940835E-01  -7.349381240631105E-01
  -7.441760686452819E-01  -7.535299312545947E-01  -7.630011967264378E-01
  -7.725913300488862E-01  -7.823017910938743E-01  -7.921341126236277E-01
  -8.020897949593957E-01  -8.121704850566012E-01  -8.223775556419985E-01
  -8.327127508021732E-01  -8.431775273598907E-01  -8.537736080120961E-01
  -8.645025957244172E-01  -8.753661981375558E-01  -8.863659456034183E-01
  -8.975037222006215E-01  -9.087811323620256E-01  -9.201999054029306E-01
  -9.317618976521125E-01  -9.434687956813654E-01  -9.553224624521341E-01
  -9.673247176585047E-01  -9.794773732008002E-01  -9.917823477801724E-01
  -1.004241511241951E+00  -1.016856776728392E+00  -1.029630112273066E+00
  -1.042563428241693E+00  -1.055658741022896E+00  -1.068918060283477E+00
  -1.082343461397050E+00  -1.095936977271044E+00  -1.109700642473286E+00
  -1.123636620465254E+00  -1.137747107114880E+00  -1.152034145604671E+00
  -1.166499966330799E+00  -1.181146795867104E+00  -1.195976910071868E+00
  -1.210992456868825E+00  -1.226195851596868E+00  -1.241589364284694E+00
  -1.257175367144598E+00  -1.272956236276420E+00  -1.288934294226596E+00
  -1.305112121747289E+00  -1.321492054154218E+00  -1.338076668513393E+00
  -1.354868438699000E+00  -1.371869933557129E+00  -1.389083739868804E+00
  -1.406512429836825E+00  -1.424158665568690E+00  -1.442025131099205E+00
  -1.460114531746573E+00  -1.478429631190918E+00  -1.496973091506581E+00
  -1.515747839333919E+00  -1.534756604958362E+00  -1.554002313604473E+00
  -1.573487865812371E+00  -1.593216167087279E+00  -1.613190141884496E+00
  -1.633412877698499E+00  -1.653887361660789E+00  -1.674616626707143E+00
  -1.695603817400936E+00  -1.716852069909073E+00  -1.738364526534889E+00
  -1.760144440961991E+00  -1.782195004644848E+00  -1.804519504824063E+00
  -1.827121304558251E+00  -1.850003716593566E+00  -1.873170139802365E+00
  -1.896623997790485E+00  -1.920368748059007E+00  -1.944407896866705E+00
  -1.968745004317844E+00  -1.993383649452969E+00  -2.018327385614047E+00
  -2.043579947703940E+00  -2.069145011350436E+00  -2.095026277614668E+00
  -2.121227525820107E+00  -2.147752616648447E+00  -2.174605376044843E+00
  -2.201789673028369E+00  -2.229309459900142E+00  -2.257168729343977E+00
  -2.285371474946118E+00  -2.313921753333954E+00  -2.342823677720693E+00
  -2.372081357094620E+00  -2.401698987966858E+00  -2.431680816679375E+00
  -2.462031029530353E+00  -2.492754018165211E+00  -2.523854072142580E+00
  -2.555335586135762E+00  -2.587203018645400E+00  -2.619460772463853E+00
  -2.652113449516342E+00  -2.685165521934135E+00  -2.718621615143046E+00
  -2.752486356554183E+00  -2.786764468592594E+00  -2.821460572172743E+00
  -2.856579535597614E+00  -2.892126098491861E+00  -2.928105101481464E+00
  -2.964521431014095E+00  -3.001380027578627E+00  -3.038685828334366E+00
  -3.076443860615928E+00  -3.114659127154393E+00  -3.153336737216122E+00
  -3.192481797579102E+00  -3.232099462252719E+00  -3.272194924835031E+00
  -3.312773418021923E+00  -3.353840197604438E+00  -3.395400578918633E+00
  -3.437459880950222E+00  -3.480023485890776E+00  -3.523096793079546E+00
  -3.566685238906000E+00  -3.610794293812774E+00  -3.655429442117676E+00
  -3.700596224416522E+00  -3.746300175214856E+00  -3.792546900245863E+00
  -3.839342016105832E+00  -3.886691122425859E+00  -3.934599881987808E+00
  -3.983073990143453E+00  -4.032119131559863E+00  -4.081741020458221E+00
  -4.131945389910069E+00  -4.182737982417965E+00  -4.234124549126999E+00
  -4.286110890659796E+00  -4.338702762151406E+00  -4.391905943216141E+00
  -4.445726236376164E+00  -4.500169411227702E+00  -4.555241271881076E+00
  -4.610947600642863E+00  -4.667294169779556E+00  -4.724286735291013E+00
  -4.781931068460111E+00  -4.840232898114269E+00  -4.899197921233061E+00
  -4.958831872037351E+00  -5.019140371304864E+00  -5.080129066571338E+00
  -5.141803567807521E+00  -5.204169408985848E+00  -5.267232126899017E+00
  -5.330997149119064E+00  -5.395469892361838E+00  -5.460655725736970E+00
  -5.526559904044412E+00  -5.593187649092357E+00  -5.660544084357909E+00
  -5.728634270016116E+00  -5.797463142425592E+00  -5.867035594995102E+00
  -5.937356371236113E+00  -6.008430106231430E+00  -6.080261347997492E+00
  -6.152854504725390E+00  -6.226213815942231E+00  -6.300343434714947E+00
  -6.375247330452467E+00  -6.450929299570618E+00  -6.527392994091251E+00
  -6.604641872036360E+00  -6.682679205661415E+00  -6.761508055953662E+00
  -6.841131270412582E+00  -6.921551487010611E+00  -7.002771078415314E+00
  -7.084792207161946E+00  -7.167616727153444E+00  -7.251246245491835E+00
  -7.335682071316768E+00  -7.420925210677360E+00  -7.506976339260092E+00
  -7.593835795597720E+00  -7.681503576506252E+00  -7.769979316408275E+00
  -7.859262232453865E+00  -7.949351154824441E+00  -8.040244495644245E+00
  -8.131940210092040E+00  -8.224435791086485E+00  -8.317728246405622E+00
  -8.411814093879464E+00  -8.506689293483696E+00  -8.602349263084918E+00
  -8.698788850297852E+00  -8.796002310795203E+00  -8.893983246625154E+00
  -8.992724619478103E+00  -9.092218709570979E+00  -9.192457101221230E+00
  -9.293430614174888E+00  -9.395129307877134E+00  -9.497542452132848E+00
  -9.600658486012868E+00  -9.704464955683136E+00  -9.808948544829235E+00
  -9.914094969653789E+00  -1.001988900115377E+01  -1.012631437766390E+01
  -1.023335380620810E+01  -1.034098890664183E+01  -1.044920015148865E+01
  -1.055796687112604E+01  -1.066726716301650E+01  -1.077707787325630E+01
  -1.088737453750028E+01  -1.099813135721755E+01  -1.110932110583892E+01
  -1.122091513345971E+01  -1.133288328286622E+01  -1.144519384735491E+01
  -1.155781351315035E+01  -1.167070730063305E+01  -1.178383853707392E+01
  -1.189716875004179E+01  -1.201065764892715E+01  -1.212426306088508E+01
  -1.223794084316526E+01  -1.235164486292796E+01  -1.246532688899437E+01
  -1.257893656668122E+01  -1.269242131855736E+01  -1.280572630721927E+01
  -1.291879434998259E+01  -1.303156584946458E+01  -1.314397873337511E+01
  -1.325596838914539E+01  -1.336746756065241E+01  -1.347840632481035E+01
  -1.358871197734818E+01  -1.369830897781641E+01  -1.380711887255136E+01
  -1.391506024360923E+01  -1.402204858489031E+01  -1.412799627904822E+01
  -1.423281249620537E+01  -1.433640313160700E+01  -1.443867072657771E+01
  -1.453951441078148E+01  -1.463882981726834E+01  -1.473650901325729E+01
  -1.483244045694717E+01  -1.492650889831228E+01  -1.501859533476575E+01
  -1.510857696557562E+01  -1.519632709425078E+01  -1.528171512473746E+01
  -1.536460646403825E+01  -1.544486250410503E+01  -1.552234058474747E+01
  -1.559689393935838E+01  -1.566837167396079E+01  -1.573661874370778E+01
  -1.580147594821442E+01  -1.586277989224210E+01  -1.592036301797029E+01
  -1.597405359635967E+01  -1.602367574548963E+01  -1.606904947572900E+01
  -1.610999069759823E+01  -1.614631130853584E+01  -1.617781925285934E+01
  -1.620431857075143E+01  -1.622560954170552E+01  -1.624148875802324E+01
  -1.625174927177120E+01  -1.625618074396867E+01  -1.625456959853048E+01
  -1.624669923303551E+01  -1.623235019384894E+01  -1.621130045034894E+01
  -1.618332562399647E+01  -1.614819928729850E+01  -1.610569326233868E+01
  -1.605557797701009E+01  -1.599762282838383E+01  -1.593159657268481E+01
  -1.585726778510832E+01  -1.577440530216180E+01  -1.568277875270871E+01
  -1.558215907058144E+01  -1.547231909307754E+01  -1.535303418486097E+01
  -1.522408287831243E+01  -1.508524759232884E+01  -1.493631536840567E+01
  -1.477707865831243E+01  -1.460733616422399E+01  -1.442689370941051E+01
  -1.423556516854890E+01  -1.403317342620167E+01  -1.381955141275660E+01
  -1.359454314084692E+01  -1.335800484254827E+01  -1.310980609374278E+01
  -1.284983103810842E+01  -1.257797961150183E+01  -1.229416882587026E+01
  -1.199833410315179E+01  -1.169043062604923E+01  -1.137043473782640E+01
  -1.103834536471676E+01  -1.069418548586044E+01  -1.033800360281354E+01
  -9.969875249654763E+00  -9.589904519066650E+00  -9.198225577828907E+00
  -8.795004226069025E+00  -8.380439427302150E+00  -7.954764851353815E+00
  -7.518250393732615E+00  -7.071203696231024E+00  -6.613971630797863E+00
  -6.146941765687671E+00  -5.670543797727433E+00  -5.185250934123729E+00
  -4.691581261853329E+00  -4.190099036828187E+00  -3.681415950780078E+00
  -3.166192344993632E+00  -2.645138358671048E+00  -2.119015066258711E+00
  -1.588635538067379E+00  -1.054865896631611E+00  -5.186263406954055E-01
   1.910784566976531E-02   5.573052427996998E-01   1.094877252152514E+00
   1.630676949524172E+00   2.163497865690914E+00   2.692072632147671E+00
   3.215071425956538E+00   3.731100209676640E+00   4.238698663827122E+00
   4.736337763801615E+00   5.222416949115896E+00   5.695260757242195E+00
   6.153114899347713E+00   6.594141639206711E+00   7.016414399079913E+00
   7.417911504450430E+00   7.796508945189530E+00   8.149972078380387E+00
   8.475946154157938E+00   8.771945591324297E+00   9.035367920261699E+00
   9.263598048441004E+00   9.453964140261100E+00   9.603723459808911E+00
   9.710078082480987E+00   9.770191511969063E+00   9.781206102317235E+00
   9.740261314985485E+00   9.644512740581494E+00   9.491151948718475E+00
   9.277427166177290E+00   9.000664822837331E+00   8.658292023894717E+00
   8.247859953356659E+00   7.767068277795758E+00   7.213790549102054E+00
   6.586100585661112E+00   5.882300129871748E+00   5.100944862645160E+00
   4.240896461648960E+00   3.301131235551445E+00   2.282922139439457E+00
   1.168970161106436E+00   1.264804783441615E-01  -1.046652620972691E-02
   2.884484311277840E-03   1.335703283558493E-03   1.265712837239122E-03
   1.050876401172599E-03   8.523660530624198E-04   6.543974701711275E-04
   4.587265517095062E-04   2.653676549583074E-04   7.450470695177618E-05
  -1.136965289699073E-04  -2.990716595404932E-04  -4.814556381049929E-04
  -6.606869105822776E-04  -8.366036676211506E-04  -1.009043381585700E-03
  -1.177845651194077E-03  -1.342847967141224E-03  -1.503889657305537E-03
  -1.660807622136189E-03  -1.813438418429977E-03  -1.961618515601193E-03
  -2.105182045386670E-03  -2.243962568467418E-03  -2.377792786612264E-03
  -2.506502607327588E-03  -2.629922362787509E-03  -2.747879657992925E-03
  -2.860202556487385E-03   0.000000000000000E+00   0.000000000000000E+00
   0.000000000000000E+00   0.000000000000000E+00   0.000000000000000E+00
   0.000000000000000E+00   0.000000000000000E+00   0.000000000000000E+00
   0.000000000000000E+00   0.000000000000000E+00   0.000000000000000E+00
   0.000000000000000E+00   0.000000000000000E+00   0.000000000000000E+00
   0.000000000000000E+00   0.000000000000000E+00   0.000000000000000E+00
   0.000000000000000E+00   0.000000000000000E+00   0.000000000000000E+00
   0.000000000000000E+00   0.000000000000000E+00   0.000000000000000E+00
   0.000000000000000E+00   0.000000000000000E+00   0.000000000000000E+00
   0.000000000000000E+00   0.000000000000000E+00   0.000000000000000E+00
   0.000000000000000E+00   0.000000000000000E+00   0.000000000000000E+00
   0.000000000000000E+00   0.000000000000000E+00   0.000000000000000E+00
   0.000000000000000E+00   0.000000000000000E+00   0.000000000000000E+00
   0.000000000000000E+00   0.000000000000000E+00   0.000000000000000E+00
   0.000000000000000E+00   0.000000000000000E+00   0.000000000000000E+00
   0.000000000000000E+00   0.000000000000000E+00   0.000000000000000E+00
   0.000000000000000E+00   0.000000000000000E+00   0.000000000000000E+00
   0.000000000000000E+00   0.000000000000000E+00   0.000000000000000E+00
   0.000000000000000E+00   0.000000000000000E+00   0.000000000000000E+00
   0.000000000000000E+00   0.000000000000000E+00   0.000000000000000E+00
   0.000000000000000E+00   0.000000000000000E+00   0.000000000000000E+00
   0.000000000000000E+00   0.000000000000000E+00   0.000000000000000E+00
   0.000000000000000E+00   0.000000000000000E+00   0.000000000000000E+00
   0.000000000000000E+00   0.000000000000000E+00   0.000000000000000E+00
   0.000000000000000E+00   0.000000000000000E+00   0.000000000000000E+00
   0.000000000000000E+00   0.000000000000000E+00   0.000000000000000E+00
   0.000000000000000E+00   0.000000000000000E+00   0.000000000000000E+00
   0.000000000000000E+00   0.000000000000000E+00   0.000000000000000E+00
   0.000000000000000E+00   0.000000000000000E+00   0.000000000000000E+00
   0.000000000000000E+00   0.000000000000000E+00   0.000000000000000E+00
   0.000000000000000E+00   0.000000000000000E+00   0.000000000000000E+00
   0.000000000000000E+00   0.000000000000000E+00   0.000000000000000E+00
   0.000000000000000E+00   0.000000000000000E+00   0.000000000000000E+00
   0.000000000000000E+00   0.000000000000000E+00   0.000000000000000E+00
   0.000000000000000E+00   0.000000000000000E+00   0.000000000000000E+00
   0.000000000000000E+00   0.000000000000000E+00   0.000000000000000E+00
   0.000000000000000E+00   0.000000000000000E+00   0.000000000000000E+00
   0.000000000000000E+00   0.000000000000000E+00   0.000000000000000E+00
   0.000000000000000E+00   0.000000000000000E+00   0.000000000000000E+00
   0.000000000000000E+00   0.000000000000000E+00   0.000000000000000E+00
   0.000000000000000E+00   0.000000000000000E+00   0.000000000000000E+00
   0.000000000000000E+00   0.000000000000000E+00   0.000000000000000E+00
   0.000000000000000E+00   0.000000000000000E+00   0.000000000000000E+00
   0.000000000000000E+00   0.000000000000000E+00   0.000000000000000E+00
   0.000000000000000E+00   0.000000000000000E+00   0.000000000000000E+00
   0.000000000000000E+00   0.000000000000000E+00   0.000000000000000E+00
   0.000000000000000E+00   0.000000000000000E+00   0.000000000000000E+00
   0.000000000000000E+00   0.000000000000000E+00   0.000000000000000E+00
   0.000000000000000E+00   0.000000000000000E+00   0.000000000000000E+00
   0.000000000000000E+00   0.000000000000000E+00   0.000000000000000E+00
   0.000000000000000E+00   0.000000000000000E+00   0.000000000000000E+00
   0.000000000000000E+00   0.000000000000000E+00   0.000000000000000E+00
   0.000000000000000E+00   0.000000000000000E+00   0.000000000000000E+00
   0.000000000000000E+00   0.000000000000000E+00   0.000000000000000E+00
   0.000000000000000E+00   0.000000000000000E+00   0.000000000000000E+00
   0.000000000000000E+00   0.000000000000000E+00   0.000000000000000E+00
   0.000000000000000E+00   0.000000000000000E+00   0.000000000000000E+00
   0.000000000000000E+00   0.000000000000000E+00   0.000000000000000E+00
   0.000000000000000E+00   0.000000000000000E+00   0.000000000000000E+00
   0.000000000000000E+00   0.000000000000000E+00   0.000000000000000E+00
   0.000000000000000E+00   0.000000000000000E+00   0.000000000000000E+00
   0.000000000000000E+00   0.000000000000000E+00   0.000000000000000E+00
   0.000000000000000E+00   0.000000000000000E+00   0.000000000000000E+00
   0.000000000000000E+00   0.000000000000000E+00   0.000000000000000E+00
   0.000000000000000E+00   0.000000000000000E+00   0.000000000000000E+00
   0.000000000000000E+00   0.000000000000000E+00   0.000000000000000E+00
   0.000000000000000E+00   0.000000000000000E+00   0.000000000000000E+00
   0.000000000000000E+00   0.000000000000000E+00   0.000000000000000E+00
   0.000000000000000E+00   0.000000000000000E+00   0.000000000000000E+00
   0.000000000000000E+00   0.000000000000000E+00   0.000000000000000E+00
   0.000000000000000E+00   0.000000000000000E+00   0.000000000000000E+00
   0.000000000000000E+00   0.000000000000000E+00   0.000000000000000E+00
   0.000000000000000E+00   0.000000000000000E+00   0.000000000000000E+00
   0.000000000000000E+00   0.000000000000000E+00   0.000000000000000E+00
   0.000000000000000E+00   0.000000000000000E+00   0.000000000000000E+00
   0.000000000000000E+00   0.000000000000000E+00   0.000000000000000E+00
   0.000000000000000E+00   0.000000000000000E+00   0.000000000000000E+00
   0.000000000000000E+00   0.000000000000000E+00   0.000000000000000E+00
   0.000000000000000E+00   0.000000000000000E+00   0.000000000000000E+00
   0.000000000000000E+00   0.000000000000000E+00   0.000000000000000E+00
   0.000000000000000E+00   0.000000000000000E+00   0.000000000000000E+00
   0.000000000000000E+00   0.000000000000000E+00   0.000000000000000E+00
   0.000000000000000E+00   0.000000000000000E+00   0.000000000000000E+00
   0.000000000000000E+00   0.000000000000000E+00   0.000000000000000E+00
   0.000000000000000E+00   0.000000000000000E+00   0.000000000000000E+00
   0.000000000000000E+00   0.000000000000000E+00   0.000000000000000E+00
   0.000000000000000E+00   0.000000000000000E+00   0.000000000000000E+00
   0.000000000000000E+00   0.000000000000000E+00   0.000000000000000E+00
   0.000000000000000E+00   0.000000000000000E+00   0.000000000000000E+00
   0.000000000000000E+00   0.000000000000000E+00   0.000000000000000E+00
   0.000000000000000E+00   0.000000000000000E+00   0.000000000000000E+00
   0.000000000000000E+00   0.000000000000000E+00   0.000000000000000E+00
   0.000000000000000E+00   0.000000000000000E+00   0.000000000000000E+00
   0.000000000000000E+00   0.000000000000000E+00   0.000000000000000E+00
   0.000000000000000E+00   0.000000000000000E+00   0.000000000000000E+00
   0.000000000000000E+00   0.000000000000000E+00   0.000000000000000E+00
   0.000000000000000E+00   0.000000000000000E+00   0.000000000000000E+00
   0.000000000000000E+00   0.000000000000000E+00   0.000000000000000E+00
   0.000000000000000E+00   0.000000000000000E+00   0.000000000000000E+00
   0.000000000000000E+00   0.000000000000000E+00   0.000000000000000E+00
   0.000000000000000E+00   0.000000000000000E+00   0.000000000000000E+00
   0.000000000000000E+00   0.000000000000000E+00   0.000000000000000E+00
   0.000000000000000E+00   0.000000000000000E+00   0.000000000000000E+00
   0.000000000000000E+00   0.000000000000000E+00   0.000000000000000E+00
   0.000000000000000E+00   0.000000000000000E+00   0.000000000000000E+00
   0.000000000000000E+00   0.000000000000000E+00   0.000000000000000E+00
   0.000000000000000E+00   0.000000000000000E+00   0.000000000000000E+00
   0.000000000000000E+00   0.000000000000000E+00   0.000000000000000E+00
   0.000000000000000E+00   0.000000000000000E+00
    </PP_BETA.2>
    <PP_BETA.3 index="3" label="2P" angular_momentum="1" cutoff_radius_index="741" cutoff_radius="0.900000000000000" ultrasoft_cutoff_radius="1.40000000000000">
   4.752002461860143E-05   4.872299961165990E-05   4.995642805358095E-05
   5.122108087667900E-05   5.251774852949097E-05   5.384724147083279E-05
   5.521039067635843E-05   5.660804815794647E-05   5.804108749623291E-05
   5.951040438662578E-05   6.101691719914162E-05   6.256156755241396E-05
   6.414532090223430E-05   6.576916714499037E-05   6.743412123638216E-05
   6.914122382579752E-05   7.089154190675060E-05   7.268616948378462E-05
   7.452622825625710E-05   7.641286831943403E-05   7.834726888333561E-05
   8.033063900977650E-05   8.236421836806183E-05   8.444927800982361E-05
   8.658712116345856E-05   8.877908404868835E-05   9.102653671173313E-05
   9.333088388163149E-05   9.569356584823675E-05   9.811605936243866E-05
   1.005998785591775E-04   1.031465759038178E-04   1.057577431624883E-04
   1.084350123969754E-04   1.111800569848151E-04   1.139945926651948E-04
   1.168803786113413E-04   1.198392185300539E-04   1.228729617890703E-04
   1.259835045729738E-04   1.291727910683596E-04   1.324428146790061E-04
   1.357956192718076E-04   1.392333004542443E-04   1.427580068841970E-04
   1.463719416129146E-04   1.500773634619799E-04   1.538765884351338E-04
   1.577719911658414E-04   1.617660064014963E-04   1.658611305252050E-04
   1.700599231160916E-04   1.743650085490990E-04   1.787790776352923E-04
   1.833048893036858E-04   1.879452723256409E-04   1.927031270829212E-04
   1.975814273805021E-04   2.025832223052802E-04   2.077116381318184E-04
   2.129698802763452E-04   2.183612353002240E-04   2.238890729641310E-04
   2.295568483342307E-04   2.353681039416753E-04   2.413264719967828E-04
   2.474356766592285E-04   2.536995363657526E-04   2.601219662167580E-04
   2.667069804233356E-04   2.734586948162461E-04   2.803813294183890E-04
   2.874792110824174E-04   2.947567761951170E-04   3.022185734502308E-04
   3.098692666914996E-04   3.177136378276473E-04   3.257565898211771E-04
   3.340031497528276E-04   3.424584719635823E-04   3.511278412762411E-04
   3.600166762985323E-04   3.691305328098428E-04   3.784751072336869E-04
   3.880562401980580E-04   3.978799201859399E-04   4.079522872782026E-04
   4.182796369912572E-04   4.288684242118555E-04   4.397252672314941E-04
   4.508569518829539E-04   4.618018626710903E-04   4.734248445107270E-04
   4.855945118677277E-04   4.977108944601832E-04   5.104915610223242E-04
   5.234089040885084E-04   5.365694043542157E-04   5.501921442423660E-04
   5.642487006826645E-04   5.783459743233955E-04   5.931699419475141E-04
   6.080257581659552E-04   6.236157316115171E-04   6.392638349918493E-04
   6.554804954105042E-04   6.720777303749152E-04   6.891552753205635E-04
   7.065577787404680E-04   7.245073952546997E-04   7.429076385071145E-04
   7.617541842950739E-04   7.809029293537051E-04   8.008634032781042E-04
   8.207781092846034E-04   8.419404007563962E-04   8.631571742924102E-04
   8.850408607988039E-04   9.074690507610249E-04   9.304741302084557E-04
   9.539094848684641E-04   9.781046395369065E-04   1.002890590473458E-03
   1.028316197866409E-03   1.054370648633268E-03   1.081021436008099E-03
   1.108561188170629E-03   1.136371475360574E-03   1.165354541276042E-03
   1.194794385255448E-03   1.224989100011148E-03   1.256218567081985E-03
   1.287784435137843E-03   1.320514016704983E-03   1.354053498155931E-03
   1.388228471146925E-03   1.423326130611198E-03   1.459427016461557E-03
   1.496378995481409E-03   1.534187849807446E-03   1.573151131290862E-03
   1.612906514167518E-03   1.653865037388361E-03   1.695699731186232E-03
   1.738684828682023E-03   1.782625777766507E-03   1.827789974779483E-03
   1.874092837919922E-03   1.921570701643956E-03   1.970278025628512E-03
   2.020099592559832E-03   2.071207101103950E-03   2.123787803054764E-03
   2.177527137340957E-03   2.232557591190031E-03   2.289190998555894E-03
   2.347023931992681E-03   2.406521740441876E-03   2.467458459060295E-03
   2.529941945581822E-03   2.593992493901409E-03   2.659694287055418E-03
   2.726918979913923E-03   2.796080072405657E-03   2.866838200263566E-03
   2.939525841766044E-03   3.013843868998133E-03   3.090148081137632E-03
   3.168461122876137E-03   3.248541921397702E-03   3.330978139851157E-03
   3.415249005919982E-03   3.501539385991376E-03   3.590401519113023E-03
   3.681255380396542E-03   3.774514000477014E-03   3.869946687204612E-03
   3.967989404332892E-03   4.068465410589223E-03   4.171585933332222E-03
   4.277061587234524E-03   4.385469517664178E-03   4.496405625333433E-03
   4.610256666418913E-03   4.726984075424392E-03   4.846573795391620E-03
   4.969347024841364E-03   5.095127069555505E-03   5.224036511309718E-03
   5.356323558111512E-03   5.492064846225858E-03   5.631033544114150E-03
   5.773615013789826E-03   5.919684473012679E-03   6.069634696994050E-03
   6.223330425778481E-03   6.380817638701158E-03   6.542414527352242E-03
   6.707960294377480E-03   6.877881879119363E-03   7.051987566985052E-03
   7.230631694654543E-03   7.413498228764970E-03   7.601295051711032E-03
   7.793549920853321E-03   7.991078136866475E-03   8.193237469154097E-03
   8.400667592995459E-03   8.613414812383452E-03   8.831495144511398E-03
   9.055029742468496E-03   9.284196484841523E-03   9.519320993704228E-03
   9.760275570346283E-03   1.000736758070572E-02   1.026078447115811E-02
   1.052056906320581E-02   1.078677964628816E-02   1.105983616978623E-02
   1.133986267298401E-02   1.162694900297070E-02   1.192128746746116E-02
   1.222305012049688E-02   1.253246120249080E-02   1.284969197076780E-02
   1.317503580249890E-02   1.350861765673711E-02   1.385052889662441E-02
   1.420119199940129E-02   1.456070466824511E-02   1.492922791613827E-02
   1.530726270787963E-02   1.569467211454606E-02   1.609208914526233E-02
   1.649940260986049E-02   1.691722033426368E-02   1.734520565800529E-02
   1.778451916154417E-02   1.823476104487148E-02   1.869630834975622E-02
   1.916959609700303E-02   1.965482303989263E-02   2.015247249192426E-02
   2.066261561206695E-02   2.118557003441229E-02   2.172199057739482E-02
   2.227171247017118E-02   2.283550769999526E-02   2.341367127197630E-02
   2.400630146940064E-02   2.461405752090778E-02   2.523708745075637E-02
   2.587589301320081E-02   2.653107728575843E-02   2.720261659595768E-02
   2.789110279681095E-02   2.859729199713901E-02   2.932115467523200E-02
   3.006335718278219E-02   3.082436479663053E-02   3.160474917756118E-02
   3.240469562270265E-02   3.322488857575656E-02   3.406603951330067E-02
   3.492832308205318E-02   3.581259221545763E-02   3.671882889908573E-02
   3.764844712343918E-02   3.860137780642259E-02   3.957851256722078E-02
   4.058040664281426E-02   4.160754741119876E-02   4.266069316189292E-02
   4.374065023327345E-02   4.484786052190626E-02   4.598298817411950E-02
   4.714697110086497E-02   4.834051039923082E-02   4.956401280619871E-02
   5.081864509437461E-02   5.210498104747541E-02   5.342377209354798E-02
   5.477605810335429E-02   5.616267255601048E-02   5.758408476719667E-02
   5.904173942687341E-02   6.053615697465253E-02   6.206839458780378E-02
   6.363949708540373E-02   6.525029704539809E-02   6.690176030693396E-02
   6.859519083783416E-02   7.033140261822046E-02   7.211158090561054E-02
   7.393678767329148E-02   7.580802846722445E-02   7.772679344727518E-02
   7.969399605022121E-02   8.171128161037355E-02   8.377933700900364E-02
   8.589964924603266E-02   8.807379368611956E-02   9.030297757605021E-02
   9.258856082551836E-02   9.493183839007635E-02   9.733441404430265E-02
   9.979807751010905E-02   1.023237161783923E-01   1.049134684340007E-01
   1.075686550138557E-01   1.102910322614328E-01   1.130823136997403E-01
   1.159441651491231E-01   1.188786134613049E-01   1.218871037772109E-01
   1.249717312932423E-01   1.281344080556108E-01   1.313770914494450E-01
   1.347019075477354E-01   1.381106644460250E-01   1.416057893720155E-01
   1.451895114888346E-01   1.488634146154388E-01   1.526307020080671E-01
   1.564930639572388E-01   1.604531641044988E-01   1.645134650426585E-01
   1.686763434710192E-01   1.729446573476339E-01   1.773209313274582E-01
   1.818078479058398E-01   1.864082189194742E-01   1.911250754940861E-01
   1.959611568145041E-01   2.009193047072877E-01   2.060032346806624E-01
   2.112156034609542E-01   2.165595136115819E-01   2.220389419510784E-01
   2.276566862111888E-01   2.334167399526175E-01   2.393222050538535E-01
   2.453769607452019E-01   2.515857335584117E-01   2.579445690338460E-01
   2.644897183191901E-01   2.711480150761751E-01   2.780349701450291E-01
   2.850658096464862E-01   2.922677404977563E-01   2.996597945574484E-01
   3.072489388983701E-01   3.150219455885264E-01   3.229699093543399E-01
   3.311735574544556E-01   3.395148584249519E-01   3.481369140604853E-01
   3.569099167464609E-01   3.659561674240530E-01   3.752099439627274E-01
   3.846977581290361E-01   3.944172132897048E-01   4.044173478579474E-01
   4.146186688408662E-01   4.251135616809201E-01   4.358739589321132E-01
   4.468755341507311E-01   4.581951123065870E-01   4.697635442587895E-01
   4.816595692635008E-01   4.938249134571286E-01   5.063192585363172E-01
   5.191162722141307E-01   5.322387642141599E-01   5.457018987530518E-01
   5.594850060605250E-01   5.736415324391562E-01   5.881348169895979E-01
   6.030083920841349E-01   6.182399019055627E-01   6.338754023776740E-01
   6.498968067144215E-01   6.663138233592658E-01   6.831620523542483E-01
   7.004248767791061E-01   7.181222006148396E-01   7.362727160228459E-01
   7.548784897357308E-01   7.739447756376769E-01   7.935024569429991E-01
   8.135548884372348E-01   8.341020979246672E-01   8.551765439999990E-01
   8.767789897834710E-01   8.989243039553294E-01   9.216337126574317E-01
   9.449047898925009E-01   9.687742787518374E-01   9.932353777351821E-01
   1.018318524780788E+00   1.044035773937033E+00   1.070378904204937E+00
   1.097446982078889E+00   1.125088675176222E+00   1.153539271278856E+00
   1.182631795182139E+00   1.212503878825910E+00   1.243078260546195E+00
   1.274469841107145E+00   1.306614940321083E+00   1.339597210112583E+00
   1.373394095513323E+00   1.408035748544627E+00   1.443560440327435E+00
   1.479959921788538E+00   1.517287070976497E+00   1.555578516598175E+00
   1.594761605137904E+00   1.635011168719508E+00   1.676213865268998E+00
   1.718450884456736E+00   1.761800362777599E+00   1.806197669665522E+00
   1.851684494973867E+00   1.898362043321612E+00   1.946204817921469E+00
   1.995207421336559E+00   2.045480089529747E+00   2.096970570391171E+00
   2.149811544204496E+00   2.203918888810186E+00   2.259390662336642E+00
   2.316292858057821E+00   2.374570349538629E+00   2.434318886550734E+00
   2.495578563589113E+00   2.558349396518217E+00   2.622698816861543E+00
   2.688656364030685E+00   2.756254846545289E+00   2.825551404806312E+00
   2.896575546061349E+00   2.969347006884277E+00   3.043967166087768E+00
   3.120443658059010E+00   3.198799441634975E+00   3.279127227340666E+00
   3.361458856214128E+00   3.445823213201507E+00   3.532311712005153E+00
   3.620912062911643E+00   3.711754286657680E+00   3.804828502888043E+00
   3.900223517694357E+00   3.997987591497662E+00   4.098171861775228E+00
   4.200836778026897E+00   4.306056455324423E+00   4.413876783047527E+00
   4.524353602319778E+00   4.637594591692419E+00   4.753596106232962E+00
   4.872497766291190E+00   4.994315615581442E+00   5.119141668058489E+00
   5.247051586150150E+00   5.378113187673137E+00   5.512398629491912E+00
   5.649984879958112E+00   5.790969631350322E+00   5.935398474398681E+00
   6.083390070726963E+00   6.235005425575551E+00   6.390333590265172E+00
   6.549471863429517E+00   6.712503045272541E+00   6.879519929672455E+00
   7.050615053362975E+00   7.225885314543689E+00   7.405433968451007E+00
   7.589349533713545E+00   7.777742065896234E+00   7.970714109211229E+00
   8.168375210191698E+00   8.370821359751432E+00   8.578180835492702E+00
   8.790555146048007E+00   9.008057824613530E+00   9.230819617670079E+00
   9.458944872837861E+00   9.692563782595556E+00   9.931805090542497E+00
   1.017678680297558E+01   1.042764330004161E+01   1.068450728339968E+01
   1.094751347264048E+01   1.121679693933066E+01   1.149249753933972E+01
   1.177476318743388E+01   1.206372926712899E+01   1.235955145391389E+01
   1.266237563844351E+01   1.297236026982733E+01   1.328964906872801E+01
   1.361441183531855E+01   1.394680856707032E+01   1.428699255486595E+01
   1.463513946074596E+01   1.499141723409599E+01   1.535599485228164E+01
   1.572904211125660E+01   1.611074823471529E+01   1.650127544259703E+01
   1.690082263789259E+01   1.730956058820811E+01   1.772768547476568E+01
   1.815538100349767E+01   1.859284020255393E+01   1.904025902722350E+01
   1.949783005295558E+01   1.996575807679216E+01   2.044423558696309E+01
   2.093347344124402E+01   2.143367166142093E+01   2.194503587562195E+01
   2.246777825581228E+01   2.300211019679813E+01   2.354823391224352E+01
   2.410637458614912E+01   2.467673835554149E+01   2.525954215899122E+01
   2.585500271277709E+01   2.646333843345951E+01   2.708476350152364E+01
   2.771949548729367E+01   2.836775639710163E+01   2.902975695137150E+01
   2.970572086700349E+01   3.039585664710239E+01   3.110038659470342E+01
   3.181951667423823E+01   3.255346710997014E+01   3.330243792415649E+01
   3.406664387514661E+01   3.484628402257988E+01   3.564156014347850E+01
   3.645266983206193E+01   3.727980336428107E+01   3.812315034507776E+01
   3.898288876458366E+01   3.985919801399791E+01   4.075224474175991E+01
   4.166219054144437E+01   4.258918903478957E+01   4.353338595102559E+01
   4.449491419370929E+01   4.547389979601803E+01   4.647045553554858E+01
   4.748468294895531E+01   4.851667043555437E+01   4.956649085820266E+01
   5.063420444618407E+01   5.171985447968837E+01   5.282346443025426E+01
   5.394504386234780E+01   5.508457725303265E+01   5.624203345700607E+01
   5.741735554879619E+01   5.861046242576094E+01   5.982125061534930E+01
   6.104958760197701E+01   6.229531158224086E+01   6.355823533123771E+01
   6.483813286371128E+01   6.613475188072607E+01   6.744779814454432E+01
   6.877694532477926E+01   7.012182426172240E+01   7.148202568327997E+01
   7.285709686818518E+01   7.424653829427984E+01   7.564980376356039E+01
   7.706629501620432E+01   7.849536227878298E+01   7.993629944519489E+01
   8.138834298981351E+01   8.285066846193604E+01   8.432238707357783E+01
   8.580254705370430E+01   8.729012347325533E+01   8.878402273966117E+01
   9.028307513491268E+01   9.178603306534978E+01   9.329156929705732E+01
   9.479826992759126E+01   9.630463766781963E+01   9.780908202090222E+01
   9.930992007394707E+01   1.008053731100715E+02   1.022935616221607E+02
   1.037725037608498E+02   1.052401108794384E+02   1.066941866367190E+02
   1.081324210321061E+02   1.095523897431751E+02   1.109515497965067E+02
   1.123272382823936E+02   1.136766674473936E+02   1.149969251702055E+02
   1.162849699429048E+02   1.175376292140973E+02   1.187516004571758E+02
   1.199234446137079E+02   1.210495892036083E+02   1.221263242810987E+02
   1.231498043267620E+02   1.241160450396301E+02   1.250209274284657E+02
   1.258601947651291E+02   1.266294562745793E+02   1.273241887500490E+02
   1.279397381371982E+02   1.284713236175398E+02   1.289140420041003E+02
   1.292628716733893E+02   1.295126790978147E+02   1.296582255553863E+02
   1.296941747310734E+02   1.296151019534973E+02   1.294155043589967E+02
   1.290898119874500E+02   1.286324014847366E+02   1.280376087902282E+02
   1.272997473295868E+02   1.264131227024823E+02   1.253720539784392E+02
   1.241708938511624E+02   1.228040508801189E+02   1.212660154267089E+02
   1.195513851211858E+02   1.176548955933786E+02   1.155714493345677E+02
   1.132961509836318E+02   1.108243426322497E+02   1.081516414349976E+02
   1.052739804224423E+02   1.021876521869974E+02   9.888935359074253E+01
   9.537623416716769E+01   9.164594681760923E+01   8.769670063423303E+01
   8.352731637007571E+01   7.913728436080135E+01   7.452682407129453E+01
   6.969694667663435E+01   6.464951877693920E+01   5.938732756253941E+01
   5.391414920458467E+01   4.823481499022204E+01   4.235528283191299E+01
   3.628270423251541E+01   3.002549515460618E+01   2.359340384106929E+01
   1.699757778695664E+01   1.025062994749078E+01   3.366700941242243E+00
  -3.638482612271901E+00  -1.074755199415586E+01  -1.794144944441541E+01
  -2.519938406012420E+01  -3.249879899304779E+01  -3.981534589809871E+01
  -4.712287075080781E+01  -5.439341255382215E+01  -6.159721552716337E+01
  -6.870275791014183E+01  -7.567679743187273E+01  -8.248443959929909E+01
  -8.908922427842617E+01  -9.545324131112648E+01  -1.015372691808307E+02
  -1.073009469326744E+02  -1.127029756378602E+02  -1.177013576951508E+02
  -1.222536721468482E+02  -1.263173921990792E+02  -1.298502474112815E+02
  -1.328106318378877E+02  -1.351580636622784E+02  -1.368536985111664E+02
  -1.378608984604502E+02  -1.381458611596381E+02  -1.376783116919378E+02
  -1.364322595470630E+02  -1.343868231540550E+02  -1.315262522661687E+02
  -1.278370496704151E+02  -1.233102604810847E+02  -1.179427283485002E+02
  -1.117374170926796E+02  -1.047037895428471E+02  -9.685825100298234E+01
  -8.822465288751664E+01  -7.883485809423428E+01  -6.872936281221655E+01
  -5.795797249586258E+01  -4.658052573455916E+01  -3.466766082189224E+01
  -2.230161769547612E+01  -9.577068097799611E+00   3.398036146778395E+00
   1.650160274672930E+01   2.959654147269430E+01   4.252991587992915E+01
   5.513212068838948E+01   6.721609527869339E+01   7.857659007637619E+01
   8.898950084093883E+01   9.821128923026049E+01   1.059785080215423E+02
   1.120074531928150E+02   1.159939648372599E+02   1.176134018380864E+02
   1.165208160026273E+02   1.123513627672986E+02   1.047208972591814E+02
   9.322756697551898E+01   7.744688085991135E+01   5.699366038432893E+01
   3.093810802475058E+01   3.500966581521739E+00  -3.338700592747055E-01
   4.549235174126463E-02   7.061509450943172E-03   1.007201795266680E-02
   8.993625490223169E-03   8.340658487959096E-03   7.665548873728705E-03
   7.012823579458525E-03   6.378120922999421E-03   5.761870664834979E-03
   5.164024722987232E-03   4.584560889657290E-03   4.023407124240558E-03
   3.480532334510258E-03   2.955751155768727E-03   2.448968089692367E-03
   1.960072351860253E-03   1.488872631751913E-03   1.035193152185893E-03
   5.988425150708042E-04   1.796247958781062E-04  -2.227151446626899E-04
  -6.083657291460556E-04  -9.775697147348036E-04  -1.330625968033856E-03
  -1.667704360244580E-03  -1.989122184819333E-03  -2.295129584958793E-03
  -2.585981151455499E-03   0.000000000000000E+00   0.000000000000000E+00
   0.000000000000000E+00   0.000000000000000E+00   0.000000000000000E+00
   0.000000000000000E+00   0.000000000000000E+00   0.000000000000000E+00
   0.000000000000000E+00   0.000000000000000E+00   0.000000000000000E+00
   0.000000000000000E+00   0.000000000000000E+00   0.000000000000000E+00
   0.000000000000000E+00   0.000000000000000E+00   0.000000000000000E+00
   0.000000000000000E+00   0.000000000000000E+00   0.000000000000000E+00
   0.000000000000000E+00   0.000000000000000E+00   0.000000000000000E+00
   0.000000000000000E+00   0.000000000000000E+00   0.000000000000000E+00
   0.000000000000000E+00   0.000000000000000E+00   0.000000000000000E+00
   0.000000000000000E+00   0.000000000000000E+00   0.000000000000000E+00
   0.000000000000000E+00   0.000000000000000E+00   0.000000000000000E+00
   0.000000000000000E+00   0.000000000000000E+00   0.000000000000000E+00
   0.000000000000000E+00   0.000000000000000E+00   0.000000000000000E+00
   0.000000000000000E+00   0.000000000000000E+00   0.000000000000000E+00
   0.000000000000000E+00   0.000000000000000E+00   0.000000000000000E+00
   0.000000000000000E+00   0.000000000000000E+00   0.000000000000000E+00
   0.000000000000000E+00   0.000000000000000E+00   0.000000000000000E+00
   0.000000000000000E+00   0.000000000000000E+00   0.000000000000000E+00
   0.000000000000000E+00   0.000000000000000E+00   0.000000000000000E+00
   0.000000000000000E+00   0.000000000000000E+00   0.000000000000000E+00
   0.000000000000000E+00   0.000000000000000E+00   0.000000000000000E+00
   0.000000000000000E+00   0.000000000000000E+00   0.000000000000000E+00
   0.000000000000000E+00   0.000000000000000E+00   0.000000000000000E+00
   0.000000000000000E+00   0.000000000000000E+00   0.000000000000000E+00
   0.000000000000000E+00   0.000000000000000E+00   0.000000000000000E+00
   0.000000000000000E+00   0.000000000000000E+00   0.000000000000000E+00
   0.000000000000000E+00   0.000000000000000E+00   0.000000000000000E+00
   0.000000000000000E+00   0.000000000000000E+00   0.000000000000000E+00
   0.000000000000000E+00   0.000000000000000E+00   0.000000000000000E+00
   0.000000000000000E+00   0.000000000000000E+00   0.000000000000000E+00
   0.000000000000000E+00   0.000000000000000E+00   0.000000000000000E+00
   0.000000000000000E+00   0.000000000000000E+00   0.000000000000000E+00
   0.000000000000000E+00   0.000000000000000E+00   0.000000000000000E+00
   0.000000000000000E+00   0.000000000000000E+00   0.000000000000000E+00
   0.000000000000000E+00   0.000000000000000E+00   0.000000000000000E+00
   0.000000000000000E+00   0.000000000000000E+00   0.000000000000000E+00
   0.000000000000000E+00   0.000000000000000E+00   0.000000000000000E+00
   0.000000000000000E+00   0.000000000000000E+00   0.000000000000000E+00
   0.000000000000000E+00   0.000000000000000E+00   0.000000000000000E+00
   0.000000000000000E+00   0.000000000000000E+00   0.000000000000000E+00
   0.000000000000000E+00   0.000000000000000E+00   0.000000000000000E+00
   0.000000000000000E+00   0.000000000000000E+00   0.000000000000000E+00
   0.000000000000000E+00   0.000000000000000E+00   0.000000000000000E+00
   0.000000000000000E+00   0.000000000000000E+00   0.000000000000000E+00
   0.000000000000000E+00   0.000000000000000E+00   0.000000000000000E+00
   0.000000000000000E+00   0.000000000000000E+00   0.000000000000000E+00
   0.000000000000000E+00   0.000000000000000E+00   0.000000000000000E+00
   0.000000000000000E+00   0.000000000000000E+00   0.000000000000000E+00
   0.000000000000000E+00   0.000000000000000E+00   0.000000000000000E+00
   0.000000000000000E+00   0.000000000000000E+00   0.000000000000000E+00
   0.000000000000000E+00   0.000000000000000E+00   0.000000000000000E+00
   0.000000000000000E+00   0.000000000000000E+00   0.000000000000000E+00
   0.000000000000000E+00   0.000000000000000E+00   0.000000000000000E+00
   0.000000000000000E+00   0.000000000000000E+00   0.000000000000000E+00
   0.000000000000000E+00   0.000000000000000E+00   0.000000000000000E+00
   0.000000000000000E+00   0.000000000000000E+00   0.000000000000000E+00
   0.000000000000000E+00   0.000000000000000E+00   0.000000000000000E+00
   0.000000000000000E+00   0.000000000000000E+00   0.000000000000000E+00
   0.000000000000000E+00   0.000000000000000E+00   0.000000000000000E+00
   0.000000000000000E+00   0.000000000000000E+00   0.000000000000000E+00
   0.000000000000000E+00   0.000000000000000E+00   0.000000000000000E+00
   0.000000000000000E+00   0.000000000000000E+00   0.000000000000000E+00
   0.000000000000000E+00   0.000000000000000E+00   0.000000000000000E+00
   0.000000000000000E+00   0.000000000000000E+00   0.000000000000000E+00
   0.000000000000000E+00   0.000000000000000E+00   0.000000000000000E+00
   0.000000000000000E+00   0.000000000000000E+00   0.000000000000000E+00
   0.000000000000000E+00   0.000000000000000E+00   0.000000000000000E+00
   0.000000000000000E+00   0.000000000000000E+00   0.000000000000000E+00
   0.000000000000000E+00   0.000000000000000E+00   0.000000000000000E+00
   0.000000000000000E+00   0.000000000000000E+00   0.000000000000000E+00
   0.000000000000000E+00   0.000000000000000E+00   0.000000000000000E+00
   0.000000000000000E+00   0.000000000000000E+00   0.000000000000000E+00
   0.000000000000000E+00   0.000000000000000E+00   0.000000000000000E+00
   0.000000000000000E+00   0.000000000000000E+00   0.000000000000000E+00
   0.000000000000000E+00   0.000000000000000E+00   0.000000000000000E+00
   0.000000000000000E+00   0.000000000000000E+00   0.000000000000000E+00
   0.000000000000000E+00   0.000000000000000E+00   0.000000000000000E+00
   0.000000000000000E+00   0.000000000000000E+00   0.000000000000000E+00
   0.000000000000000E+00   0.000000000000000E+00   0.000000000000000E+00
   0.000000000000000E+00   0.000000000000000E+00   0.000000000000000E+00
   0.000000000000000E+00   0.000000000000000E+00   0.000000000000000E+00
   0.000000000000000E+00   0.000000000000000E+00   0.000000000000000E+00
   0.000000000000000E+00   0.000000000000000E+00   0.000000000000000E+00
   0.000000000000000E+00   0.000000000000000E+00   0.000000000000000E+00
   0.000000000000000E+00   0.000000000000000E+00   0.000000000000000E+00
   0.000000000000000E+00   0.000000000000000E+00   0.000000000000000E+00
   0.000000000000000E+00   0.000000000000000E+00   0.000000000000000E+00
   0.000000000000000E+00   0.000000000000000E+00   0.000000000000000E+00
   0.000000000000000E+00   0.000000000000000E+00   0.000000000000000E+00
   0.000000000000000E+00   0.000000000000000E+00   0.000000000000000E+00
   0.000000000000000E+00   0.000000000000000E+00   0.000000000000000E+00
   0.000000000000000E+00   0.000000000000000E+00   0.000000000000000E+00
   0.000000000000000E+00   0.000000000000000E+00   0.000000000000000E+00
   0.000000000000000E+00   0.000000000000000E+00   0.000000000000000E+00
   0.000000000000000E+00   0.000000000000000E+00   0.000000000000000E+00
   0.000000000000000E+00   0.000000000000000E+00   0.000000000000000E+00
   0.000000000000000E+00   0.000000000000000E+00   0.000000000000000E+00
   0.000000000000000E+00   0.000000000000000E+00   0.000000000000000E+00
   0.000000000000000E+00   0.000000000000000E+00   0.000000000000000E+00
   0.000000000000000E+00   0.000000000000000E+00   0.000000000000000E+00
   0.000000000000000E+00   0.000000000000000E+00   0.000000000000000E+00
   0.000000000000000E+00   0.000000000000000E+00   0.000000000000000E+00
   0.000000000000000E+00   0.000000000000000E+00   0.000000000000000E+00
   0.000000000000000E+00   0.000000000000000E+00
    </PP_BETA.3>
    <PP_BETA.4 index="4" label="2P" angular_momentum="1" cutoff_radius_index="741" cutoff_radius="0.900000000000000" ultrasoft_cutoff_radius="1.40000000000000">
  -6.209652130308640E-05  -6.366850201466488E-05  -6.528027759668503E-05
  -6.693285546053771E-05  -6.862726852032634E-05  -7.036457583847028E-05
  -7.214586328764994E-05  -7.397224422951102E-05  -7.584486021054888E-05
  -7.776488167560982E-05  -7.973350869945497E-05  -8.175197173684108E-05
  -8.382153239159498E-05  -8.594348420515080E-05  -8.811915346505447E-05
  -9.034990003393170E-05  -9.263711819944287E-05  -9.498223754575495E-05
  -9.738672384707308E-05  -9.985207998379313E-05  -1.023798468818469E-04
  -1.049716044758280E-04  -1.076289726964896E-04  -1.103536124832600E-04
  -1.131472268223696E-04  -1.160115618112712E-04  -1.189484077499994E-04
  -1.219596002601606E-04  -1.250470214322497E-04  -1.282126010020129E-04
  -1.314583175565836E-04  -1.347861997711575E-04  -1.381983276769767E-04
  -1.416968339613993E-04  -1.452839053008989E-04  -1.489617837277931E-04
  -1.527327680315763E-04  -1.565992151957331E-04  -1.605635418709100E-04
  -1.646282258853972E-04  -1.687958077938338E-04  -1.730688924651272E-04
  -1.774501507105669E-04  -1.819423209531513E-04  -1.865482109391818E-04
  -1.912706994931751E-04  -1.961127383172073E-04  -2.010773538358049E-04
  -2.061676490875434E-04  -2.113868056645247E-04  -2.167380857009561E-04
  -2.222248339120731E-04  -2.278504796846652E-04  -2.336185392205342E-04
  -2.395326177342186E-04  -2.455964117063260E-04  -2.518137111939441E-04
  -2.581884021995032E-04  -2.647244690996454E-04  -2.714259971355422E-04
  -2.782971749662683E-04  -2.853422972868228E-04  -2.925657675124172E-04
  -2.999721005307087E-04  -3.075659255237072E-04  -3.153519888611407E-04
  -3.233351570670158E-04  -3.315204198613350E-04  -3.399128932787664E-04
  -3.485178228662834E-04  -3.573405869617529E-04  -3.663867000555055E-04
  -3.756618162370122E-04  -3.851717327288144E-04  -3.949223935099068E-04
  -4.049198930308438E-04  -4.151704800228993E-04  -4.256805614036401E-04
  -4.364567062813945E-04  -4.475056500610527E-04  -4.588342986538273E-04
  -4.704497327935875E-04  -4.823592124624260E-04  -4.945701814283096E-04
  -5.070902718975340E-04  -5.199273092850020E-04  -5.330893171052384E-04
  -5.465845219872079E-04  -5.604213588161003E-04  -5.746084760052672E-04
  -5.891547409015950E-04  -6.034575141924022E-04  -6.186482862246684E-04
  -6.345454242590448E-04  -6.503846671005314E-04  -6.670800319954571E-04
  -6.839602043030666E-04  -7.011608424769850E-04  -7.189617708826257E-04
  -7.373258420005635E-04  -7.557542359939388E-04  -7.751193954772598E-04
  -7.945380433656331E-04  -8.149039896602692E-04  -8.353570787068103E-04
  -8.565473800113688E-04  -8.782361888194472E-04  -9.005501599737495E-04
  -9.232929763562416E-04  -9.467467142784125E-04  -9.707894899324762E-04
  -9.954160810901648E-04  -1.020443523875324E-03  -1.046520886323676E-03
  -1.072556843431830E-03  -1.100197938678011E-03  -1.127926460583472E-03
  -1.156522150435536E-03  -1.185829843387942E-03  -1.215890652991027E-03
  -1.246519291148340E-03  -1.278134958090493E-03  -1.310523259362019E-03
  -1.343747613252403E-03  -1.377793458271180E-03  -1.412621178674103E-03
  -1.448603011262081E-03  -1.484952786161210E-03  -1.522819653901334E-03
  -1.561292400484474E-03  -1.600751380279503E-03  -1.641553310362573E-03
  -1.682809997725666E-03  -1.725575584007301E-03  -1.769399553881383E-03
  -1.814061356372493E-03  -1.859927186382913E-03  -1.907099659726894E-03
  -1.955387054915707E-03  -2.004796185277317E-03  -2.055707510235850E-03
  -2.107660442167557E-03  -2.161178690106368E-03  -2.215847671435518E-03
  -2.272016575297790E-03  -2.329438913134300E-03  -2.388456462971859E-03
  -2.448961426297531E-03  -2.511002410272661E-03  -2.574648636989037E-03
  -2.639754961249977E-03  -2.706540951041066E-03  -2.775245703586539E-03
  -2.845470762821350E-03  -2.917384890249439E-03  -2.991386750624700E-03
  -3.066963969488114E-03  -3.144710065677930E-03  -3.224338809228906E-03
  -3.305988314077093E-03  -3.389686180966328E-03  -3.475541107815006E-03
  -3.563390221605664E-03  -3.653762792262885E-03  -3.746226172941208E-03
  -3.841207323040094E-03  -3.938325408781543E-03  -4.038035415816724E-03
  -4.140368558983587E-03  -4.245017791221981E-03  -4.352735114806910E-03
  -4.462857576811446E-03  -4.575622878959948E-03  -4.691736482111963E-03
  -4.810460166135080E-03  -4.932323874098726E-03  -5.057034469692773E-03
  -5.185148884907703E-03  -5.316445301427331E-03  -5.451192936915913E-03
  -5.589027684816977E-03  -5.730684747267775E-03  -5.875652812002072E-03
  -6.024427177487746E-03  -6.176959043339106E-03  -6.333235623232875E-03
  -6.493666295630696E-03  -6.658029334076943E-03  -6.826484539893013E-03
  -6.999348281093110E-03  -7.176723321842132E-03  -7.358322237419584E-03
  -7.544638802878090E-03  -7.735518198338676E-03  -7.931461255030192E-03
  -8.132301785835461E-03  -8.338099344931044E-03  -8.549263024005715E-03
  -8.765592482572554E-03  -8.987632481634034E-03  -9.215145264374253E-03
  -9.448583194256205E-03  -9.687549184133226E-03  -9.932948258448870E-03
  -1.018418162827309E-02  -1.044229338081581E-02  -1.070646866706815E-02
  -1.097752625136342E-02  -1.125553035440274E-02  -1.154050400815129E-02
  -1.183260847113610E-02  -1.213207296849692E-02  -1.243931735347084E-02
  -1.275418505749612E-02  -1.307707025716565E-02  -1.340821935024900E-02
  -1.374769006458237E-02  -1.409556317692312E-02  -1.445237925645465E-02
  -1.481830017569974E-02  -1.519344866076511E-02  -1.557807359264712E-02
  -1.597240084053397E-02  -1.637672311805971E-02  -1.679126302323836E-02
  -1.721640289640752E-02  -1.765230707453841E-02  -1.809909940134224E-02
  -1.855732545935973E-02  -1.902711572228566E-02  -1.950868438978798E-02
  -2.000267553583995E-02  -2.050892327856851E-02  -2.102824243401458E-02
  -2.156049804558674E-02  -2.210647455610315E-02  -2.266575063406528E-02
  -2.323981313922430E-02  -2.382816322273690E-02  -2.443128850515142E-02
  -2.504975481991273E-02  -2.568382333580632E-02  -2.633412031821269E-02
  -2.700074664845520E-02  -2.768411758576861E-02  -2.838507770802667E-02
  -2.910342838227120E-02  -2.984016403229139E-02  -3.059567241508421E-02
  -3.137009006767255E-02  -3.216426962488794E-02  -3.297841167293758E-02
  -3.381316813645929E-02  -3.466932055583094E-02  -3.554685212935882E-02
  -3.644653108631679E-02  -3.736933359414674E-02  -3.831523768534972E-02
  -3.928510687344111E-02  -4.027954845554083E-02  -4.129930683441496E-02
  -4.234463409198086E-02  -4.341641839875576E-02  -4.451558278633949E-02
  -4.564236724808413E-02  -4.679787591952389E-02  -4.798210429779226E-02
  -4.919687151231089E-02  -5.044210943454464E-02  -5.171897264062486E-02
  -5.302818947178478E-02  -5.437040057033848E-02  -5.574659318438191E-02
  -5.715781629629113E-02  -5.860465469655485E-02  -6.008797770494256E-02
  -6.160900268143665E-02  -6.316864665973387E-02  -6.476745339801604E-02
  -6.640693293071709E-02  -6.808784271229462E-02  -6.981116622660588E-02
  -7.157825500580328E-02  -7.339019884178266E-02  -7.524762387555683E-02
  -7.715239979241417E-02  -7.910521908981427E-02  -8.110745952963683E-02
  -8.316048348274152E-02  -8.526538346180423E-02  -8.742342366773781E-02
  -8.963629803428885E-02  -9.190507869525910E-02  -9.423131162090836E-02
  -9.661638516837523E-02  -9.906161882684295E-02  -1.015689482505091E-01
  -1.041395771665115E-01  -1.067756412450502E-01  -1.094780573076766E-01
  -1.122487623695525E-01  -1.150898057404359E-01  -1.180027702648605E-01
  -1.209894347326772E-01  -1.240514949200366E-01  -1.271910421155331E-01
  -1.304104051574484E-01  -1.337107655353003E-01  -1.370948987489400E-01
  -1.405645403031306E-01  -1.441219822173219E-01  -1.477694628461164E-01
  -1.515091618121658E-01  -1.553437193875880E-01  -1.592750367462314E-01
  -1.633058451102740E-01  -1.674386425831158E-01  -1.716759877860436E-01
  -1.760206557235673E-01  -1.804750176458962E-01  -1.850422354057462E-01
  -1.897252199566140E-01  -1.945260632769958E-01  -1.994489199626939E-01
  -2.044960215583020E-01  -2.096708393454527E-01  -2.149765920741578E-01
  -2.204163905374941E-01  -2.259939602411993E-01  -2.317126052598200E-01
  -2.375758316916254E-01  -2.435873139957740E-01  -2.497510072389737E-01
  -2.560704973239689E-01  -2.625495043671684E-01  -2.691928610358909E-01
  -2.760040573026554E-01  -2.829871519337424E-01  -2.901473192213659E-01
  -2.974882369246012E-01  -3.050151050965058E-01  -3.127319948562919E-01
  -3.206439681408915E-01  -3.287571685205561E-01  -3.370666885432785E-01
  -3.456188223782668E-01  -3.543205630099067E-01  -3.633190660251335E-01
  -3.725065908477667E-01  -3.819179385930669E-01  -3.915774241021213E-01
  -4.014941347411041E-01  -4.116513408479143E-01  -4.220379190649997E-01
  -4.327567442967002E-01  -4.436578061742953E-01  -4.549233473629162E-01
  -4.663884418624864E-01  -4.782088020288047E-01  -4.903010907944054E-01
  -5.026991754360655E-01  -5.154002314268595E-01  -5.284668636435832E-01
  -5.417981304003625E-01  -5.555118034021547E-01  -5.695723992454216E-01
  -5.839491895946338E-01  -5.987401479949952E-01  -6.138575545472005E-01
  -6.294018360297020E-01  -6.452990704498536E-01  -6.616255030200477E-01
  -6.783478470136828E-01  -6.954954422911737E-01  -7.130878182176090E-01
  -7.310990012249263E-01  -7.495972574824261E-01  -7.685362635159176E-01
  -7.879717012038689E-01  -8.078754462087083E-01  -8.283064334110719E-01
  -8.492419666104318E-01  -8.706947378203580E-01  -8.927104136598416E-01
  -9.152681835252174E-01  -9.383937479678863E-01  -9.621112691788589E-01
  -9.864237635520858E-01  -1.011338299164201E+00  -1.036894580179876E+00
  -1.063097293773403E+00  -1.089946899979385E+00  -1.117485121450812E+00
  -1.145713387685344E+00  -1.174651060999970E+00  -1.204325634918099E+00
  -1.234734492107705E+00  -1.265924862939272E+00  -1.297888618135470E+00
  -1.330664993991022E+00  -1.364269844617155E+00  -1.398693287357666E+00
  -1.434061853442827E+00  -1.470183679894657E+00  -1.507358589879324E+00
  -1.545374823082760E+00  -1.584408058444346E+00  -1.624360649975340E+00
  -1.665379412256478E+00  -1.707384003458877E+00  -1.750481499517896E+00
  -1.794643917877728E+00  -1.839910344645624E+00  -1.886330175714996E+00
  -1.933893632020578E+00  -1.982668834449719E+00  -2.032703096091957E+00
  -2.083904791789649E+00  -2.136497231849205E+00  -2.190336959203265E+00
  -2.245528217063658E+00  -2.302171262250262E+00  -2.360184767835342E+00
  -2.419622704871180E+00  -2.480614770730924E+00  -2.543129529563920E+00
  -2.607161060950318E+00  -2.672850695174574E+00  -2.740132897792421E+00
  -2.809177660878703E+00  -2.879878946679298E+00  -2.952362705606291E+00
  -3.026714014053915E+00  -3.102863891202055E+00  -3.180935394201924E+00
  -3.260980752286230E+00  -3.343001224226100E+00  -3.427083916703836E+00
  -3.513267724515401E+00  -3.601595741149481E+00  -3.692142031028084E+00
  -3.784945580724113E+00  -3.880032916429414E+00  -3.977534533275531E+00
  -4.077461636222353E+00  -4.179845011904092E+00  -4.284804183774185E+00
  -4.392381292937728E+00  -4.502614767503573E+00  -4.615622594878246E+00
  -4.731390881048227E+00  -4.850086857359969E+00  -4.971699733132695E+00
  -5.096344402375180E+00  -5.224084148888593E+00  -5.354985984302346E+00
  -5.489128816613317E+00  -5.626608995400645E+00  -5.767486968329862E+00
  -5.911835923952111E+00  -6.059795053808500E+00  -6.211361922163860E+00
  -6.366716480674185E+00  -6.525881441318916E+00  -6.688976263762328E+00
  -6.856099662987276E+00  -7.027340377265318E+00  -7.202792789202505E+00
  -7.382557391932750E+00  -7.566761147650908E+00  -7.755464769684949E+00
  -7.948821991643797E+00  -8.146913265259485E+00  -8.349854769495181E+00
  -8.557773248760384E+00  -8.770777071919866E+00  -8.988987340230437E+00
  -9.212524958432368E+00  -9.441516392256801E+00  -9.676096281957740E+00
  -9.916380579435184E+00  -1.016251272651616E+01  -1.041462662333342E+01
  -1.067286521911771E+01  -1.093735422539757E+01  -1.120826053326672E+01
  -1.148571704716167E+01  -1.176987202330511E+01  -1.206089571458449E+01
  -1.235892483997148E+01  -1.266412909360457E+01  -1.297667637571573E+01
  -1.329672103407091E+01  -1.362443828762224E+01  -1.396000132820632E+01
  -1.430358596642640E+01  -1.465536855526744E+01  -1.501553159686557E+01
  -1.538426794076770E+01  -1.576175454672909E+01  -1.614819428970816E+01
  -1.654377766653568E+01  -1.694871121892857E+01  -1.736318283541459E+01
  -1.778741366121614E+01  -1.822161243974926E+01  -1.866597945760748E+01
  -1.912074353762858E+01  -1.958612376608522E+01  -2.006234059913322E+01
  -2.054961561068455E+01  -2.104819516787541E+01  -2.155829132514373E+01
  -2.208016289871313E+01  -2.261403295512417E+01  -2.316015695816083E+01
  -2.371877455906224E+01  -2.429013731823812E+01  -2.487450058122408E+01
  -2.547211542866063E+01  -2.608324854970311E+01  -2.670815099472964E+01
  -2.734709724164350E+01  -2.800034799326954E+01  -2.866817112502781E+01
  -2.935084285180835E+01  -3.004863841568499E+01  -3.076182138121192E+01
  -3.149068454847850E+01  -3.223549646610024E+01  -3.299653942107670E+01
  -3.377409538919392E+01  -3.456844848058392E+01  -3.537987737361505E+01
  -3.620866501037813E+01  -3.705509991309168E+01  -3.791945617209012E+01
  -3.880202433276338E+01  -3.970307547469872E+01  -4.062289813815062E+01
  -4.156175993828924E+01  -4.251994649792584E+01  -4.349771757724432E+01
  -4.449535151152770E+01  -4.551310647341404E+01  -4.655124387475666E+01
  -4.761001958686916E+01  -4.868967990331441E+01  -4.979047000532512E+01
  -5.091261998681318E+01  -5.205636141390050E+01  -5.322190928553675E+01
  -5.440947179828072E+01  -5.561924660734962E+01  -5.685142089129977E+01
  -5.810616504799555E+01  -5.938364024438670E+01  -6.068399024840573E+01
  -6.200734396683652E+01  -6.335381298712059E+01  -6.472348849547802E+01
  -6.611644491890843E+01  -6.753273440301587E+01  -6.897238312429909E+01
  -7.043539875319652E+01  -7.192175618498186E+01  -7.343140952918361E+01
  -7.496427913957973E+01  -7.652025359315826E+01  -7.809919194331928E+01
  -7.970091516448815E+01  -8.132520578743811E+01  -8.297181275370508E+01
  -8.464043438286626E+01  -8.633073414336263E+01  -8.804232070455760E+01
  -8.977476039491421E+01  -9.152756347102218E+01  -9.330018750023737E+01
  -9.509203303997106E+01  -9.690243929709254E+01  -9.873068420516483E+01
  -1.005759774950216E+02  -1.024374613065343E+02  -1.043142039735169E+02
  -1.062051985569253E+02  -1.081093582941303E+02  -1.100255121731627E+02
  -1.119524065644935E+02  -1.138886921833996E+02  -1.158329297214318E+02
  -1.177835802564541E+02  -1.197390029393637E+02  -1.216974526518188E+02
  -1.236570709805446E+02  -1.256158902955690E+02  -1.275718211701810E+02
  -1.295226533009363E+02  -1.314660511102870E+02  -1.333995473216410E+02
  -1.353205409046204E+02  -1.372262913317400E+02  -1.391139173654869E+02
  -1.409803894029651E+02  -1.428225285743474E+02  -1.446370011788222E+02
  -1.464203170043875E+02  -1.481688230468062E+02  -1.498787040858001E+02
  -1.515459762809824E+02  -1.531664850590973E+02  -1.547359064762504E+02
  -1.562497388978436E+02  -1.577033069893128E+02  -1.590917566219305E+02
  -1.604100573492287E+02  -1.616529984128533E+02  -1.628151940587636E+02
  -1.638910797897174E+02  -1.648749172178036E+02  -1.657607962991651E+02
  -1.665426375581415E+02  -1.672141975216446E+02  -1.677690745792679E+02
  -1.682007142904681E+02  -1.685024180306091E+02  -1.686673519026763E+02
  -1.686885568222492E+02  -1.685589607215275E+02  -1.682713919786956E+02
  -1.678185940761559E+02  -1.671932436197712E+02  -1.663879671184745E+02
  -1.653953648157330E+02  -1.642080301121296E+02  -1.628185774515159E+02
  -1.612196688032868E+02  -1.594040428617759E+02  -1.573645489959199E+02
  -1.550941806620071E+02  -1.525861155686189E+02  -1.498337535182093E+02
  -1.468307624831386E+02  -1.435711247527715E+02  -1.400491860725629E+02
  -1.362597089076917E+02  -1.321979294058581E+02  -1.278596157131017E+02
  -1.232411310201426E+02  -1.183394995732124E+02  -1.131524754173993E+02
  -1.076786145256214E+02  -1.019173500757365E+02  -9.586906978850595E+01
  -8.953519713283310E+01  -8.291827395898008E+01  -7.602204494685708E+01
  -6.885154612818266E+01  -6.141319047844552E+01  -5.371486028114727E+01
  -4.576599362637728E+01  -3.757767576682039E+01  -2.916272647771234E+01
  -2.053578618541428E+01  -1.171340096002837E+01  -2.714102221854091E+00
   6.441518691607143E+00   1.573073904212151E+01   2.512864513376690E+01
   3.460807666072424E+01   4.413958575832748E+01   5.369140563429119E+01
   6.322943404441412E+01   7.271723358129475E+01   8.211604955784242E+01
   9.138484949065787E+01   1.004803842896722E+02   1.093572789930809E+02
   1.179681473209721E+02   1.262637437334683E+02   1.341931453916109E+02
   1.417039770237211E+02   1.487426739815614E+02   1.552547940457366E+02
   1.611853756596502E+02   1.664793504572026E+02   1.710820132145827E+02
   1.749395508281441E+02   1.779996373472268E+02   1.802120978024495E+02
   1.815296433451822E+02   1.819086832749081E+02   1.813102172175668E+02
   1.797008104051802E+02   1.770536550833267E+02   1.733485968184477E+02
   1.685684226958756E+02   1.627018129063226E+02   1.557449580996818E+02
   1.477019712627825E+02   1.385853730789709E+02   1.284166601308134E+02
   1.172269501532196E+02   1.050577061825147E+02   9.196153268336502E+01
   7.800304058064921E+01   6.325977301687089E+01   4.782318501961481E+01
   3.179966753814324E+01   1.531160653903407E+01  -1.501535914358101E+00
  -1.848212645993476E+01  -3.545327044070245E+01  -5.221773532060229E+01
  -6.855690866845066E+01  -8.422980422657849E+01  -9.897213760912530E+01
  -1.124954909309328E+02  -1.244865899351537E+02  -1.346067171858205E+02
  -1.424912897465556E+02  -1.477496294588793E+02  -1.499649576706866E+02
  -1.486946472236864E+02  -1.434707790658541E+02  -1.338009377901541E+02
  -1.191702840608557E+02  -9.903527985981640E+01  -7.290300507580807E+01
  -3.958392367423866E+01  -4.480147649493741E+00   4.273660559568384E-01
  -5.812460343334594E-02  -8.955211434832234E-03  -1.281861689678184E-02
  -1.144876123404454E-02  -1.062275320192112E-02  -9.767855027313669E-03
  -8.941071829109764E-03  -8.136845055096861E-03  -7.355746987211356E-03
  -6.597737981928642E-03  -5.862810468100547E-03  -5.150892707985247E-03
  -4.461964273406224E-03  -3.795807418696378E-03  -3.152318135571062E-03
  -2.531371921108722E-03  -1.932741144285134E-03  -1.356217140996936E-03
  -8.015705022135708E-04  -2.685653924195848E-04   2.431101834408540E-04
   7.336839576507076E-04   1.203453519229937E-03   1.652788594118760E-03
   2.081895254765521E-03   2.491167885431488E-03   2.880916054605363E-03
   3.251455450107105E-03   0.000000000000000E+00   0.000000000000000E+00
   0.000000000000000E+00   0.000000000000000E+00   0.000000000000000E+00
   0.000000000000000E+00   0.000000000000000E+00   0.000000000000000E+00
   0.000000000000000E+00   0.000000000000000E+00   0.000000000000000E+00
   0.000000000000000E+00   0.000000000000000E+00   0.000000000000000E+00
   0.000000000000000E+00   0.000000000000000E+00   0.000000000000000E+00
   0.000000000000000E+00   0.000000000000000E+00   0.000000000000000E+00
   0.000000000000000E+00   0.000000000000000E+00   0.000000000000000E+00
   0.000000000000000E+00   0.000000000000000E+00   0.000000000000000E+00
   0.000000000000000E+00   0.000000000000000E+00   0.000000000000000E+00
   0.000000000000000E+00   0.000000000000000E+00   0.000000000000000E+00
   0.000000000000000E+00   0.000000000000000E+00   0.000000000000000E+00
   0.000000000000000E+00   0.000000000000000E+00   0.000000000000000E+00
   0.000000000000000E+00   0.000000000000000E+00   0.000000000000000E+00
   0.000000000000000E+00   0.000000000000000E+00   0.000000000000000E+00
   0.000000000000000E+00   0.000000000000000E+00   0.000000000000000E+00
   0.000000000000000E+00   0.000000000000000E+00   0.000000000000000E+00
   0.000000000000000E+00   0.000000000000000E+00   0.000000000000000E+00
   0.000000000000000E+00   0.000000000000000E+00   0.000000000000000E+00
   0.000000000000000E+00   0.000000000000000E+00   0.000000000000000E+00
   0.000000000000000E+00   0.000000000000000E+00   0.000000000000000E+00
   0.000000000000000E+00   0.000000000000000E+00   0.000000000000000E+00
   0.000000000000000E+00   0.000000000000000E+00   0.000000000000000E+00
   0.000000000000000E+00   0.000000000000000E+00   0.000000000000000E+00
   0.000000000000000E+00   0.000000000000000E+00   0.000000000000000E+00
   0.000000000000000E+00   0.000000000000000E+00   0.000000000000000E+00
   0.000000000000000E+00   0.000000000000000E+00   0.000000000000000E+00
   0.000000000000000E+00   0.000000000000000E+00   0.000000000000000E+00
   0.000000000000000E+00   0.000000000000000E+00   0.000000000000000E+00
   0.000000000000000E+00   0.000000000000000E+00   0.000000000000000E+00
   0.000000000000000E+00   0.000000000000000E+00   0.000000000000000E+00
   0.000000000000000E+00   0.000000000000000E+00   0.000000000000000E+00
   0.000000000000000E+00   0.000000000000000E+00   0.000000000000000E+00
   0.000000000000000E+00   0.000000000000000E+00   0.000000000000000E+00
   0.000000000000000E+00   0.000000000000000E+00   0.000000000000000E+00
   0.000000000000000E+00   0.000000000000000E+00   0.000000000000000E+00
   0.000000000000000E+00   0.000000000000000E+00   0.000000000000000E+00
   0.000000000000000E+00   0.000000000000000E+00   0.000000000000000E+00
   0.000000000000000E+00   0.000000000000000E+00   0.000000000000000E+00
   0.000000000000000E+00   0.000000000000000E+00   0.000000000000000E+00
   0.000000000000000E+00   0.000000000000000E+00   0.000000000000000E+00
   0.000000000000000E+00   0.000000000000000E+00   0.000000000000000E+00
   0.000000000000000E+00   0.000000000000000E+00   0.000000000000000E+00
   0.000000000000000E+00   0.000000000000000E+00   0.000000000000000E+00
   0.000000000000000E+00   0.000000000000000E+00   0.000000000000000E+00
   0.000000000000000E+00   0.000000000000000E+00   0.000000000000000E+00
   0.000000000000000E+00   0.000000000000000E+00   0.000000000000000E+00
   0.000000000000000E+00   0.000000000000000E+00   0.000000000000000E+00
   0.000000000000000E+00   0.000000000000000E+00   0.000000000000000E+00
   0.000000000000000E+00   0.000000000000000E+00   0.000000000000000E+00
   0.000000000000000E+00   0.000000000000000E+00   0.000000000000000E+00
   0.000000000000000E+00   0.000000000000000E+00   0.000000000000000E+00
   0.000000000000000E+00   0.000000000000000E+00   0.000000000000000E+00
   0.000000000000000E+00   0.000000000000000E+00   0.000000000000000E+00
   0.000000000000000E+00   0.000000000000000E+00   0.000000000000000E+00
   0.000000000000000E+00   0.000000000000000E+00   0.000000000000000E+00
   0.000000000000000E+00   0.000000000000000E+00   0.000000000000000E+00
   0.000000000000000E+00   0.000000000000000E+00   0.000000000000000E+00
   0.000000000000000E+00   0.000000000000000E+00   0.000000000000000E+00
   0.000000000000000E+00   0.000000000000000E+00   0.000000000000000E+00
   0.000000000000000E+00   0.000000000000000E+00   0.000000000000000E+00
   0.000000000000000E+00   0.000000000000000E+00   0.000000000000000E+00
   0.000000000000000E+00   0.000000000000000E+00   0.000000000000000E+00
   0.000000000000000E+00   0.000000000000000E+00   0.000000000000000E+00
   0.000000000000000E+00   0.000000000000000E+00   0.000000000000000E+00
   0.000000000000000E+00   0.000000000000000E+00   0.000000000000000E+00
   0.000000000000000E+00   0.000000000000000E+00   0.000000000000000E+00
   0.000000000000000E+00   0.000000000000000E+00   0.000000000000000E+00
   0.000000000000000E+00   0.000000000000000E+00   0.000000000000000E+00
   0.000000000000000E+00   0.000000000000000E+00   0.000000000000000E+00
   0.000000000000000E+00   0.000000000000000E+00   0.000000000000000E+00
   0.000000000000000E+00   0.000000000000000E+00   0.000000000000000E+00
   0.000000000000000E+00   0.000000000000000E+00   0.000000000000000E+00
   0.000000000000000E+00   0.000000000000000E+00   0.000000000000000E+00
   0.000000000000000E+00   0.000000000000000E+00   0.000000000000000E+00
   0.000000000000000E+00   0.000000000000000E+00   0.000000000000000E+00
   0.000000000000000E+00   0.000000000000000E+00   0.000000000000000E+00
   0.000000000000000E+00   0.000000000000000E+00   0.000000000000000E+00
   0.000000000000000E+00   0.000000000000000E+00   0.000000000000000E+00
   0.000000000000000E+00   0.000000000000000E+00   0.000000000000000E+00
   0.000000000000000E+00   0.000000000000000E+00   0.000000000000000E+00
   0.000000000000000E+00   0.000000000000000E+00   0.000000000000000E+00
   0.000000000000000E+00   0.000000000000000E+00   0.000000000000000E+00
   0.000000000000000E+00   0.000000000000000E+00   0.000000000000000E+00
   0.000000000000000E+00   0.000000000000000E+00   0.000000000000000E+00
   0.000000000000000E+00   0.000000000000000E+00   0.000000000000000E+00
   0.000000000000000E+00   0.000000000000000E+00   0.000000000000000E+00
   0.000000000000000E+00   0.000000000000000E+00   0.000000000000000E+00
   0.000000000000000E+00   0.000000000000000E+00   0.000000000000000E+00
   0.000000000000000E+00   0.000000000000000E+00   0.000000000000000E+00
   0.000000000000000E+00   0.000000000000000E+00   0.000000000000000E+00
   0.000000000000000E+00   0.000000000000000E+00   0.000000000000000E+00
   0.000000000000000E+00   0.000000000000000E+00   0.000000000000000E+00
   0.000000000000000E+00   0.000000000000000E+00   0.000000000000000E+00
   0.000000000000000E+00   0.000000000000000E+00   0.000000000000000E+00
   0.000000000000000E+00   0.000000000000000E+00   0.000000000000000E+00
   0.000000000000000E+00   0.000000000000000E+00   0.000000000000000E+00
   0.000000000000000E+00   0.000000000000000E+00   0.000000000000000E+00
   0.000000000000000E+00   0.000000000000000E+00   0.000000000000000E+00
   0.000000000000000E+00   0.000000000000000E+00   0.000000000000000E+00
   0.000000000000000E+00   0.000000000000000E+00   0.000000000000000E+00
   0.000000000000000E+00   0.000000000000000E+00   0.000000000000000E+00
   0.000000000000000E+00   0.000000000000000E+00   0.000000000000000E+00
   0.000000000000000E+00   0.000000000000000E+00   0.000000000000000E+00
   0.000000000000000E+00   0.000000000000000E+00
    </PP_BETA.4>
    <PP_DIJ columns="4" rows="4">
  0.805694014990073       0.795560217646186       0.000000000000000E+000
  0.000000000000000E+000
  0.795560217646186       0.791357364315377       0.000000000000000E+000
  0.000000000000000E+000
  0.000000000000000E+000  0.000000000000000E+000  0.199753912236186     
  0.181465375380179     
  0.000000000000000E+000  0.000000000000000E+000  0.181465375380179     
  0.164048817402483     
    </PP_DIJ>
    <PP_AUGMENTATION q_with_l="true" nqf="0" nqlc="3" shape="PSQ" cutoff_r="-1.00000000000000" cutoff_r_index="749" augmentation_epsilon="1.000000000000000E-012" l_max_aug="2">
      <PP_Q size="16">
 -6.124335423500365E-002 -7.039566618538344E-002  0.000000000000000E+000
  0.000000000000000E+000
 -7.039566618538344E-002 -8.124925865009500E-002  0.000000000000000E+000
  0.000000000000000E+000
  0.000000000000000E+000  0.000000000000000E+000  3.968594576336523E-002
  3.392902971220815E-002
  0.000000000000000E+000  0.000000000000000E+000  3.392902971220815E-002
  2.893793004006390E-002
      </PP_Q>
<!--augmentation charge multipoles ( only for PAW) 
multipole array dims = (nbeta,nbeta,2*lmax+1)-->
      <PP_MULTIPOLES nbeta="4" lmax="1">
 -6.124335423500365E-002 -7.039566618538344E-002  0.000000000000000E+000
  0.000000000000000E+000
 -7.039566618538344E-002 -8.124925865009500E-002  0.000000000000000E+000
  0.000000000000000E+000
  0.000000000000000E+000  0.000000000000000E+000  3.968594576336523E-002
  3.392902971220815E-002
  0.000000000000000E+000  0.000000000000000E+000  3.392902971220815E-002
  2.893793004006390E-002
  0.000000000000000E+000  0.000000000000000E+000  1.545048145484393E-002
  1.182076942492481E-002
  0.000000000000000E+000  0.000000000000000E+000  1.452306146101217E-002
  1.109482905050510E-002
  1.545048145484393E-002  1.452306146101217E-002  0.000000000000000E+000
  0.000000000000000E+000
  1.182076942492481E-002  1.109482905050510E-002  0.000000000000000E+000
  0.000000000000000E+000
  0.000000000000000E+000  0.000000000000000E+000  0.000000000000000E+000
  0.000000000000000E+000
  0.000000000000000E+000  0.000000000000000E+000  0.000000000000000E+000
  0.000000000000000E+000
  0.000000000000000E+000  0.000000000000000E+000  1.245001392296995E-002
  1.083763831483842E-002
  0.000000000000000E+000  0.000000000000000E+000  1.083763831483842E-002
  9.375807565211105E-003
      </PP_MULTIPOLES>
      <PP_QIJL.1.1.0 first_index="1" second_index="1" composite_index="1" angular_momentum="0" size="1073">
  -8.520857528996939E-09  -8.736564103619975E-09  -8.957731318192726E-09
  -9.184497409576953E-09  -9.417004114122587E-09  -9.655396756257872E-09
  -9.899824339322336E-09  -1.015043963869915E-08  -1.040739929730519E-08
  -1.067086392349849E-08  -1.094099819146413E-08  -1.121797094414159E-08
  -1.150195529875758E-08  -1.179312875503057E-08  -1.209167330611459E-08
  -1.239777555235144E-08  -1.271162681790270E-08  -1.303342327033434E-08
  -1.336336604322853E-08  -1.370166136189960E-08  -1.404852067229228E-08
  -1.440416077314334E-08  -1.476880395148866E-08  -1.514267812160095E-08
  -1.552601696744465E-08  -1.591906008873699E-08  -1.632205315070688E-08
  -1.673524803764482E-08  -1.715890301034005E-08  -1.759328286750337E-08
  -1.803865911127625E-08  -1.849531011693002E-08  -1.896352130686105E-08
  -1.944358532899064E-08  -1.993580223968130E-08  -2.044047969128344E-08
  -2.095793312442997E-08  -2.148848596519912E-08  -2.203246982726817E-08
  -2.259022471918526E-08  -2.316209925688780E-08  -2.374845088160138E-08
  -2.434964608325480E-08  -2.496606062955065E-08  -2.559807980083558E-08
  -2.624609863091562E-08  -2.691052215396854E-08  -2.759176565770654E-08
  -2.829025494294816E-08  -2.900642658976136E-08  -2.974072823034380E-08
  -3.049361882881181E-08  -3.126556896807201E-08  -3.205706114395534E-08
  -3.286859006679760E-08  -3.370066297065399E-08  -3.455379993034236E-08
  -3.542853418651224E-08  -3.632541247894323E-08  -3.724499538828137E-08
  -3.818785768642630E-08  -3.915458869578917E-08  -4.014579265764525E-08
  -4.116208910981174E-08  -4.220411327388692E-08  -4.327251645229201E-08
  -4.436796643536527E-08  -4.549114791876134E-08  -4.664276293141792E-08
  -4.782353127435654E-08  -4.903419097059201E-08  -5.027549872643147E-08
  -5.154823040445244E-08  -5.285318150845365E-08  -5.419116768068422E-08
  -5.556302521165918E-08  -5.696961156288277E-08  -5.841180590280432E-08
  -5.989050965634261E-08  -6.140664706832238E-08  -6.296116578117410E-08
  -6.455503742725957E-08  -6.618925823619259E-08  -6.786484965753484E-08
  -6.958285899925617E-08  -7.134436008235776E-08  -7.315045391206851E-08
  -7.500226936603360E-08  -7.690096389992473E-08  -7.884772427091541E-08
  -8.084376727947003E-08  -8.289034052991387E-08  -8.498872321025750E-08
  -8.714022689176383E-08  -8.934619634875746E-08  -9.160801039918793E-08
  -9.392708276647484E-08  -9.630486296317010E-08  -9.874283719699317E-08
  -1.012425292998037E-07  -1.038055016800919E-07  -1.064333562995839E-07
  -1.091277356745712E-07  -1.118903239025914E-07  -1.147228477151004E-07
  -1.176270775567954E-07  -1.206048286922634E-07  -1.236579623406466E-07
  -1.267883868390343E-07  -1.299980588353091E-07  -1.332889845111914E-07
  -1.366632208362496E-07  -1.401228768536573E-07  -1.436701149985031E-07
  -1.473071524494773E-07  -1.510362625147783E-07  -1.548597760531079E-07
  -1.587800829306430E-07  -1.627996335148939E-07  -1.669209402063846E-07
  -1.711465790091104E-07  -1.754791911407579E-07  -1.799214846836911E-07
  -1.844762362777385E-07  -1.891462928558381E-07  -1.939345734236244E-07
  -1.988440708840735E-07  -2.038778539083440E-07  -2.090390688539841E-07
  -2.143309417317085E-07  -2.197567802219652E-07  -2.253199757425647E-07
  -2.310240055686560E-07  -2.368724350063791E-07  -2.428689196215528E-07
  -2.490172075247887E-07  -2.553211417144643E-07  -2.617846624790181E-07
  -2.684118098600685E-07  -2.752067261778993E-07  -2.821736586208873E-07
  -2.893169619004946E-07  -2.966411009734857E-07  -3.041506538330689E-07
  -3.118503143707128E-07  -3.197448953104203E-07  -3.278393312173020E-07
  -3.361386815823301E-07  -3.446481339851932E-07  -3.533730073372473E-07
  -3.623187552065696E-07  -3.714909692272152E-07  -3.808953825947935E-07
  -3.905378736505647E-07  -4.004244695562835E-07  -4.105613500620988E-07
  -4.209548513698636E-07  -4.316114700942743E-07  -4.425378673243064E-07
  -4.537408727875070E-07  -4.652274891197249E-07  -4.770048962429713E-07
  -4.890804558541368E-07  -5.014617160273753E-07  -5.141564159330418E-07
  -5.271724906761156E-07  -5.405180762571734E-07  -5.542015146589682E-07
  -5.682313590618394E-07  -5.826163791911960E-07  -5.973655668004116E-07
  -6.124881412925950E-07  -6.279935554847071E-07  -6.438915015176758E-07
  -6.601919169161811E-07  -6.769049908018999E-07  -6.940411702641326E-07
  -7.116111668917466E-07  -7.296259634705697E-07  -7.480968208504091E-07
  -7.670352849859779E-07  -7.864531941561734E-07  -8.063626863661843E-07
  -8.267762069370921E-07  -8.477065162877089E-07  -8.691666979134993E-07
  -8.911701665676395E-07  -9.137306766492599E-07  -9.368623308041885E-07
  -9.605795887435495E-07  -9.848972762857249E-07  -1.009830594627396E-06
  -1.035395129849393E-06  -1.061606862663374E-06  -1.088482178405414E-06
  -1.116037877282723E-06  -1.144291184880001E-06  -1.173259762931911E-06
  -1.202961720368487E-06  -1.233415624640383E-06  -1.264640513331008E-06
  -1.296655906062923E-06  -1.329481816705844E-06  -1.363138765893991E-06
  -1.397647793860588E-06  -1.433030473597532E-06  -1.469308924348563E-06
  -1.506505825444283E-06  -1.544644430487773E-06  -1.583748581899696E-06
  -1.623842725831929E-06  -1.664951927459203E-06  -1.707101886658202E-06
  -1.750318954084050E-06  -1.794630147654241E-06  -1.840063169450286E-06
  -1.886646423047832E-06  -1.934409031285917E-06  -1.983380854486688E-06
  -2.033592509136931E-06  -2.085075387043097E-06  -2.137861674971960E-06
  -2.191984374789099E-06  -2.247477324107941E-06  -2.304375217462301E-06
  -2.362713628015634E-06  -2.422529029820798E-06  -2.483858820644105E-06
  -2.546741345368130E-06  -2.611215919987955E-06  -2.677322856215822E-06
  -2.745103486709839E-06  -2.814600190942362E-06  -2.885856421724489E-06
  -2.958916732403290E-06  -3.033826804748731E-06  -3.110633477548097E-06
  -3.189384775925572E-06  -3.270129941405673E-06  -3.352919462739314E-06
  -3.437805107511841E-06  -3.524839954553141E-06  -3.614078427169915E-06
  -3.705576327221274E-06  -3.799390870058987E-06  -3.895580720354390E-06
  -3.994206028834544E-06  -4.095328469950719E-06  -4.199011280502998E-06
  -4.305319299245293E-06  -4.414319007495696E-06  -4.526078570777853E-06
  -4.640667881519496E-06  -4.758158602835132E-06  -4.878624213420487E-06
  -5.002140053586969E-06  -5.128783372465284E-06  -5.258633376407877E-06
  -5.391771278620873E-06  -5.528280350056769E-06  -5.668245971600021E-06
  -5.811755687578540E-06  -5.958899260634838E-06  -6.109768727991574E-06
  -6.264458459147040E-06  -6.423065215037020E-06  -6.585688208700539E-06
  -6.752429167487824E-06  -6.923392396849840E-06  -7.098684845749886E-06
  -7.278416173738497E-06  -7.462698819734376E-06  -7.651648072554709E-06
  -7.845382143239772E-06  -8.044022239217615E-06  -8.247692640355807E-06
  -8.456520776948690E-06  -8.670637309689448E-06  -8.890176211677898E-06
  -9.115274852516231E-06  -9.346074084545781E-06  -9.582718331280140E-06
  -9.825355678090536E-06  -1.007413796520127E-05  -1.032922088305459E-05
  -1.059076407010551E-05  -1.085893121310911E-05  -1.113389014996409E-05
  -1.141581297517840E-05  -1.170487614802409E-05  -1.200126060345047E-05
  -1.230515186582665E-05  -1.261674016558581E-05  -1.293622055884621E-05
  -1.326379305008535E-05  -1.359966271794557E-05  -1.394403984425238E-05
  -1.429714004632741E-05  -1.465918441268160E-05  -1.503039964217539E-05
  -1.541101818673522E-05  -1.580127839771855E-05  -1.620142467602088E-05
  -1.661170762602220E-05  -1.703238421347136E-05  -1.746371792741058E-05
  -1.790597894624440E-05  -1.835944430806036E-05  -1.882439808531148E-05
  -1.930113156397355E-05  -1.978994342729313E-05  -2.029113994424540E-05
  -2.080503516282396E-05  -2.133195110828810E-05  -2.187221798649649E-05
  -2.242617439245894E-05  -2.299416752424290E-05  -2.357655340237304E-05
  -2.417369709486772E-05  -2.478597294805914E-05  -2.541376482334757E-05
  -2.605746634004520E-05  -2.671748112446812E-05  -2.739422306544018E-05
  -2.808811657637598E-05  -2.879959686411600E-05  -2.952911020468965E-05
  -3.027711422618900E-05  -3.104407819893930E-05  -3.183048333315772E-05
  -3.263682308429795E-05  -3.346360346628173E-05  -3.431134337282638E-05
  -3.518057490708041E-05  -3.607184371978764E-05  -3.698570935620440E-05
  -3.792274561200083E-05  -3.888354089838538E-05  -3.986869861669547E-05
  -4.087883754270608E-05  -4.191459222091449E-05  -4.297661336906517E-05
  -4.406556829318881E-05  -4.518214131343450E-05  -4.632703420098342E-05
  -4.750096662633979E-05  -4.870467661930300E-05  -4.993892104093397E-05
  -5.120447606783752E-05  -5.250213768908997E-05  -5.383272221615390E-05
  -5.519706680612687E-05  -5.659602999868590E-05  -5.803049226709593E-05
  -5.950135658366228E-05  -6.100954900001911E-05  -6.255601924265385E-05
  -6.414174132408381E-05  -6.576771417010830E-05  -6.743496226357524E-05
  -6.914453630511231E-05  -7.089751389128515E-05  -7.269500021066128E-05
  -7.453812875826899E-05  -7.642806206895677E-05  -7.836599247017383E-05
  -8.035314285470431E-05  -8.239076747390997E-05  -8.448015275204467E-05
  -8.662261812222720E-05  -8.881951688467226E-05  -9.107223708779818E-05
  -9.338220243285148E-05  -9.575087320270177E-05  -9.817974721548557E-05
  -1.006703608037957E-04  -1.032242898201320E-04  -1.058431506693554E-04
  -1.085286013689066E-04  -1.112823426375741E-04  -1.141061190136217E-04
  -1.170017200031082E-04  -1.199709812592616E-04  -1.230157857937918E-04
  -1.261380652210575E-04  -1.293398010360280E-04  -1.326230259270141E-04
  -1.359898251241658E-04  -1.394423377847762E-04  -1.429827584164535E-04
  -1.466133383392622E-04  -1.503363871879697E-04  -1.541542744555666E-04
  -1.580694310792720E-04  -1.620843510702694E-04  -1.662015931884588E-04
  -1.704237826635603E-04  -1.747536129639309E-04  -1.791938476145208E-04
  -1.837473220654259E-04  -1.884169456125507E-04  -1.932057033719385E-04
  -1.981166583093836E-04  -2.031529533269890E-04  -2.083178134083905E-04
  -2.136145478244251E-04  -2.190465524010815E-04  -2.246173118516277E-04
  -2.303304021748850E-04  -2.361894931216715E-04  -2.421983507315172E-04
  -2.483608399418181E-04  -2.546809272716707E-04  -2.611626835827127E-04
  -2.678102869193644E-04  -2.746280254309567E-04  -2.816203003783149E-04
  -2.887916292274516E-04  -2.961466488331255E-04  -3.036901187151093E-04
  -3.114269244301136E-04  -3.193620810424185E-04  -3.275007366963666E-04
  -3.358481762939923E-04  -3.444098252811706E-04  -3.531912535457896E-04
  -3.621981794315860E-04  -3.714364738713897E-04  -3.809121646436943E-04
  -3.906314407565741E-04  -4.006006569631390E-04  -4.108263384128627E-04
  -4.213151854432665E-04  -4.320740785166278E-04  -4.431100833065286E-04
  -4.544304559392504E-04  -4.660426483952042E-04  -4.779543140757587E-04
  -4.901733135410627E-04  -5.027077204246191E-04  -5.155658275306230E-04
  -5.287561531202715E-04  -5.422874473934865E-04  -5.561686991727568E-04
  -5.704091427960153E-04  -5.850182652257569E-04  -6.000058133818701E-04
  -6.153818017058996E-04  -6.311565199648073E-04  -6.473405413025437E-04
  -6.639447305480892E-04  -6.809802527889408E-04  -6.984585822193454E-04
  -7.163915112729590E-04  -7.347911600499464E-04  -7.536699860489316E-04
  -7.730407942146000E-04  -7.929167473121432E-04  -8.133113766401964E-04
  -8.342385930943089E-04  -8.557126985934935E-04  -8.777483978828322E-04
  -9.003608107256083E-04  -9.235654844989905E-04  -9.473784072077466E-04
  -9.718160209310609E-04  -9.968952357180887E-04  -1.022633443948425E-03
  -1.049048535174342E-03  -1.076158911462201E-03  -1.103983503251138E-03
  -1.132541785747796E-03  -1.161853795876524E-03  -1.191940149805239E-03
  -1.222822061067855E-03  -1.254521359304938E-03  -1.287060509645081E-03
  -1.320462632750238E-03  -1.354751525549168E-03  -1.389951682683977E-03
  -1.426088318695598E-03  -1.463187390975069E-03  -1.501275623508273E-03
  -1.540380531442934E-03  -1.580530446507533E-03  -1.621754543312882E-03
  -1.664082866568199E-03  -1.707546359244462E-03  -1.752176891719109E-03
  -1.798007291937119E-03  -1.845071376624758E-03  -1.893403983593417E-03
  -1.943041005172141E-03  -1.994019422808743E-03  -2.046377342880575E-03
  -2.100154033757268E-03  -2.155389964159132E-03  -2.212126842856026E-03
  -2.270407659753009E-03  -2.330276728410182E-03  -2.391779730045610E-03
  -2.454963759071444E-03  -2.519877370214598E-03  -2.586570627274844E-03
  -2.655095153574253E-03  -2.725504184153259E-03  -2.797852619769946E-03
  -2.872197082760135E-03  -2.948595974817312E-03  -3.027109536752269E-03
  -3.107799910293530E-03  -3.190731201990635E-03  -3.275969549283049E-03
  -3.363583188798566E-03  -3.453642526945499E-03  -3.546220212863616E-03
  -3.641391213799253E-03  -3.739232892970129E-03  -3.839825089985672E-03
  -3.943250203888368E-03  -4.049593278881370E-03  -4.158942092807009E-03
  -4.271387248439876E-03  -4.387022267657117E-03  -4.505943688546860E-03
  -4.628251165513921E-03  -4.754047572439588E-03  -4.883439108949368E-03
  -5.016535409839584E-03  -5.153449657709593E-03  -5.294298698842200E-03
  -5.439203162369670E-03  -5.588287582756931E-03  -5.741680525627233E-03
  -5.899514716947837E-03  -6.061927175585328E-03  -6.229059349230712E-03
  -6.401057253684018E-03  -6.578071615477026E-03  -6.760258017799550E-03
  -6.947777049680982E-03  -7.140794458363071E-03  -7.339481304782861E-03
  -7.544014122066143E-03  -7.754575076910887E-03  -7.971352133717829E-03
  -8.194539221300912E-03  -8.424336401982901E-03  -8.660950042853190E-03
  -8.904592988932248E-03  -9.155484737953089E-03  -9.413851616432774E-03
  -9.679926956666168E-03  -9.953951274230828E-03  -1.023617244554426E-02
  -1.052684588496381E-02  -1.082623472086474E-02  -1.113460997007224E-02
  -1.145225070996030E-02  -1.177944424746137E-02  -1.211648628415776E-02
  -1.246368107654728E-02  -1.282134159049101E-02  -1.318978964876233E-02
  -1.356935607051946E-02  -1.396038080142182E-02  -1.436321303300201E-02
  -1.477821130978843E-02  -1.520574362255170E-02  -1.564618748591619E-02
  -1.609992999844027E-02  -1.656736788312253E-02  -1.704890750613534E-02
  -1.754496487142555E-02  -1.805596558864813E-02  -1.858234481171892E-02
  -1.912454714508163E-02  -1.968302651458524E-02  -2.025824599965949E-02
  -2.085067762325765E-02  -2.146080209580946E-02  -2.208910850919044E-02
  -2.273609397646830E-02  -2.340226321293538E-02  -2.408812805367182E-02
  -2.479420690261718E-02  -2.552102410785103E-02  -2.626910925750028E-02
  -2.703899639040592E-02  -2.783122311538844E-02  -2.864632963265966E-02
  -2.948485765063402E-02  -3.034734919109895E-02  -3.123434527541654E-02
  -3.214638448414299E-02  -3.308400138217942E-02  -3.404772480130532E-02
  -3.503807597169750E-02  -3.605556649381365E-02  -3.710069614181477E-02
  -3.817395048952955E-02  -3.927579834982613E-02  -4.040668901816006E-02
  -4.156704931102147E-02  -4.275728039001075E-02  -4.397775436234633E-02
  -4.522881064875336E-02  -4.651075210990941E-02  -4.782384092294944E-02
  -4.916829419995500E-02  -5.054427934090099E-02  -5.195190911420765E-02
  -5.339123645886378E-02  -5.486224900307148E-02  -5.636486329551395E-02
  -5.789891874669920E-02  -5.946417127939098E-02  -6.106028668892450E-02
  -6.268683371624345E-02  -6.434327683879601E-02  -6.602896878702259E-02
  -6.774314279706989E-02  -6.948490461359730E-02  -7.125322426012969E-02
  -7.304692759836470E-02  -7.486468770219407E-02  -7.670501607696011E-02
  -7.856625375965932E-02  -8.044656234144468E-02  -8.234391495987278E-02
  -8.425608731491081E-02  -8.618064876976241E-02  -8.811495360509244E-02
  -9.005613250323385E-02  -9.200108434742121E-02  -9.394646843001185E-02
  -9.588869717299336E-02  -9.782392947379684E-02  -9.974806479950418E-02
  -1.016567381628731E-01  -1.035453161241523E-01  -1.054088939733132E-01
  -1.072422942579787E-01  -1.090400668328615E-01  -1.107964906167596E-01
  -1.125055772529457E-01  -1.141610768779118E-01  -1.157564862116419E-01
  -1.172850591896747E-01  -1.187398203628167E-01  -1.201135812942222E-01
  -1.213989601852460E-01  -1.225884049606367E-01  -1.236742200398254E-01
  -1.246485970137994E-01  -1.255036494358347E-01  -1.262314519186576E-01
  -1.268240837098159E-01  -1.272736768906088E-01  -1.275724693111765E-01
  -1.277128623346988E-01  -1.276874834164133E-01  -1.274892534877236E-01
  -1.271114590513910E-01  -1.265478288201147E-01  -1.257926146471532E-01
  -1.248406764035801E-01  -1.236875703519319E-01  -1.223296404501555E-01
  -1.207641118928460E-01  -1.189891860588848E-01  -1.170041358861289E-01
  -1.148094005354034E-01  -1.124066780386765E-01  -1.097990144513365E-01
  -1.069908878477003E-01  -1.039882853145608E-01  -1.007987709125791E-01
  -9.743154239300490E-02  -9.389747428175670E-02  -9.020914477899603E-02
  -8.638084377561364E-02  -8.242855916480991E-02  -7.836993853429500E-02
  -7.422422327058056E-02  -7.001215210003421E-02  -6.575583114135540E-02
  -6.147856766109544E-02  -5.720466491841857E-02  -5.295917576875259E-02
  -4.876761307952950E-02  -4.465561550620816E-02  -4.064856779410808E-02
  -3.677117552129375E-02  -3.304699508879682E-02  -2.949792080378735E-02
  -2.614363209358817E-02  -2.300100523512418E-02  -2.008349548297282E-02
  -1.740049712247829E-02  -1.495669074929152E-02  -1.275138896363782E-02
  -1.077789363924128E-02  -9.022879947194581E-03  -7.465824338772187E-03
  -6.083560299383173E-03  -4.867419918179960E-03  -3.811983192454349E-03
  -2.910573094884850E-03  -2.155244221393904E-03  -1.536778411388773E-03
  -1.044687815389467E-03  -6.672258672404396E-04  -3.914065974776060E-04
  -2.030327006874444E-04  -8.673274283221843E-05  -2.600786420003942E-05
  -3.288299654458093E-06   0.000000000000000E+00   0.000000000000000E+00
   0.000000000000000E+00   0.000000000000000E+00   0.000000000000000E+00
   0.000000000000000E+00   0.000000000000000E+00   0.000000000000000E+00
   0.000000000000000E+00   0.000000000000000E+00   0.000000000000000E+00
   0.000000000000000E+00   0.000000000000000E+00   0.000000000000000E+00
   0.000000000000000E+00   0.000000000000000E+00   0.000000000000000E+00
   0.000000000000000E+00   0.000000000000000E+00   0.000000000000000E+00
   0.000000000000000E+00   0.000000000000000E+00   0.000000000000000E+00
   0.000000000000000E+00   0.000000000000000E+00   0.000000000000000E+00
   0.000000000000000E+00   0.000000000000000E+00   0.000000000000000E+00
   0.000000000000000E+00   0.000000000000000E+00   0.000000000000000E+00
   0.000000000000000E+00   0.000000000000000E+00   0.000000000000000E+00
   0.000000000000000E+00   0.000000000000000E+00   0.000000000000000E+00
   0.000000000000000E+00   0.000000000000000E+00   0.000000000000000E+00
   0.000000000000000E+00   0.000000000000000E+00   0.000000000000000E+00
   0.000000000000000E+00   0.000000000000000E+00   0.000000000000000E+00
   0.000000000000000E+00   0.000000000000000E+00   0.000000000000000E+00
   0.000000000000000E+00   0.000000000000000E+00   0.000000000000000E+00
   0.000000000000000E+00   0.000000000000000E+00   0.000000000000000E+00
   0.000000000000000E+00   0.000000000000000E+00   0.000000000000000E+00
   0.000000000000000E+00   0.000000000000000E+00   0.000000000000000E+00
   0.000000000000000E+00   0.000000000000000E+00   0.000000000000000E+00
   0.000000000000000E+00   0.000000000000000E+00   0.000000000000000E+00
   0.000000000000000E+00   0.000000000000000E+00   0.000000000000000E+00
   0.000000000000000E+00   0.000000000000000E+00   0.000000000000000E+00
   0.000000000000000E+00   0.000000000000000E+00   0.000000000000000E+00
   0.000000000000000E+00   0.000000000000000E+00   0.000000000000000E+00
   0.000000000000000E+00   0.000000000000000E+00   0.000000000000000E+00
   0.000000000000000E+00   0.000000000000000E+00   0.000000000000000E+00
   0.000000000000000E+00   0.000000000000000E+00   0.000000000000000E+00
   0.000000000000000E+00   0.000000000000000E+00   0.000000000000000E+00
   0.000000000000000E+00   0.000000000000000E+00   0.000000000000000E+00
   0.000000000000000E+00   0.000000000000000E+00   0.000000000000000E+00
   0.000000000000000E+00   0.000000000000000E+00   0.000000000000000E+00
   0.000000000000000E+00   0.000000000000000E+00   0.000000000000000E+00
   0.000000000000000E+00   0.000000000000000E+00   0.000000000000000E+00
   0.000000000000000E+00   0.000000000000000E+00   0.000000000000000E+00
   0.000000000000000E+00   0.000000000000000E+00   0.000000000000000E+00
   0.000000000000000E+00   0.000000000000000E+00   0.000000000000000E+00
   0.000000000000000E+00   0.000000000000000E+00   0.000000000000000E+00
   0.000000000000000E+00   0.000000000000000E+00   0.000000000000000E+00
   0.000000000000000E+00   0.000000000000000E+00   0.000000000000000E+00
   0.000000000000000E+00   0.000000000000000E+00   0.000000000000000E+00
   0.000000000000000E+00   0.000000000000000E+00   0.000000000000000E+00
   0.000000000000000E+00   0.000000000000000E+00   0.000000000000000E+00
   0.000000000000000E+00   0.000000000000000E+00   0.000000000000000E+00
   0.000000000000000E+00   0.000000000000000E+00   0.000000000000000E+00
   0.000000000000000E+00   0.000000000000000E+00   0.000000000000000E+00
   0.000000000000000E+00   0.000000000000000E+00   0.000000000000000E+00
   0.000000000000000E+00   0.000000000000000E+00   0.000000000000000E+00
   0.000000000000000E+00   0.000000000000000E+00   0.000000000000000E+00
   0.000000000000000E+00   0.000000000000000E+00   0.000000000000000E+00
   0.000000000000000E+00   0.000000000000000E+00   0.000000000000000E+00
   0.000000000000000E+00   0.000000000000000E+00   0.000000000000000E+00
   0.000000000000000E+00   0.000000000000000E+00   0.000000000000000E+00
   0.000000000000000E+00   0.000000000000000E+00   0.000000000000000E+00
   0.000000000000000E+00   0.000000000000000E+00   0.000000000000000E+00
   0.000000000000000E+00   0.000000000000000E+00   0.000000000000000E+00
   0.000000000000000E+00   0.000000000000000E+00   0.000000000000000E+00
   0.000000000000000E+00   0.000000000000000E+00   0.000000000000000E+00
   0.000000000000000E+00   0.000000000000000E+00   0.000000000000000E+00
   0.000000000000000E+00   0.000000000000000E+00   0.000000000000000E+00
   0.000000000000000E+00   0.000000000000000E+00   0.000000000000000E+00
   0.000000000000000E+00   0.000000000000000E+00   0.000000000000000E+00
   0.000000000000000E+00   0.000000000000000E+00   0.000000000000000E+00
   0.000000000000000E+00   0.000000000000000E+00   0.000000000000000E+00
   0.000000000000000E+00   0.000000000000000E+00   0.000000000000000E+00
   0.000000000000000E+00   0.000000000000000E+00   0.000000000000000E+00
   0.000000000000000E+00   0.000000000000000E+00   0.000000000000000E+00
   0.000000000000000E+00   0.000000000000000E+00   0.000000000000000E+00
   0.000000000000000E+00   0.000000000000000E+00   0.000000000000000E+00
   0.000000000000000E+00   0.000000000000000E+00   0.000000000000000E+00
   0.000000000000000E+00   0.000000000000000E+00   0.000000000000000E+00
   0.000000000000000E+00   0.000000000000000E+00   0.000000000000000E+00
   0.000000000000000E+00   0.000000000000000E+00   0.000000000000000E+00
   0.000000000000000E+00   0.000000000000000E+00   0.000000000000000E+00
   0.000000000000000E+00   0.000000000000000E+00   0.000000000000000E+00
   0.000000000000000E+00   0.000000000000000E+00   0.000000000000000E+00
   0.000000000000000E+00   0.000000000000000E+00   0.000000000000000E+00
   0.000000000000000E+00   0.000000000000000E+00   0.000000000000000E+00
   0.000000000000000E+00   0.000000000000000E+00   0.000000000000000E+00
   0.000000000000000E+00   0.000000000000000E+00   0.000000000000000E+00
   0.000000000000000E+00   0.000000000000000E+00   0.000000000000000E+00
   0.000000000000000E+00   0.000000000000000E+00   0.000000000000000E+00
   0.000000000000000E+00   0.000000000000000E+00   0.000000000000000E+00
   0.000000000000000E+00   0.000000000000000E+00   0.000000000000000E+00
   0.000000000000000E+00   0.000000000000000E+00   0.000000000000000E+00
   0.000000000000000E+00   0.000000000000000E+00   0.000000000000000E+00
   0.000000000000000E+00   0.000000000000000E+00   0.000000000000000E+00
   0.000000000000000E+00   0.000000000000000E+00   0.000000000000000E+00
   0.000000000000000E+00   0.000000000000000E+00   0.000000000000000E+00
   0.000000000000000E+00   0.000000000000000E+00   0.000000000000000E+00
   0.000000000000000E+00   0.000000000000000E+00   0.000000000000000E+00
   0.000000000000000E+00   0.000000000000000E+00   0.000000000000000E+00
   0.000000000000000E+00   0.000000000000000E+00   0.000000000000000E+00
   0.000000000000000E+00   0.000000000000000E+00   0.000000000000000E+00
   0.000000000000000E+00   0.000000000000000E+00   0.000000000000000E+00
   0.000000000000000E+00   0.000000000000000E+00   0.000000000000000E+00
   0.000000000000000E+00   0.000000000000000E+00   0.000000000000000E+00
   0.000000000000000E+00   0.000000000000000E+00   0.000000000000000E+00
   0.000000000000000E+00   0.000000000000000E+00   0.000000000000000E+00
   0.000000000000000E+00   0.000000000000000E+00   0.000000000000000E+00
   0.000000000000000E+00   0.000000000000000E+00   0.000000000000000E+00
   0.000000000000000E+00   0.000000000000000E+00   0.000000000000000E+00
   0.000000000000000E+00   0.000000000000000E+00   0.000000000000000E+00
   0.000000000000000E+00   0.000000000000000E+00   0.000000000000000E+00
   0.000000000000000E+00   0.000000000000000E+00   0.000000000000000E+00
   0.000000000000000E+00   0.000000000000000E+00   0.000000000000000E+00
   0.000000000000000E+00   0.000000000000000E+00   0.000000000000000E+00
   0.000000000000000E+00   0.000000000000000E+00   0.000000000000000E+00
   0.000000000000000E+00   0.000000000000000E+00   0.000000000000000E+00
   0.000000000000000E+00   0.000000000000000E+00   0.000000000000000E+00
   0.000000000000000E+00   0.000000000000000E+00   0.000000000000000E+00
   0.000000000000000E+00   0.000000000000000E+00   0.000000000000000E+00
   0.000000000000000E+00   0.000000000000000E+00   0.000000000000000E+00
   0.000000000000000E+00   0.000000000000000E+00   0.000000000000000E+00
   0.000000000000000E+00   0.000000000000000E+00   0.000000000000000E+00
   0.000000000000000E+00   0.000000000000000E+00   0.000000000000000E+00
   0.000000000000000E+00   0.000000000000000E+00
      </PP_QIJL.1.1.0>
      <PP_QIJL.1.2.0 first_index="1" second_index="2" composite_index="2" angular_momentum="0" size="1073">
  -2.096244551998199E-08  -2.149311234706846E-08  -2.203721306844418E-08
  -2.259508776474179E-08  -2.316708512577524E-08  -2.375356266848194E-08
  -2.435488696038251E-08  -2.497143384869735E-08  -2.560358869526322E-08
  -2.625174661739698E-08  -2.691631273485654E-08  -2.759770242305378E-08
  -2.829634157267768E-08  -2.901266685588961E-08  -2.974712599925786E-08
  -3.050017806360071E-08  -3.127229373091457E-08  -3.206395559856533E-08
  -3.287565848092717E-08  -3.370790971865779E-08  -3.456122949580226E-08
  -3.543615116492510E-08  -3.633322158047267E-08  -3.725300144057485E-08
  -3.819606563749957E-08  -3.916300361697860E-08  -4.015441974663051E-08
  -4.117093369370954E-08  -4.221318081241769E-08  -4.328181254102175E-08
  -4.437749680902269E-08  -4.550091845463329E-08  -4.665277965282408E-08
  -4.783380035420504E-08  -4.904471873501816E-08  -5.028629165852086E-08
  -5.155929514804998E-08  -5.286452487206131E-08  -5.420279664144762E-08
  -5.557494691944713E-08  -5.698183334445904E-08  -5.842433526609552E-08
  -5.990335429480323E-08  -6.141981486539839E-08  -6.297466481486874E-08
  -6.456887597480113E-08  -6.620344477880774E-08  -6.787939288532875E-08
  -6.959776781620148E-08  -7.135964361139521E-08  -7.316612150031962E-08
  -7.501833059012898E-08  -7.691742857144964E-08  -7.886460244197354E-08
  -8.086106924836988E-08  -8.290807684697727E-08  -8.500690468375398E-08
  -8.715886459397218E-08  -8.936530162215641E-08  -9.162759486277954E-08
  -9.394715832223970E-08  -9.632544180265945E-08  -9.876393180805796E-08
  -1.012641524734626E-07  -1.038276665175423E-07  -1.064560762193549E-07
  -1.091510244198226E-07  -1.119141955485594E-07  -1.147473166766922E-07
  -1.176521585963350E-07  -1.206305369273892E-07  -1.236843132523628E-07
  -1.268153962799187E-07  -1.300257430378758E-07  -1.333173600964150E-07
  -1.366923048222458E-07  -1.401526866645258E-07  -1.437006684733326E-07
  -1.473384678515115E-07  -1.510683585407474E-07  -1.548926718427226E-07
  -1.588137980762542E-07  -1.628341880713160E-07  -1.669563547008842E-07
  -1.711828744515605E-07  -1.755163890339553E-07  -1.799596070338385E-07
  -1.845153056050893E-07  -1.891863322055018E-07  -1.939756063765356E-07
  -1.988861215681162E-07  -2.039209470096343E-07  -2.090832296283076E-07
  -2.143761960161059E-07  -2.198031544464708E-07  -2.253674969420849E-07
  -2.310727013949908E-07  -2.369223337403776E-07  -2.429200501853991E-07
  -2.490695994944141E-07  -2.553748253320751E-07  -2.618396686657360E-07
  -2.684681702286736E-07  -2.752644730456672E-07  -2.822328250225143E-07
  -2.893775816010960E-07  -2.967032084816580E-07  -3.042142844140065E-07
  -3.119155040593619E-07  -3.198116809246609E-07  -3.279077503711388E-07
  -3.362087726990761E-07  -3.447199363106335E-07  -3.534465609527546E-07
  -3.623941010421646E-07  -3.715681490745357E-07  -3.809744391199598E-07
  -3.906188504069084E-07  -4.005074109969180E-07  -4.106463015523032E-07
  -4.210418591992441E-07  -4.317005814886718E-07  -4.426291304574220E-07
  -4.538343367921943E-07  -4.653232040989277E-07  -4.771029132802436E-07
  -4.891808270237162E-07  -5.015644944037528E-07  -5.142616555999750E-07
  -5.272802467350460E-07  -5.406284048349611E-07  -5.543144729149126E-07
  -5.683470051938999E-07  -5.827347724413466E-07  -5.974867674590709E-07
  -6.126122107020206E-07  -6.281205560413050E-07  -6.440214966731155E-07
  -6.603249711772233E-07  -6.770411697288575E-07  -6.941805404678222E-07
  -7.117537960288551E-07  -7.297719202372992E-07  -7.482461749742712E-07
  -7.671881072156240E-07  -7.866095562490904E-07  -8.065226610741360E-07
  -8.269398679891331E-07  -8.478739383705966E-07  -8.693379566493627E-07
  -8.913453384886640E-07  -9.139098391692407E-07  -9.370455621867175E-07
  -9.607669680666155E-07  -9.850888834025203E-07  -1.010026510123034E-06
  -1.035595434993330E-06  -1.061811639357230E-06  -1.088691509125897E-06
  -1.116251845019391E-06  -1.144509873067476E-06  -1.173483255376260E-06
  -1.203190101167383E-06  -1.233648978096653E-06  -1.264878923859221E-06
  -1.296899458088503E-06  -1.329730594556366E-06  -1.363392853682100E-06
  -1.397907275358088E-06  -1.433295432100139E-06  -1.469579442530686E-06
  -1.506781985203359E-06  -1.544926312777458E-06  -1.584036266551279E-06
  -1.624136291363341E-06  -1.665251450870788E-06  -1.707407443214618E-06
  -1.750630617081399E-06  -1.794947988171614E-06  -1.840387256084885E-06
  -1.886976821632598E-06  -1.934745804588848E-06  -1.983724061890657E-06
  -2.033942206298969E-06  -2.085431625532023E-06  -2.138224501883010E-06
  -2.192353832334441E-06  -2.247853449181579E-06  -2.304758041177993E-06
  -2.363103175216393E-06  -2.422925318558224E-06  -2.484261861626085E-06
  -2.547151141372998E-06  -2.611632465243315E-06  -2.677746135740164E-06
  -2.745533475614707E-06  -2.815036853693164E-06  -2.886299711357488E-06
  -2.959366589696420E-06  -3.034283157343866E-06  -3.111096239021841E-06
  -3.189853844806107E-06  -3.270605200132464E-06  -3.353400776562691E-06
  -3.438292323329282E-06  -3.525332899678585E-06  -3.614576908032811E-06
  -3.706080127991322E-06  -3.799899751192689E-06  -3.896094417059225E-06
  -3.994724249446221E-06  -4.095850894219037E-06  -4.199537557781244E-06
  -4.305849046578086E-06  -4.414851807599916E-06  -4.526613969910777E-06
  -4.641205387228348E-06  -4.758697681581537E-06  -4.879164288073263E-06
  -5.002680500776301E-06  -5.129323519790748E-06  -5.259172499492819E-06
  -5.392308598004742E-06  -5.528815027916948E-06  -5.668777108294199E-06
  -5.812282317997898E-06  -5.959420350358391E-06  -6.110283169230862E-06
  -6.264965066470248E-06  -6.423562720860979E-06  -6.586175258538135E-06
  -6.752904314938270E-06  -6.923854098317994E-06  -7.099131454880489E-06
  -7.278845935550483E-06  -7.463109864439159E-06  -7.652038409042345E-06
  -7.845749652215145E-06  -8.044364665968532E-06  -8.248007587133785E-06
  -8.456805694941843E-06  -8.670889490566597E-06  -8.890392778681122E-06
  -9.115452751078304E-06  -9.346210072407950E-06  -9.582808968083780E-06
  -9.825397314415527E-06  -1.007412673102209E-05  -1.032915267558379E-05
  -1.059063454099271E-05  -1.085873575496179E-05  -1.113362388215518E-05
  -1.141547072890314E-05  -1.170445245056742E-05  -1.200074966162381E-05
  -1.230454754853078E-05  -1.261603598545469E-05  -1.293540965292374E-05
  -1.326286815948494E-05  -1.359861616643995E-05  -1.394286351573769E-05
  -1.429582536110365E-05  -1.465772230248776E-05  -1.502878052391475E-05
  -1.540923193482318E-05  -1.579931431498118E-05  -1.619927146306976E-05
  -1.660935334902597E-05  -1.702981627024155E-05  -1.746092301171419E-05
  -1.790294301025162E-05  -1.835615252283104E-05  -1.882083479921874E-05
  -1.929728025895810E-05  -1.978578667283622E-05  -2.028665934894229E-05
  -2.080021132343433E-05  -2.132676355613286E-05  -2.186664513106394E-05
  -2.242019346207672E-05  -2.298775450366352E-05  -2.356968296711459E-05
  -2.416634254214189E-05  -2.477810612411053E-05  -2.540535604701974E-05
  -2.604848432237831E-05  -2.670789288412428E-05  -2.738399383974090E-05
  -2.807720972772632E-05  -2.878797378157715E-05  -2.951673020045058E-05
  -3.026393442667450E-05  -3.103005343027786E-05  -3.181556600071961E-05
  -3.262096304599773E-05  -3.344674789932492E-05  -3.429343663356259E-05
  -3.516155838360872E-05  -3.605165567694122E-05  -3.696428477252272E-05
  -3.790001600827764E-05  -3.885943415735930E-05  -3.984313879342798E-05
  -4.085174466516864E-05  -4.188588208028141E-05  -4.294619729918397E-05
  -4.403335293867182E-05  -4.514802838578762E-05  -4.629092022215761E-05
  -4.746274265905998E-05  -4.866422798349543E-05  -4.989612701553914E-05
  -5.115920957725779E-05  -5.245426497348475E-05  -5.378210248475291E-05
  -5.514355187269117E-05  -5.653946389820119E-05  -5.797071085273511E-05
  -5.943818710300686E-05  -6.094280964947542E-05  -6.248551869894740E-05
  -6.406727825165661E-05  -6.568907670318487E-05  -6.735192746159949E-05
  -6.905686958019133E-05  -7.080496840620762E-05  -7.259731624598170E-05
  -7.443503304687576E-05  -7.631926709645937E-05  -7.825119573935863E-05
  -8.023202611222333E-05  -8.226299589726654E-05  -8.434537409484804E-05
  -8.648046181558016E-05  -8.866959309244874E-05  -9.091413571345510E-05
  -9.321549207529370E-05  -9.557510005859973E-05  -9.799443392530722E-05
  -1.004750052386768E-04  -1.030183638065646E-04  -1.056260986485158E-04
  -1.082998389872865E-04  -1.110412552654079E-04  -1.138520601874219E-04
  -1.167340097884399E-04  -1.196889045296805E-04  -1.227185904216728E-04
  -1.258249601758177E-04  -1.290099543850214E-04  -1.322755627341365E-04
  -1.356238252409543E-04  -1.390568335285249E-04  -1.425767321295879E-04
  -1.461857198239234E-04  -1.498860510094527E-04  -1.536800371079338E-04
  -1.575700480061265E-04  -1.615585135333147E-04  -1.656479249761021E-04
  -1.698408366314188E-04  -1.741398673986941E-04  -1.785477024121865E-04
  -1.830670947144745E-04  -1.877008669721427E-04  -1.924519132347258E-04
  -1.973232007379891E-04  -2.023177717526677E-04  -2.074387454797966E-04
  -2.126893199938047E-04  -2.180727742345712E-04  -2.235924700496663E-04
  -2.292518542880418E-04  -2.350544609464540E-04  -2.410039133699443E-04
  -2.471039265077309E-04  -2.533583092258929E-04  -2.597709666782779E-04
  -2.663459027370824E-04  -2.730872224845993E-04  -2.799991347676663E-04
  -2.870859548163721E-04  -2.943521069286385E-04  -3.018021272223145E-04
  -3.094406664564723E-04  -3.172724929236303E-04  -3.253024954146766E-04
  -3.335356862582970E-04  -3.419772044367762E-04  -3.506323187800670E-04
  -3.595064312400797E-04  -3.686050802471894E-04  -3.779339441510028E-04
  -3.874988447474864E-04  -3.973057508945970E-04  -4.073607822186170E-04
  -4.176702129134469E-04  -4.282404756351550E-04  -4.390781654941575E-04
  -4.501900441474426E-04  -4.615830439933170E-04  -4.732642724712172E-04
  -4.852410164691747E-04  -4.975207468416151E-04  -5.101111230401952E-04
  -5.230199978604872E-04  -5.362554223073602E-04  -5.498256505819793E-04
  -5.637391451934317E-04  -5.780045821980370E-04  -5.926308565694846E-04
  -6.076270877030159E-04  -6.230026250569325E-04  -6.387670539348096E-04
  -6.549302014118565E-04  -6.715021424089516E-04  -6.884932059179705E-04
  -7.059139813820845E-04  -7.237753252348347E-04  -7.420883676018331E-04
  -7.608645191690569E-04  -7.801154782217897E-04  -7.998532378583371E-04
  -8.200900933827749E-04  -8.408386498810566E-04  -8.621118299849070E-04
  -8.839228818280573E-04  -9.062853871994208E-04  -9.292132698980007E-04
  -9.527208042943323E-04  -9.768226241034395E-04  -1.001533731374371E-03
  -1.026869505701472E-03  -1.052845713662711E-03  -1.079478518490445E-03
  -1.106784489980162E-03  -1.134780614642837E-03  -1.163484306106648E-03
  -1.192913415773984E-03  -1.223086243739703E-03  -1.254021549976807E-03
  -1.285738565795801E-03  -1.318257005584102E-03  -1.351597078832058E-03
  -1.385779502452205E-03  -1.420825513398570E-03  -1.456756881592944E-03
  -1.493595923165158E-03  -1.531365514014613E-03  -1.570089103700351E-03
  -1.609790729667164E-03  -1.650495031815370E-03  -1.692227267421963E-03
  -1.735013326421086E-03  -1.778879747051837E-03  -1.823853731881567E-03
  -1.869963164213036E-03  -1.917236624883803E-03  -1.965703409466526E-03
  -2.015393545878848E-03  -2.066337812411747E-03  -2.118567756185377E-03
  -2.172115712041455E-03  -2.227014821881561E-03  -2.283299054460649E-03
  -2.341003225645301E-03  -2.400163019146394E-03  -2.460815007735807E-03
  -2.522996674957150E-03  -2.586746437340361E-03  -2.652103667130242E-03
  -2.719108715539091E-03  -2.787802936533562E-03  -2.858228711166122E-03
  -2.930429472461361E-03  -3.004449730867581E-03  -3.080335100284074E-03
  -3.158132324674484E-03  -3.237889305276761E-03  -3.319655128420105E-03
  -3.403480093959283E-03  -3.489415744336746E-03  -3.577514894282722E-03
  -3.667831661163585E-03  -3.760421495988524E-03  -3.855341215084435E-03
  -3.952649032448829E-03  -4.052404592790243E-03  -4.154669005265526E-03
  -4.259504877922978E-03  -4.366976352860067E-03  -4.477149142104083E-03
  -4.590090564223569E-03  -4.705869581678123E-03  -4.824556838913429E-03
  -4.946224701207892E-03  -5.070947294276669E-03  -5.198800544637983E-03
  -5.329862220746104E-03  -5.464211974894247E-03  -5.601931385889856E-03
  -5.743104002503669E-03  -5.887815387692671E-03  -6.036153163596097E-03
  -6.188207057302011E-03  -6.344068947380550E-03  -6.503832911178542E-03
  -6.667595272867981E-03  -6.835454652239554E-03  -7.007512014229784E-03
  -7.183870719168421E-03  -7.364636573730307E-03  -7.549917882573030E-03
  -7.739825500639310E-03  -7.934472886099548E-03  -8.133976153906953E-03
  -8.338454129934071E-03  -8.548028405655481E-03  -8.762823393337680E-03
  -8.982966381692433E-03  -9.208587591945134E-03  -9.439820234264798E-03
  -9.676800564496357E-03  -9.919667941130604E-03  -1.016856488244021E-02
  -1.042363712370372E-02  -1.068503367443215E-02  -1.095290687550463E-02
  -1.122741245611173E-02  -1.150870959039547E-02  -1.179696095366584E-02
  -1.209233277806334E-02  -1.239499490752556E-02  -1.270512085190490E-02
  -1.302288784007116E-02  -1.334847687181971E-02  -1.368207276839180E-02
  -1.402386422139756E-02  -1.437404383991698E-02  -1.473280819553585E-02
  -1.510035786505568E-02  -1.547689747059676E-02  -1.586263571679223E-02
  -1.625778542474940E-02  -1.666256356242995E-02  -1.707719127107604E-02
  -1.750189388728228E-02  -1.793690096028465E-02  -1.838244626400817E-02
  -1.883876780338183E-02  -1.930610781439621E-02  -1.978471275734281E-02
  -2.027483330263546E-02  -2.077672430857484E-02  -2.129064479037340E-02
  -2.181685787971310E-02  -2.235563077406109E-02  -2.290723467491697E-02
  -2.347194471411363E-02  -2.405003986723650E-02  -2.464180285316719E-02
  -2.524752001869651E-02  -2.586748120708468E-02  -2.650197960938043E-02
  -2.715131159723675E-02  -2.781577653588699E-02  -2.849567657586605E-02
  -2.919131642197780E-02  -2.990300307792636E-02  -3.063104556493597E-02
  -3.137575461259353E-02  -3.213744232004916E-02  -3.291642178560911E-02
  -3.371300670265309E-02  -3.452751091969675E-02  -3.536024796231184E-02
  -3.621153051449967E-02  -3.708166985699629E-02  -3.797097525986806E-02
  -3.887975332663170E-02  -3.980830728700844E-02  -4.075693623529505E-02
  -4.172593431120458E-02  -4.271558981990408E-02  -4.372618428784376E-02
  -4.475799145084784E-02  -4.581127617080903E-02  -4.688629327720591E-02
  -4.798328632954495E-02  -4.910248629671345E-02  -5.024411014912376E-02
  -5.140835935943273E-02  -5.259541830752946E-02  -5.380545258541498E-02
  -5.503860719753299E-02  -5.629500465207193E-02  -5.757474293873766E-02
  -5.887789338849502E-02  -6.020449841081178E-02  -6.155456910399455E-02
  -6.292808273430425E-02  -6.432498007967524E-02  -6.574516263404052E-02
  -6.718848966849886E-02  -6.865477514584399E-02  -7.014378448532586E-02
  -7.165523117493122E-02  -7.318877322896344E-02  -7.474400948928135E-02
  -7.632047576922349E-02  -7.791764084001507E-02  -7.953490226033667E-02
  -8.117158205072895E-02  -8.282692221564278E-02  -8.450008011720833E-02
  -8.619012370622191E-02  -8.789602661743140E-02  -8.961666313796034E-02
  -9.135080305965745E-02  -9.309710642830089E-02  -9.485411820494268E-02
  -9.662026285725689E-02  -9.839383890156617E-02  -1.001730134192821E-01
  -1.019558165748072E-01  -1.037401361655282E-01  -1.055237122383847E-01
  -1.073041318116314E-01  -1.090788237448352E-01  -1.108450538048557E-01
  -1.125999199805520E-01  -1.143403481042378E-01  -1.160630878434584E-01
  -1.177647091324760E-01  -1.194415991189055E-01  -1.210899597072151E-01
  -1.227058057872635E-01  -1.242849642426482E-01  -1.258230738403359E-01
  -1.273155861097755E-01  -1.287577673263917E-01  -1.301447017209284E-01
  -1.314712960424626E-01  -1.327322856089357E-01  -1.339222419845984E-01
  -1.350355824287162E-01  -1.360665812640484E-01  -1.370093833168057E-01
  -1.378580195818235E-01  -1.386064252672891E-01  -1.392484603723139E-01
  -1.397779329476360E-01  -1.401886251844870E-01  -1.404743224688192E-01
  -1.406288455273179E-01  -1.406460857775372E-01  -1.405200439767018E-01
  -1.402448722417873E-01  -1.398149194870074E-01  -1.392247802933422E-01
  -1.384693471877986E-01  -1.375438662672492E-01  -1.364439960525262E-01
  -1.351658694025181E-01  -1.337061582549815E-01  -1.320621408902705E-01
  -1.302317713359662E-01  -1.282137504442706E-01  -1.260075980799150E-01
  -1.236137257543249E-01  -1.210335089320459E-01  -1.182693581183973E-01
  -1.153247877136162E-01  -1.122044814892080E-01  -1.089143534080802E-01
  -1.054616023727196E-01  -1.018547593471129E-01  -9.810372516057879E-02
  -9.421979716786466E-02  -9.021568281308220E-02  -8.610549802896006E-02
  -8.190474830185740E-02  -7.763029015189130E-02  -7.330027072178964E-02
  -6.893404314387541E-02  -6.455205536844869E-02  -6.017571019602119E-02
  -5.582719436806204E-02  -5.152927474412829E-02  -4.730505983598715E-02
  -4.317772528995543E-02  -3.917020231572974E-02  -3.530482856159946E-02
  -3.160296153962418E-02  -2.808455541688190E-02  -2.476770281545531E-02
  -2.166814420804103E-02  -1.879874855918177E-02  -1.616897004246010E-02
  -1.378428695657765E-02  -1.164563035871678E-02  -9.748811417982943E-03
  -8.083958045424082E-03  -6.634972954273909E-03  -5.379026912044066E-03
  -4.290588327663047E-03  -3.356754640612081E-03  -2.567607478540790E-03
  -1.912366495787354E-03  -1.379498216964370E-03  -9.568402174232049E-04
  -6.317405892895533E-04  -3.912124551461726E-04  -2.221030873377772E-04
  -1.112769697172444E-04  -4.581190070995778E-05  -1.320698271067844E-05
  -1.601074314294681E-06   0.000000000000000E+00   0.000000000000000E+00
   0.000000000000000E+00   0.000000000000000E+00   0.000000000000000E+00
   0.000000000000000E+00   0.000000000000000E+00   0.000000000000000E+00
   0.000000000000000E+00   0.000000000000000E+00   0.000000000000000E+00
   0.000000000000000E+00   0.000000000000000E+00   0.000000000000000E+00
   0.000000000000000E+00   0.000000000000000E+00   0.000000000000000E+00
   0.000000000000000E+00   0.000000000000000E+00   0.000000000000000E+00
   0.000000000000000E+00   0.000000000000000E+00   0.000000000000000E+00
   0.000000000000000E+00   0.000000000000000E+00   0.000000000000000E+00
   0.000000000000000E+00   0.000000000000000E+00   0.000000000000000E+00
   0.000000000000000E+00   0.000000000000000E+00   0.000000000000000E+00
   0.000000000000000E+00   0.000000000000000E+00   0.000000000000000E+00
   0.000000000000000E+00   0.000000000000000E+00   0.000000000000000E+00
   0.000000000000000E+00   0.000000000000000E+00   0.000000000000000E+00
   0.000000000000000E+00   0.000000000000000E+00   0.000000000000000E+00
   0.000000000000000E+00   0.000000000000000E+00   0.000000000000000E+00
   0.000000000000000E+00   0.000000000000000E+00   0.000000000000000E+00
   0.000000000000000E+00   0.000000000000000E+00   0.000000000000000E+00
   0.000000000000000E+00   0.000000000000000E+00   0.000000000000000E+00
   0.000000000000000E+00   0.000000000000000E+00   0.000000000000000E+00
   0.000000000000000E+00   0.000000000000000E+00   0.000000000000000E+00
   0.000000000000000E+00   0.000000000000000E+00   0.000000000000000E+00
   0.000000000000000E+00   0.000000000000000E+00   0.000000000000000E+00
   0.000000000000000E+00   0.000000000000000E+00   0.000000000000000E+00
   0.000000000000000E+00   0.000000000000000E+00   0.000000000000000E+00
   0.000000000000000E+00   0.000000000000000E+00   0.000000000000000E+00
   0.000000000000000E+00   0.000000000000000E+00   0.000000000000000E+00
   0.000000000000000E+00   0.000000000000000E+00   0.000000000000000E+00
   0.000000000000000E+00   0.000000000000000E+00   0.000000000000000E+00
   0.000000000000000E+00   0.000000000000000E+00   0.000000000000000E+00
   0.000000000000000E+00   0.000000000000000E+00   0.000000000000000E+00
   0.000000000000000E+00   0.000000000000000E+00   0.000000000000000E+00
   0.000000000000000E+00   0.000000000000000E+00   0.000000000000000E+00
   0.000000000000000E+00   0.000000000000000E+00   0.000000000000000E+00
   0.000000000000000E+00   0.000000000000000E+00   0.000000000000000E+00
   0.000000000000000E+00   0.000000000000000E+00   0.000000000000000E+00
   0.000000000000000E+00   0.000000000000000E+00   0.000000000000000E+00
   0.000000000000000E+00   0.000000000000000E+00   0.000000000000000E+00
   0.000000000000000E+00   0.000000000000000E+00   0.000000000000000E+00
   0.000000000000000E+00   0.000000000000000E+00   0.000000000000000E+00
   0.000000000000000E+00   0.000000000000000E+00   0.000000000000000E+00
   0.000000000000000E+00   0.000000000000000E+00   0.000000000000000E+00
   0.000000000000000E+00   0.000000000000000E+00   0.000000000000000E+00
   0.000000000000000E+00   0.000000000000000E+00   0.000000000000000E+00
   0.000000000000000E+00   0.000000000000000E+00   0.000000000000000E+00
   0.000000000000000E+00   0.000000000000000E+00   0.000000000000000E+00
   0.000000000000000E+00   0.000000000000000E+00   0.000000000000000E+00
   0.000000000000000E+00   0.000000000000000E+00   0.000000000000000E+00
   0.000000000000000E+00   0.000000000000000E+00   0.000000000000000E+00
   0.000000000000000E+00   0.000000000000000E+00   0.000000000000000E+00
   0.000000000000000E+00   0.000000000000000E+00   0.000000000000000E+00
   0.000000000000000E+00   0.000000000000000E+00   0.000000000000000E+00
   0.000000000000000E+00   0.000000000000000E+00   0.000000000000000E+00
   0.000000000000000E+00   0.000000000000000E+00   0.000000000000000E+00
   0.000000000000000E+00   0.000000000000000E+00   0.000000000000000E+00
   0.000000000000000E+00   0.000000000000000E+00   0.000000000000000E+00
   0.000000000000000E+00   0.000000000000000E+00   0.000000000000000E+00
   0.000000000000000E+00   0.000000000000000E+00   0.000000000000000E+00
   0.000000000000000E+00   0.000000000000000E+00   0.000000000000000E+00
   0.000000000000000E+00   0.000000000000000E+00   0.000000000000000E+00
   0.000000000000000E+00   0.000000000000000E+00   0.000000000000000E+00
   0.000000000000000E+00   0.000000000000000E+00   0.000000000000000E+00
   0.000000000000000E+00   0.000000000000000E+00   0.000000000000000E+00
   0.000000000000000E+00   0.000000000000000E+00   0.000000000000000E+00
   0.000000000000000E+00   0.000000000000000E+00   0.000000000000000E+00
   0.000000000000000E+00   0.000000000000000E+00   0.000000000000000E+00
   0.000000000000000E+00   0.000000000000000E+00   0.000000000000000E+00
   0.000000000000000E+00   0.000000000000000E+00   0.000000000000000E+00
   0.000000000000000E+00   0.000000000000000E+00   0.000000000000000E+00
   0.000000000000000E+00   0.000000000000000E+00   0.000000000000000E+00
   0.000000000000000E+00   0.000000000000000E+00   0.000000000000000E+00
   0.000000000000000E+00   0.000000000000000E+00   0.000000000000000E+00
   0.000000000000000E+00   0.000000000000000E+00   0.000000000000000E+00
   0.000000000000000E+00   0.000000000000000E+00   0.000000000000000E+00
   0.000000000000000E+00   0.000000000000000E+00   0.000000000000000E+00
   0.000000000000000E+00   0.000000000000000E+00   0.000000000000000E+00
   0.000000000000000E+00   0.000000000000000E+00   0.000000000000000E+00
   0.000000000000000E+00   0.000000000000000E+00   0.000000000000000E+00
   0.000000000000000E+00   0.000000000000000E+00   0.000000000000000E+00
   0.000000000000000E+00   0.000000000000000E+00   0.000000000000000E+00
   0.000000000000000E+00   0.000000000000000E+00   0.000000000000000E+00
   0.000000000000000E+00   0.000000000000000E+00   0.000000000000000E+00
   0.000000000000000E+00   0.000000000000000E+00   0.000000000000000E+00
   0.000000000000000E+00   0.000000000000000E+00   0.000000000000000E+00
   0.000000000000000E+00   0.000000000000000E+00   0.000000000000000E+00
   0.000000000000000E+00   0.000000000000000E+00   0.000000000000000E+00
   0.000000000000000E+00   0.000000000000000E+00   0.000000000000000E+00
   0.000000000000000E+00   0.000000000000000E+00   0.000000000000000E+00
   0.000000000000000E+00   0.000000000000000E+00   0.000000000000000E+00
   0.000000000000000E+00   0.000000000000000E+00   0.000000000000000E+00
   0.000000000000000E+00   0.000000000000000E+00   0.000000000000000E+00
   0.000000000000000E+00   0.000000000000000E+00   0.000000000000000E+00
   0.000000000000000E+00   0.000000000000000E+00   0.000000000000000E+00
   0.000000000000000E+00   0.000000000000000E+00   0.000000000000000E+00
   0.000000000000000E+00   0.000000000000000E+00   0.000000000000000E+00
   0.000000000000000E+00   0.000000000000000E+00   0.000000000000000E+00
   0.000000000000000E+00   0.000000000000000E+00   0.000000000000000E+00
   0.000000000000000E+00   0.000000000000000E+00   0.000000000000000E+00
   0.000000000000000E+00   0.000000000000000E+00   0.000000000000000E+00
   0.000000000000000E+00   0.000000000000000E+00   0.000000000000000E+00
   0.000000000000000E+00   0.000000000000000E+00   0.000000000000000E+00
   0.000000000000000E+00   0.000000000000000E+00   0.000000000000000E+00
   0.000000000000000E+00   0.000000000000000E+00   0.000000000000000E+00
   0.000000000000000E+00   0.000000000000000E+00   0.000000000000000E+00
   0.000000000000000E+00   0.000000000000000E+00   0.000000000000000E+00
   0.000000000000000E+00   0.000000000000000E+00   0.000000000000000E+00
   0.000000000000000E+00   0.000000000000000E+00   0.000000000000000E+00
   0.000000000000000E+00   0.000000000000000E+00   0.000000000000000E+00
   0.000000000000000E+00   0.000000000000000E+00   0.000000000000000E+00
   0.000000000000000E+00   0.000000000000000E+00   0.000000000000000E+00
   0.000000000000000E+00   0.000000000000000E+00   0.000000000000000E+00
   0.000000000000000E+00   0.000000000000000E+00   0.000000000000000E+00
   0.000000000000000E+00   0.000000000000000E+00   0.000000000000000E+00
   0.000000000000000E+00   0.000000000000000E+00   0.000000000000000E+00
   0.000000000000000E+00   0.000000000000000E+00   0.000000000000000E+00
   0.000000000000000E+00   0.000000000000000E+00   0.000000000000000E+00
   0.000000000000000E+00   0.000000000000000E+00   0.000000000000000E+00
   0.000000000000000E+00   0.000000000000000E+00   0.000000000000000E+00
   0.000000000000000E+00   0.000000000000000E+00
      </PP_QIJL.1.2.0>
      <PP_QIJL.1.3.1 first_index="1" second_index="3" composite_index="4" angular_momentum="1" size="1073">
   1.426259519259205E-11   1.480759737738111E-11   1.537342518012499E-11
   1.596087438902206E-11   1.657077120091071E-11   1.720397338324301E-11
   1.786137148045982E-11   1.854389006646383E-11   1.925248904495188E-11
   1.998816499943585E-11   2.075195259484990E-11   2.154492603271624E-11
   2.236820056191553E-11   2.322293404718654E-11   2.411032859756169E-11
   2.503163225702744E-11   2.598814075978875E-11   2.698119935260534E-11
   2.801220468676279E-11   2.908260678233990E-11   3.019391106753372E-11
   3.134768049591186E-11   3.254553774456853E-11   3.378916749627661E-11
   3.508031880884518E-11   3.642080757501404E-11   3.781251907634643E-11
   3.925741063471009E-11   4.075751436507677E-11   4.231494003351165E-11
   4.393187802437117E-11   4.561060242088388E-11   4.735347420344572E-11
   4.916294457012813E-11   5.104155838406956E-11   5.299195775259725E-11
   5.501688574311481E-11   5.711919024098071E-11   5.930182795480289E-11
   6.156786857478464E-11   6.392049908996611E-11   6.636302827043815E-11
   6.889889132082848E-11   7.153165471160611E-11   7.426502119500040E-11
   7.710283501258484E-11   8.004908730185461E-11   8.310792170939844E-11
   8.628364021855995E-11   8.958070919978540E-11   9.300376569216427E-11
   9.655762392500138E-11   1.002472820885884E-10   1.040779293636992E-10
   1.080549532196962E-10   1.121839469915071E-10   1.164707177461357E-10
   1.209212944497628E-10   1.255419364469284E-10   1.303391422637188E-10
   1.353196587473364E-10   1.404904905549120E-10   1.458589100048989E-10
   1.514324673049075E-10   1.572190011703631E-10   1.632266498489194E-10
   1.694638625661364E-10   1.759394114085158E-10   1.826624036606080E-10
   1.896422946135429E-10   1.968889008629922E-10   2.044124141152741E-10
   2.122234155210098E-10   2.203328905564934E-10   2.287522444737074E-10
   2.374933183407018E-10   2.465684056949098E-10   2.559902698328111E-10
   2.657721617602604E-10   2.759278388287323E-10   2.864715840836796E-10
   2.974182263522302E-10   3.087831610984652E-10   3.205823720756079E-10
   3.328324538055832E-10   3.455506349175486E-10   3.587548023782329E-10
   3.724635266481516E-10   3.866960877990792E-10   4.014725026295148E-10
   4.168135528162623E-10   4.327408141417320E-10   4.492766868380589E-10
   4.664444270907133E-10   4.842681797459165E-10   5.027730122678417E-10
   5.219849499933833E-10   5.419310127340507E-10   5.626392527764768E-10
   5.841387943349827E-10   6.064598745116662E-10   6.296338858216461E-10
   6.536934203432443E-10   6.786723155552092E-10   7.046057019254436E-10
   7.315300523181456E-10   7.594832332888754E-10   7.885045583396632E-10
   8.186348432090633E-10   8.499164632749125E-10   8.823934131505065E-10
   9.161113685580277E-10   9.511177505662254E-10   9.874617922826878E-10
   1.025194608094514E-09   1.064369265554724E-09   1.105040860015547E-09
   1.147266592113523E-09   1.191105848215381E-09   1.236620283937848E-09
   1.283873910858819E-09   1.332933186541852E-09   1.383867108000578E-09
   1.436747308734477E-09   1.491648159472482E-09   1.548646872766048E-09
   1.607823611578851E-09   1.669261602025760E-09   1.733047250419649E-09
   1.799270264790682E-09   1.868023781048888E-09   1.939404493967527E-09
   2.013512793171398E-09   2.090452904321345E-09   2.170333035693519E-09
   2.253265530359461E-09   2.339367024181106E-09   2.428758609842841E-09
   2.521566007151260E-09   2.617919739842201E-09   2.717955319143550E-09
   2.821813434352107E-09   2.929640150692402E-09   3.041587114735737E-09
   3.157811767668356E-09   3.278477566708540E-09   3.403754214984133E-09
   3.533817900193666E-09   3.668851542386677E-09   3.809045051211776E-09
   3.954595592994019E-09   4.105707868017316E-09   4.262594398401720E-09
   4.425475826980409E-09   4.594581227596666E-09   4.770148427257098E-09
   4.952424340594275E-09   5.141665317108920E-09   5.338137501680026E-09
   5.542117208849878E-09   5.753891311410085E-09   5.973757643835277E-09
   6.202025421131628E-09   6.439015673689085E-09   6.685061698749041E-09
   6.940509529121722E-09   7.205718419813192E-09   7.481061353245266E-09
   7.766925563779487E-09   8.063713082282388E-09   8.371841301497453E-09
   8.691743563019531E-09   9.023869766696015E-09   9.368687003312430E-09
   9.726680211451770E-09   1.009835285945069E-08   1.048422765341250E-08
   1.088484727227102E-08   1.130077513094002E-08   1.173259617262065E-08
   1.218091769138058E-08   1.264637018616231E-08   1.312960824742015E-08
   1.363131147763338E-08   1.415218544698950E-08   1.469296268558054E-08
   1.525440371350891E-08   1.583729811034911E-08   1.644246562547030E-08
   1.707075733078028E-08   1.772305681751069E-08   1.840028143872772E-08
   1.910338359931286E-08   1.983335209522904E-08   2.059121350395408E-08
   2.137803362803549E-08   2.219491899379784E-08   2.304301840730703E-08
   2.392352456978070E-08   2.483767575471509E-08   2.578675754908448E-08
   2.677210466106388E-08   2.779510279681223E-08   2.885719060895728E-08
   2.995986171951984E-08   3.110466682011949E-08   3.229321585241720E-08
   3.352718027185563E-08   3.480829539788159E-08   3.613836285395357E-08
   3.751925310076180E-08   3.895290806622490E-08   4.044134387595530E-08
   4.198665368803402E-08   4.359101063607785E-08   4.525667088473332E-08
   4.698597680189576E-08   4.878136025210587E-08   5.064534601575686E-08
   5.258055533891476E-08   5.458970961873898E-08   5.667563422968653E-08
   5.884126249587026E-08   6.108963981515767E-08   6.342392794080390E-08
   6.584740942663167E-08   6.836349224201117E-08   7.097571456311512E-08
   7.368774974718726E-08   7.650341149681126E-08   7.942665922143116E-08
   8.246160360366456E-08   8.561251237821698E-08   8.888381633152516E-08
   9.228011553055310E-08   9.580618578948734E-08   9.946698538342444E-08
   1.032676620184687E-07   1.072135600680398E-07   1.113102280855510E-07
   1.155634266040033E-07   1.199791362334632E-07   1.245635660677794E-07
   1.293231624123575E-07   1.342646178452425E-07   1.393948806242326E-07
   1.447211644532377E-07   1.502509586215895E-07   1.559920385305448E-07
   1.619524766217594E-07   1.681406537230711E-07   1.745652708275283E-07
   1.812353613221900E-07   1.881603036838710E-07   1.953498346596485E-07
   2.028140629506299E-07   2.105634834181922E-07   2.186089918326218E-07
   2.269619001848627E-07   2.356339525828540E-07   2.446373417547609E-07
   2.539847261822630E-07   2.636892478879300E-07   2.737645509016473E-07
   2.842248004319937E-07   2.950847027694634E-07   3.063595259494567E-07
   3.180651212040122E-07   3.302179452323758E-07   3.428350833216345E-07
   3.559342733498343E-07   3.695339307052489E-07   3.836531741567204E-07
   3.983118527113819E-07   4.135305734973382E-07   4.293307307104642E-07
   4.457345356659604E-07   4.627650479963530E-07   4.804462080405679E-07
   4.988028704683287E-07   5.178608391877403E-07   5.376469035850823E-07
   5.581888761468638E-07   5.795156315172273E-07   6.016571470459962E-07
   6.246445448828434E-07   6.485101356778507E-07   6.732874639485613E-07
   6.990113551780382E-07   7.257179647088758E-07   7.534448285025972E-07
   7.822309158342667E-07   8.121166839975453E-07   8.431441350951084E-07
   8.753568749953882E-07   9.088001745368611E-07   9.435210330664031E-07
   9.795682443999587E-07   1.016992465298005E-06   1.055846286551500E-06
   1.096184306777430E-06   1.138063209028672E-06   1.181541840320661E-06
   1.226681294193279E-06   1.273544996415746E-06   1.322198793960286E-06
   1.372711047363666E-06   1.425152726609871E-06   1.479597510665060E-06
   1.536121890805479E-06   1.594805277879278E-06   1.655730113657829E-06
   1.718981986423881E-06   1.784649750965951E-06   1.852825653139510E-06
   1.923605459172741E-06   1.997088589895085E-06   2.073378260076325E-06
   2.152581623070074E-06   2.234809920962877E-06   2.320178640438274E-06
   2.408807674573322E-06   2.500821490790237E-06   2.596349305200214E-06
   2.695525263578727E-06   2.798488629226847E-06   2.905383977976787E-06
   3.016361400614580E-06   3.131576712999102E-06   3.251191674173131E-06
   3.375374212763610E-06   3.504298661989385E-06   3.638146003601325E-06
   3.777104121091417E-06   3.921368062526279E-06   4.071140313361146E-06
   4.226631079621808E-06   4.388058581840091E-06   4.555649360150648E-06
   4.729638590973048E-06   4.910270415714859E-06   5.097798281952972E-06
   5.292485297559397E-06   5.494604598266506E-06   5.704439729174333E-06
   5.922285040729660E-06   6.148446099720517E-06   6.383240115851150E-06
   6.626996384491296E-06   6.880056746202310E-06   7.142776063675225E-06
   7.415522716737720E-06   7.698679116108253E-06   7.992642236603424E-06
   8.297824170534779E-06   8.614652702041902E-06   8.943571903168905E-06
   9.285042752479455E-06   9.639543777072917E-06   1.000757171887560E-05
   1.038964222611091E-05   1.078629057090721E-05   1.119807239400723E-05
   1.162556447760809E-05   1.206936554737780E-05   1.253009710474148E-05
   1.300840429057198E-05   1.350495678145948E-05   1.402044971977223E-05
   1.455560467877777E-05   1.511117066412825E-05   1.568792515307105E-05
   1.628667517278111E-05   1.690825841928905E-05   1.755354441850017E-05
   1.822343573087923E-05   1.891886920142510E-05   1.964081725661062E-05
   2.039028925003976E-05   2.116833285862645E-05   2.197603553116433E-05
   2.281452599123080E-05   2.368497579643863E-05   2.458860095611476E-05
   2.552666360956645E-05   2.650047376717060E-05   2.751139111660368E-05
   2.856082689661144E-05   2.965024584080674E-05   3.078116819406205E-05
   3.195517180418091E-05   3.317389429158592E-05   3.443903529990582E-05
   3.575235883040759E-05   3.711569566334647E-05   3.853094586941545E-05
   4.000008141455651E-05   4.152514886157216E-05   4.310827217202486E-05
   4.475165561208909E-05   4.645758676612513E-05   4.822843966186946E-05
   5.006667801129372E-05   5.197485857130428E-05   5.395563462859804E-05
   5.601175961316653E-05   5.814609084506133E-05   6.036159341919344E-05
   6.266134423314626E-05   6.504853616308050E-05   6.752648239305007E-05
   7.009862090317476E-05   7.276851912233518E-05   7.553987875121552E-05
   7.841654076175067E-05   8.140249057918245E-05   8.450186345320288E-05
   8.771895002479983E-05   9.105820209570570E-05   9.452423860753787E-05
   9.812185183793375E-05   1.018560138212850E-04   1.057318830018296E-04
   1.097548111271875E-04   1.139303503906313E-04   1.182642608306736E-04
   1.227625179967991E-04   1.274313208904558E-04   1.322771001907091E-04
   1.373065267742415E-04   1.425265205396495E-04   1.479442595463614E-04
   1.535671894787117E-04   1.594030334461167E-04   1.654598021305310E-04
   1.717458042927663E-04   1.782696576495253E-04   1.850403001333763E-04
   1.920670015482355E-04   1.993593756332628E-04   2.069273925484368E-04
   2.147813917954335E-04   2.229320955877958E-04   2.313906226847748E-04
   2.401685027035421E-04   2.492776909249001E-04   2.587305836079909E-04
   2.685400338298218E-04   2.787193678659277E-04   2.892824021287420E-04
   3.002434606807265E-04   3.116173933396608E-04   3.234195943938528E-04
   3.356660219454441E-04   3.483732179003443E-04   3.615583286236962E-04
   3.752391262801183E-04   3.894340308783694E-04   4.041621330403895E-04
   4.194432175149943E-04   4.352977874568782E-04   4.517470894918040E-04
   4.688131395892213E-04   4.865187497637642E-04   5.048875556273618E-04
   5.239440448139025E-04   5.437135862985655E-04   5.642224606341262E-04
   5.854978911266477E-04   6.075680759730409E-04   6.304622213830854E-04
   6.542105757084036E-04   6.788444646009006E-04   7.043963272230675E-04
   7.308997535323362E-04   7.583895226614663E-04   7.869016424166438E-04
   8.164733899145413E-04   8.471433533791694E-04   8.789514751187629E-04
   9.119390957022342E-04   9.461489993540363E-04   9.816254605853280E-04
   1.018414292078308E-03   1.056562893839515E-03   1.096120303636464E-03
   1.137137248730672E-03   1.179666198918366E-03   1.223761420888513E-03
   1.269479033905665E-03   1.316877066823013E-03   1.366015516428609E-03
   1.416956407124937E-03   1.469763851939315E-03   1.524504114859194E-03
   1.581245674483099E-03   1.640059288974169E-03   1.701018062298985E-03
   1.764197511730199E-03   1.829675636586389E-03   1.897532988177496E-03
   1.967852740918560E-03   2.040720764568261E-03   2.116225697542487E-03
   2.194459021245831E-03   2.275515135356505E-03   2.359491433992111E-03
   2.446488382674708E-03   2.536609596004688E-03   2.629961915942664E-03
   2.726655490588032E-03   2.826803853331544E-03   2.930524002246825E-03
   3.037936479573181E-03   3.149165451127812E-03   3.264338785471171E-03
   3.383588132633457E-03   3.507049002193572E-03   3.634860840484381E-03
   3.767167106679412E-03   3.904115347496194E-03   4.045857270230701E-03
   4.192548813814945E-03   4.344350217566720E-03   4.501426087275320E-03
   4.663945458241359E-03   4.832081854861173E-03   5.006013346317246E-03
   5.185922597906037E-03   5.371996917502212E-03   5.564428296624969E-03
   5.763413445536950E-03   5.969153821769177E-03   6.181855651427350E-03
   6.401729942593954E-03   6.628992490099135E-03   6.863863870889236E-03
   7.106569429175993E-03   7.357339250502732E-03   7.616408123813784E-03
   7.884015490562973E-03   8.160405379843980E-03   8.445826328470749E-03
   8.740531284880310E-03   9.044777495672045E-03   9.358826373538376E-03
   9.682943345281032E-03   1.001739767854443E-02   1.036246228583511E-02
   1.071841350433103E-02   1.108553084991984E-02   1.146409674383931E-02
   1.185439621022650E-02   1.225671654281693E-02   1.267134693896836E-02
   1.309857809911873E-02   1.353870178972389E-02   1.399201036765756E-02
   1.445879626399628E-02   1.493935142505351E-02   1.543396670847262E-02
   1.594293123213876E-02   1.646653167362238E-02   1.700505151782903E-02
   1.755877025049527E-02   1.812796249514519E-02   1.871289709110573E-02
   1.931383611017053E-02   1.993103380950851E-02   2.056473551842813E-02
   2.121517645664138E-02   2.188258048171814E-02   2.256715876348560E-02
   2.326910838321385E-02   2.398861085553260E-02   2.472583057115517E-02
   2.548091315864115E-02   2.625398376361242E-02   2.704514524405396E-02
   2.785447628057765E-02   2.868202940081290E-02   2.952782891741259E-02
   3.039186877952752E-02   3.127411033801693E-02   3.217448002512042E-02
   3.309286694983059E-02   3.402912041077286E-02   3.498304732902356E-02
   3.595440960398864E-02   3.694292139621523E-02   3.794824634183264E-02
   3.896999470421297E-02   4.000772046940893E-02   4.106091839297601E-02
   4.212902100690979E-02   4.321139559664130E-02   4.430734115932658E-02
   4.541608535604509E-02   4.653678147199102E-02   4.766850540029129E-02
   4.881025266672423E-02   4.996093551433598E-02   5.111938006875344E-02
   5.228432360687647E-02   5.345441195358180E-02   5.462819703308965E-02
   5.580413460371694E-02   5.698058220685681E-02   5.815579736317715E-02
   5.932793605119357E-02   6.049505150553917E-02   6.165509337439665E-02
   6.280590727765212E-02   6.394523480935839E-02   6.507071403001068E-02
   6.617988049592215E-02   6.727016887459109E-02   6.833891519633595E-02
   6.938335979359776E-02   7.040065098010832E-02   7.138784952255615E-02
   7.234193395737744E-02   7.325980680479831E-02   7.413830173118993E-02
   7.497419170908752E-02   7.576419822180248E-02   7.650500155633501E-02
   7.719325222419225E-02   7.782558354465204E-02   7.839862541889212E-02
   7.890901931615164E-02   7.935343448461404E-02   7.972858538992160E-02
   8.003125037307642E-02   8.025829150687741E-02   8.040667561593556E-02
   8.047349640965078E-02   8.045599766029524E-02   8.035159733951988E-02
   8.015791260619912E-02   7.987278551659149E-02   7.949430930440197E-02
   7.902085505359199E-02   7.845109856085486E-02   7.778404715776140E-02
   7.701906623493779E-02   7.615590518258665E-02   7.519472243358356E-02
   7.413610926772453E-02   7.298111200900131E-02   7.173125222263387E-02
   7.038854449569169E-02   6.895551136526067E-02   6.743519494209452E-02
   6.583116476650190E-02   6.414752142783357E-02   6.238889548046041E-02
   6.056044119870886E-02   5.866782473200229E-02   5.671720625069542E-02
   5.471521571394138E-02   5.266892194459325E-02   5.058579476371669E-02
   4.847366001972300E-02   4.634064744529176E-02   4.419513138967529E-02
   4.204566460498255E-02   3.990090541256379E-02   3.776953873908920E-02
   3.566019169033299E-02   3.358134452228588E-02   3.154123807164031E-02
   2.954777891768611E-02   2.760844376102092E-02   2.573018471613112E-02
   2.391933741853902E-02   2.218153403552385E-02   2.052162343388496E-02
   1.894360088910691E-02   1.745054980688300E-02   1.604459795837763E-02
   1.472689069224465E-02   1.349758346596829E-02   1.235585582296076E-02
   1.129994861661485E-02   1.032722583533922E-02   9.434261802036204E-03
   8.616953798105884E-03   7.870659289466963E-03   7.190355907919999E-03
   6.570821168240839E-03   6.006827588983674E-03   5.493347450165841E-03
   5.025759890076944E-03   4.600051453268531E-03   4.212999601047977E-03
   3.862230167244574E-03   3.545633696411699E-03   3.261001267082175E-03
   3.006044936689323E-03   2.778420755128685E-03   2.575751970183116E-03
   2.395652018605587E-03   2.235746826563356E-03   2.093695870236223E-03
   1.967211373504973E-03   1.854074946647355E-03   1.752150899899552E-03
   1.659395400993913E-03   1.573860588765408E-03   1.493692708489092E-03
   1.417123301612033E-03   1.342452466171595E-03   1.268023207874114E-03
   1.192185928957867E-03   1.113252156446531E-03   1.029436696924013E-03
   9.387875254714961E-04   8.391028757820385E-04   7.292871450019778E-04
   6.137077803660684E-04   4.978974879888964E-04   3.869670709626405E-04
   2.854285800645284E-04   1.970070294343707E-04   1.244421773584081E-04
   6.928221851021377E-05   3.167159732209157E-05   1.013552877449087E-05
   1.364198177644660E-06  -1.110223024625157E-16   0.000000000000000E+00
   0.000000000000000E+00   0.000000000000000E+00   0.000000000000000E+00
   0.000000000000000E+00   0.000000000000000E+00   0.000000000000000E+00
   0.000000000000000E+00   0.000000000000000E+00   0.000000000000000E+00
   0.000000000000000E+00   0.000000000000000E+00   0.000000000000000E+00
   0.000000000000000E+00   0.000000000000000E+00   0.000000000000000E+00
   0.000000000000000E+00   0.000000000000000E+00   0.000000000000000E+00
   0.000000000000000E+00   0.000000000000000E+00   0.000000000000000E+00
   0.000000000000000E+00   0.000000000000000E+00   0.000000000000000E+00
   0.000000000000000E+00   0.000000000000000E+00   0.000000000000000E+00
   0.000000000000000E+00   0.000000000000000E+00   0.000000000000000E+00
   0.000000000000000E+00   0.000000000000000E+00   0.000000000000000E+00
   0.000000000000000E+00   0.000000000000000E+00   0.000000000000000E+00
   0.000000000000000E+00   0.000000000000000E+00   0.000000000000000E+00
   0.000000000000000E+00   0.000000000000000E+00   0.000000000000000E+00
   0.000000000000000E+00   0.000000000000000E+00   0.000000000000000E+00
   0.000000000000000E+00   0.000000000000000E+00   0.000000000000000E+00
   0.000000000000000E+00   0.000000000000000E+00   0.000000000000000E+00
   0.000000000000000E+00   0.000000000000000E+00   0.000000000000000E+00
   0.000000000000000E+00   0.000000000000000E+00   0.000000000000000E+00
   0.000000000000000E+00   0.000000000000000E+00   0.000000000000000E+00
   0.000000000000000E+00   0.000000000000000E+00   0.000000000000000E+00
   0.000000000000000E+00   0.000000000000000E+00   0.000000000000000E+00
   0.000000000000000E+00   0.000000000000000E+00   0.000000000000000E+00
   0.000000000000000E+00   0.000000000000000E+00   0.000000000000000E+00
   0.000000000000000E+00   0.000000000000000E+00   0.000000000000000E+00
   0.000000000000000E+00   0.000000000000000E+00   0.000000000000000E+00
   0.000000000000000E+00   0.000000000000000E+00   0.000000000000000E+00
   0.000000000000000E+00   0.000000000000000E+00   0.000000000000000E+00
   0.000000000000000E+00   0.000000000000000E+00   0.000000000000000E+00
   0.000000000000000E+00   0.000000000000000E+00   0.000000000000000E+00
   0.000000000000000E+00   0.000000000000000E+00   0.000000000000000E+00
   0.000000000000000E+00   0.000000000000000E+00   0.000000000000000E+00
   0.000000000000000E+00   0.000000000000000E+00   0.000000000000000E+00
   0.000000000000000E+00   0.000000000000000E+00   0.000000000000000E+00
   0.000000000000000E+00   0.000000000000000E+00   0.000000000000000E+00
   0.000000000000000E+00   0.000000000000000E+00   0.000000000000000E+00
   0.000000000000000E+00   0.000000000000000E+00   0.000000000000000E+00
   0.000000000000000E+00   0.000000000000000E+00   0.000000000000000E+00
   0.000000000000000E+00   0.000000000000000E+00   0.000000000000000E+00
   0.000000000000000E+00   0.000000000000000E+00   0.000000000000000E+00
   0.000000000000000E+00   0.000000000000000E+00   0.000000000000000E+00
   0.000000000000000E+00   0.000000000000000E+00   0.000000000000000E+00
   0.000000000000000E+00   0.000000000000000E+00   0.000000000000000E+00
   0.000000000000000E+00   0.000000000000000E+00   0.000000000000000E+00
   0.000000000000000E+00   0.000000000000000E+00   0.000000000000000E+00
   0.000000000000000E+00   0.000000000000000E+00   0.000000000000000E+00
   0.000000000000000E+00   0.000000000000000E+00   0.000000000000000E+00
   0.000000000000000E+00   0.000000000000000E+00   0.000000000000000E+00
   0.000000000000000E+00   0.000000000000000E+00   0.000000000000000E+00
   0.000000000000000E+00   0.000000000000000E+00   0.000000000000000E+00
   0.000000000000000E+00   0.000000000000000E+00   0.000000000000000E+00
   0.000000000000000E+00   0.000000000000000E+00   0.000000000000000E+00
   0.000000000000000E+00   0.000000000000000E+00   0.000000000000000E+00
   0.000000000000000E+00   0.000000000000000E+00   0.000000000000000E+00
   0.000000000000000E+00   0.000000000000000E+00   0.000000000000000E+00
   0.000000000000000E+00   0.000000000000000E+00   0.000000000000000E+00
   0.000000000000000E+00   0.000000000000000E+00   0.000000000000000E+00
   0.000000000000000E+00   0.000000000000000E+00   0.000000000000000E+00
   0.000000000000000E+00   0.000000000000000E+00   0.000000000000000E+00
   0.000000000000000E+00   0.000000000000000E+00   0.000000000000000E+00
   0.000000000000000E+00   0.000000000000000E+00   0.000000000000000E+00
   0.000000000000000E+00   0.000000000000000E+00   0.000000000000000E+00
   0.000000000000000E+00   0.000000000000000E+00   0.000000000000000E+00
   0.000000000000000E+00   0.000000000000000E+00   0.000000000000000E+00
   0.000000000000000E+00   0.000000000000000E+00   0.000000000000000E+00
   0.000000000000000E+00   0.000000000000000E+00   0.000000000000000E+00
   0.000000000000000E+00   0.000000000000000E+00   0.000000000000000E+00
   0.000000000000000E+00   0.000000000000000E+00   0.000000000000000E+00
   0.000000000000000E+00   0.000000000000000E+00   0.000000000000000E+00
   0.000000000000000E+00   0.000000000000000E+00   0.000000000000000E+00
   0.000000000000000E+00   0.000000000000000E+00   0.000000000000000E+00
   0.000000000000000E+00   0.000000000000000E+00   0.000000000000000E+00
   0.000000000000000E+00   0.000000000000000E+00   0.000000000000000E+00
   0.000000000000000E+00   0.000000000000000E+00   0.000000000000000E+00
   0.000000000000000E+00   0.000000000000000E+00   0.000000000000000E+00
   0.000000000000000E+00   0.000000000000000E+00   0.000000000000000E+00
   0.000000000000000E+00   0.000000000000000E+00   0.000000000000000E+00
   0.000000000000000E+00   0.000000000000000E+00   0.000000000000000E+00
   0.000000000000000E+00   0.000000000000000E+00   0.000000000000000E+00
   0.000000000000000E+00   0.000000000000000E+00   0.000000000000000E+00
   0.000000000000000E+00   0.000000000000000E+00   0.000000000000000E+00
   0.000000000000000E+00   0.000000000000000E+00   0.000000000000000E+00
   0.000000000000000E+00   0.000000000000000E+00   0.000000000000000E+00
   0.000000000000000E+00   0.000000000000000E+00   0.000000000000000E+00
   0.000000000000000E+00   0.000000000000000E+00   0.000000000000000E+00
   0.000000000000000E+00   0.000000000000000E+00   0.000000000000000E+00
   0.000000000000000E+00   0.000000000000000E+00   0.000000000000000E+00
   0.000000000000000E+00   0.000000000000000E+00   0.000000000000000E+00
   0.000000000000000E+00   0.000000000000000E+00   0.000000000000000E+00
   0.000000000000000E+00   0.000000000000000E+00   0.000000000000000E+00
   0.000000000000000E+00   0.000000000000000E+00   0.000000000000000E+00
   0.000000000000000E+00   0.000000000000000E+00   0.000000000000000E+00
   0.000000000000000E+00   0.000000000000000E+00   0.000000000000000E+00
   0.000000000000000E+00   0.000000000000000E+00   0.000000000000000E+00
   0.000000000000000E+00   0.000000000000000E+00   0.000000000000000E+00
   0.000000000000000E+00   0.000000000000000E+00   0.000000000000000E+00
   0.000000000000000E+00   0.000000000000000E+00   0.000000000000000E+00
   0.000000000000000E+00   0.000000000000000E+00   0.000000000000000E+00
   0.000000000000000E+00   0.000000000000000E+00   0.000000000000000E+00
   0.000000000000000E+00   0.000000000000000E+00   0.000000000000000E+00
   0.000000000000000E+00   0.000000000000000E+00   0.000000000000000E+00
   0.000000000000000E+00   0.000000000000000E+00   0.000000000000000E+00
   0.000000000000000E+00   0.000000000000000E+00   0.000000000000000E+00
   0.000000000000000E+00   0.000000000000000E+00   0.000000000000000E+00
   0.000000000000000E+00   0.000000000000000E+00   0.000000000000000E+00
   0.000000000000000E+00   0.000000000000000E+00   0.000000000000000E+00
   0.000000000000000E+00   0.000000000000000E+00   0.000000000000000E+00
   0.000000000000000E+00   0.000000000000000E+00   0.000000000000000E+00
   0.000000000000000E+00   0.000000000000000E+00   0.000000000000000E+00
   0.000000000000000E+00   0.000000000000000E+00   0.000000000000000E+00
   0.000000000000000E+00   0.000000000000000E+00   0.000000000000000E+00
   0.000000000000000E+00   0.000000000000000E+00   0.000000000000000E+00
   0.000000000000000E+00   0.000000000000000E+00   0.000000000000000E+00
   0.000000000000000E+00   0.000000000000000E+00
      </PP_QIJL.1.3.1>
      <PP_QIJL.1.4.1 first_index="1" second_index="4" composite_index="7" angular_momentum="1" size="1073">
   1.194714495225288E-11   1.240366916823250E-11   1.287763808286257E-11
   1.336971829270037E-11   1.388060186627502E-11   1.441100731742132E-11
   1.496168061580679E-11   1.553339623607288E-11   1.612695824706578E-11
   1.674320144268915E-11   1.738299251596839E-11   1.804723127797865E-11
   1.873685192335025E-11   1.945282434413140E-11   2.019615549385652E-11
   2.096789080373761E-11   2.176911565297153E-11   2.260095689523042E-11
   2.346458444348202E-11   2.436121291536953E-11   2.529210334146380E-11
   2.625856493879191E-11   2.726195695213496E-11   2.830369056568593E-11
   2.938523088775550E-11   3.050809901131662E-11   3.167387415328746E-11
   3.288419587555954E-11   3.414076639089591E-11   3.544535295694242E-11
   3.679979036171768E-11   3.820598350407932E-11   3.966591007279411E-11
   4.118162332798063E-11   4.275525498883623E-11   4.438901823170884E-11
   4.608521080273129E-11   4.784621824939519E-11   4.967451727560873E-11
   5.157267922495865E-11   5.354337369707224E-11   5.558937230216901E-11
   5.771355255908008E-11   5.991890194221750E-11   6.220852208318730E-11
   6.458563313295168E-11   6.705357829067931E-11   6.961582850565049E-11
   7.227598735883060E-11   7.503779613097836E-11   7.790513906441360E-11
   8.088204882584910E-11   8.397271217796564E-11   8.718147586770845E-11
   9.051285273958712E-11   9.397152808257335E-11   9.756236621952723E-11
   1.012904173484164E-10   1.051609246449498E-10   1.091793316366178E-10
   1.133512898585038E-10   1.176826668016409E-10   1.221795541650887E-10
   1.268482764233349E-10   1.316953997210748E-10   1.367277411078725E-10
   1.419523781256973E-10   1.473766587628154E-10   1.530082117880357E-10
   1.588549574798480E-10   1.649251187655354E-10   1.712272327859344E-10
   1.777701629021033E-10   1.845631111607840E-10   1.916156312361937E-10
   1.989376418663380E-10   2.065394408027532E-10   2.144317192932887E-10
   2.226255771183004E-10   2.311325382014031E-10   2.399645668167312E-10
   2.491340844155093E-10   2.586539870955901E-10   2.685376637385317E-10
   2.787990148397239E-10   2.894524720580370E-10   3.005130185124992E-10
   3.119962098545387E-10   3.239181961454275E-10   3.362957445697009E-10
   3.491462630164817E-10   3.624878245618906E-10   3.763391928869622E-10
   3.907198486668166E-10   4.056500169682048E-10   4.211506956939424E-10
   4.372436851142592E-10   4.539516185265747E-10   4.712979940868291E-10
   4.893072078571382E-10   5.080045881162332E-10   5.274164309809608E-10
   5.475700373889202E-10   5.684937514942614E-10   5.902170005306372E-10
   6.127703361973604E-10   6.361854776269889E-10   6.604953559947542E-10
   6.857341608325672E-10   7.119373881127445E-10   7.391418901690616E-10
   7.673859275253585E-10   7.967092227045689E-10   8.271530160938560E-10
   8.587601239444236E-10   8.915749985875461E-10   9.256437909515311E-10
   9.610144154675191E-10   9.977366174553924E-10   1.035862043084579E-09
   1.075444312008108E-09   1.116539092772094E-09   1.159204181106686E-09
   1.203499581208576E-09   1.249487590129398E-09   1.297232885388642E-09
   1.346802615934372E-09   1.398266496579593E-09   1.451696906047107E-09
   1.507168988760748E-09   1.564760760526098E-09   1.624553218249360E-09
   1.686630453848635E-09   1.751079772517825E-09   1.817991815509475E-09
   1.887460687609164E-09   1.959584089480799E-09   2.034463455068856E-09
   2.112204094250807E-09   2.192915340940376E-09   2.276710706849808E-09
   2.363708041127490E-09   2.454029696095328E-09   2.547802699318974E-09
   2.645158932252913E-09   2.746235315711526E-09   2.851174002427069E-09
   2.960122576965256E-09   3.073234263279590E-09   3.190668140196374E-09
   3.312589365133273E-09   3.439169406366182E-09   3.570586284170911E-09
   3.707024821178817E-09   3.848676902298430E-09   3.995741744568507E-09
   4.148426177322099E-09   4.306944933055470E-09   4.471520949410921E-09
   4.642385682698220E-09   4.819779433395307E-09   5.003951684086213E-09
   5.195161450311221E-09   5.393677644822605E-09   5.599779455758339E-09
   5.813756739265064E-09   6.035910427123116E-09   6.266552949945933E-09
   6.506008676549567E-09   6.754614370109845E-09   7.012719661748279E-09
   7.280687542213356E-09   7.558894872347625E-09   7.847732913059050E-09
   8.147607875541527E-09   8.458941492517843E-09   8.782171611309178E-09
   9.117752809563778E-09   9.466157034511587E-09   9.827874266643108E-09
   1.020341320874540E-08   1.059330200126481E-08   1.099808896500101E-08
   1.141834337217768E-08   1.185465624697323E-08   1.230764119663687E-08
   1.277793527435954E-08   1.326619987511136E-08   1.377312166570621E-08
   1.429941355040051E-08   1.484581567338329E-08   1.541309645956818E-08
   1.600205369514858E-08   1.661351564943687E-08   1.724834223956386E-08
   1.790742623967522E-08   1.859169453632656E-08   1.930210943183963E-08
   2.003966999745350E-08   2.080541347817251E-08   2.160041675128452E-08
   2.242579784060218E-08   2.328271748855280E-08   2.417238078832877E-08
   2.509603887839211E-08   2.605499070171366E-08   2.705058483222244E-08
   2.808422137102913E-08   2.915735391509112E-08   3.027149160108565E-08
   3.142820122736220E-08   3.262910945695941E-08   3.387590510477928E-08
   3.517034151213564E-08   3.651423901201340E-08   3.790948748850148E-08
   3.935804903399999E-08   4.086196070793108E-08   4.242333740083444E-08
   4.404437480787014E-08   4.572735251590616E-08   4.747463720853254E-08
   4.928868599350049E-08   5.117204985726582E-08   5.312737725149003E-08
   5.515741781653501E-08   5.726502624718935E-08   5.945316630605031E-08
   6.172491499020527E-08   6.408346685706531E-08   6.653213851542490E-08
   6.907437328806397E-08   7.171374605243357E-08   7.445396826623240E-08
   7.729889318493115E-08   8.025252127856995E-08   8.331900585544647E-08
   8.650265890058226E-08   8.980795713717739E-08   9.323954831956226E-08
   9.680225776648152E-08   1.005010951438957E-07   1.043412615068123E-07
   1.083281566100461E-07   1.124673864981699E-07   1.167647713853130E-07
   1.212263538358742E-07   1.258584072576322E-07   1.306674447191810E-07
   1.356602281040683E-07   1.408437776144858E-07   1.462253816378584E-07
   1.518126069901755E-07   1.576133095504493E-07   1.636356453012230E-07
   1.698880817906241E-07   1.763794100320548E-07   1.831187568582102E-07
   1.901155977467715E-07   1.973797701357647E-07   2.049214872472685E-07
   2.127513524388726E-07   2.208803741030139E-07   2.293199811350995E-07
   2.380820389921131E-07   2.471788663642267E-07   2.566232524828107E-07
   2.664284750891067E-07   2.766083190887727E-07   2.871770959184551E-07
   2.981496636515442E-07   3.095414478712855E-07   3.213684633406715E-07
   3.336473364989441E-07   3.463953288173231E-07   3.596303610453284E-07
   3.733710383829032E-07   3.876366766127208E-07   4.024473292299300E-07
   4.178238156068790E-07   4.337877502327261E-07   4.503615730683807E-07
   4.675685810597014E-07   4.854329608530969E-07   5.039798227588772E-07
   5.232352360106432E-07   5.432262653692905E-07   5.639810091236537E-07
   5.855286385403461E-07   6.078994388182946E-07   6.311248516054104E-07
   6.552375191365975E-07   6.802713300550120E-07   7.062614669807891E-07
   7.332444558935971E-07   7.612582173979403E-07   7.903421199434620E-07
   8.205370350739853E-07   8.518853947828889E-07   8.844312510555354E-07
   9.182203376800271E-07   9.533001344153910E-07   9.897199336046873E-07
   1.027530909327415E-06   1.066786189186255E-06   1.107540928830720E-06
   1.149852389319061E-06   1.193780017428977E-06   1.239385529026838E-06
   1.286732995614082E-06   1.335888934169631E-06   1.386922400413788E-06
   1.439905085626540E-06   1.494911417149483E-06   1.552018662717394E-06
   1.611307038762934E-06   1.672859822841464E-06   1.736763470339310E-06
   1.803107735623320E-06   1.871985797800828E-06   1.943494391267079E-06
   2.017733941219505E-06   2.094808704329829E-06   2.174826914766051E-06
   2.257900935771850E-06   2.344147417009492E-06   2.433687457888739E-06
   2.526646777106078E-06   2.623155888630339E-06   2.723350284379747E-06
   2.827370623843486E-06   2.935362930909356E-06   3.047478798173927E-06
   3.163875599013583E-06   3.284716707715310E-06   3.410171727968200E-06
   3.540416730034821E-06   3.675634496927759E-06   3.816014779935868E-06
   3.961754563849614E-06   4.113058342254004E-06   4.270138403270755E-06
   4.433215126141069E-06   4.602517289060902E-06   4.778282388693563E-06
   4.960756971797600E-06   5.150196979431781E-06   5.346868104204364E-06
   5.551046161066707E-06   5.763017472156109E-06   5.983079266217547E-06
   6.211540093153544E-06   6.448720254276311E-06   6.694952248845700E-06
   6.950581237507803E-06   7.215965523275676E-06   7.491477050701024E-06
   7.777501923929067E-06   8.074440944341191E-06   8.382710168521741E-06
   8.702741487309597E-06   9.034983226730228E-06   9.379900771621897E-06
   9.737977212809926E-06   1.010971401871065E-05   1.049563173227494E-05
   1.089627069422839E-05   1.131219179357782E-05   1.174397724641594E-05
   1.219223140407068E-05   1.265758159170228E-05   1.314067897846985E-05
   1.364219948046777E-05   1.416284469762450E-05   1.470334288584447E-05
   1.526444996570729E-05   1.584695056906353E-05   1.645165912495629E-05
   1.707942098631185E-05   1.773111359892114E-05   1.840764771427137E-05
   1.910996864785665E-05   1.983905758464591E-05   2.059593293345491E-05
   2.138165173202069E-05   2.219731110465770E-05   2.304404977442927E-05
   2.392304963183727E-05   2.483553736211680E-05   2.578278613328250E-05
   2.676611734716205E-05   2.778690245572013E-05   2.884656484507069E-05
   2.994658178964513E-05   3.108848647909238E-05   3.227387012054850E-05
   3.350438411903956E-05   3.478174233885418E-05   3.610772344882187E-05
   3.748417335456167E-05   3.891300772083801E-05   4.039621458729129E-05
   4.193585708092260E-05   4.353407622881385E-05   4.519309387471175E-05
   4.691521570319612E-05   4.870283437530752E-05   5.055843277962359E-05
   5.248458740292430E-05   5.448397182471133E-05   5.655936034000150E-05
   5.871363171496252E-05   6.094977308010148E-05   6.327088396589127E-05
   6.568018048586969E-05   6.818099967241352E-05   7.077680397056380E-05
   7.347118589546608E-05   7.626787285914570E-05   7.917073217254154E-05
   8.218377622892149E-05   8.531116787497168E-05   8.855722597607895E-05
   9.192643118252161E-05   9.542343190349555E-05   9.905305049611901E-05
   1.028202896767934E-04   1.067303391625038E-04   1.107885825499023E-04
   1.150006044402297E-04   1.193721978183970E-04   1.239093716947926E-04
   1.286183590186138E-04   1.335056248718142E-04   1.385778749530115E-04
   1.438420643609433E-04   1.493054066873929E-04   1.549753834297061E-04
   1.608597537333915E-04   1.669665644755074E-04   1.733041606998976E-04
   1.798811964155607E-04   1.867066457698274E-04   1.937898146082393E-04
   2.011403524333800E-04   2.087682647752012E-04   2.166839259857024E-04
   2.248980924711208E-04   2.334219163751191E-04   2.422669597267642E-04
   2.514452090673974E-04   2.609690905708222E-04   2.708514856715178E-04
   2.811057472159263E-04   2.917457161521615E-04   3.027857387737232E-04
   3.142406845332073E-04   3.261259644421607E-04   3.384575500735975E-04
   3.512519931839205E-04   3.645264459712251E-04   3.782986819872627E-04
   3.925871177204814E-04   4.074108348678603E-04   4.227896033133294E-04
   4.387439048308662E-04   4.552949575303562E-04   4.724647410645200E-04
   4.902760226152599E-04   5.087523836777945E-04   5.279182476610008E-04
   5.477989083223571E-04   5.684205590557421E-04   5.898103230503208E-04
   6.119962843384773E-04   6.350075197505808E-04   6.588741317940766E-04
   6.836272824739488E-04   7.092992280713100E-04   7.359233548961950E-04
   7.635342160301501E-04   7.921675690734840E-04   8.218604149111747E-04
   8.526510375106454E-04   8.845790447635262E-04   9.176854103823526E-04
   9.520125168619481E-04   9.876041995137306E-04   1.024505791579671E-03
   1.062764170430838E-03   1.102427804853575E-03   1.143546803424231E-03
   1.186172963971027E-03   1.230359824119179E-03   1.276162712912572E-03
   1.323638803502299E-03   1.372847166889135E-03   1.423848826703413E-03
   1.476706815001999E-03   1.531486229057889E-03   1.588254289113383E-03
   1.647080397063107E-03   1.708036196027750E-03   1.771195630773938E-03
   1.836635008929527E-03   1.904433062937099E-03   1.974671012681650E-03
   2.047432628720710E-03   2.122804296037554E-03   2.200875078229252E-03
   2.281736782032474E-03   2.365484022080065E-03   2.452214285771150E-03
   2.542027998126383E-03   2.635028586488320E-03   2.731322544914202E-03
   2.831019498095381E-03   2.934232264623220E-03   3.041076919406665E-03
   3.151672855030530E-03   3.266142841826913E-03   3.384613086414367E-03
   3.507213288440549E-03   3.634076695244493E-03   3.765340154133448E-03
   3.901144161947307E-03   4.041632911560532E-03   4.186954334946679E-03
   4.337260142405520E-03   4.492705857525139E-03   4.653450847423682E-03
   4.819658347785416E-03   4.991495482174872E-03   5.169133275080525E-03
   5.352746658105449E-03   5.542514468687206E-03   5.738619440692482E-03
   5.941248186193519E-03   6.150591167694192E-03   6.366842660031862E-03
   6.590200701138891E-03   6.820867030803587E-03   7.059047016524645E-03
   7.304949565507020E-03   7.558787021798260E-03   7.820775047515754E-03
   8.091132487064685E-03   8.370081213194753E-03   8.657845953692267E-03
   8.954654097450221E-03   9.260735478606157E-03   9.576322137383304E-03
   9.901648056216275E-03   1.023694886968940E-02   1.058246154676136E-02
   1.093842404369774E-02   1.130507492608131E-02   1.168265295821952E-02
   1.207139665822134E-02   1.247154381696937E-02   1.288333097917090E-02
   1.330699288463344E-02   1.374276186787462E-02   1.419086721414862E-02
   1.465153446994688E-02   1.512498470601479E-02   1.561143373091764E-02
   1.611109125318814E-02   1.662415999009983E-02   1.715083472112976E-02
   1.769130128420917E-02   1.824573551290771E-02   1.881430211275959E-02
   1.939715347502071E-02   1.999442842624337E-02   2.060625091217497E-02
   2.123272861462831E-02   2.187395150013634E-02   2.252999029939780E-02
   2.320089491673990E-02   2.388669276907688E-02   2.458738705412952E-02
   2.530295494799019E-02   2.603334573248092E-02   2.677847885315067E-02
   2.753824190920433E-02   2.831248857714780E-02   2.910103647047289E-02
   2.990366493830139E-02   3.072011280655279E-02   3.155007606590647E-02
   3.239320551159439E-02   3.324910434088536E-02   3.411732571501648E-02
   3.499737029328166E-02   3.588868374801457E-02   3.679065427029765E-02
   3.770261007739100E-02   3.862381693411214E-02   3.955347570169870E-02
   4.049071992905875E-02   4.143461350275245E-02   4.238414837354897E-02
   4.333824237896489E-02   4.429573718280414E-02   4.525539635438233E-02
   4.621590361181971E-02   4.717586125551675E-02   4.813378881967690E-02
   4.908812197149037E-02   5.003721168933494E-02   5.097932375305863E-02
   5.191263858106616E-02   5.283525145051667E-02   5.374517313841917E-02
   5.464033102276346E-02   5.551857068401049E-02   5.637765804825033E-02
   5.721528211408274E-02   5.802905830573563E-02   5.881653249506898E-02
   5.957518573486269E-02   6.030243974510230E-02   6.099566319280344E-02
   6.165217880418783E-02   6.226927134568416E-02   6.284419650720709E-02
   6.337419071740170E-02   6.385648191596345E-02   6.428830130268254E-02
   6.466689607645561E-02   6.498954317008948E-02   6.525356397823169E-02
   6.545634006614595E-02   6.559532983626007E-02   6.566808611741266E-02
   6.567227462848410E-02   6.560569325361156E-02   6.546629205045892E-02
   6.525219389607310E-02   6.496171565675787E-02   6.459338974922076E-02
   6.414598594010751E-02   6.361853321008439E-02   6.301034148705588E-02
   6.232102303114249E-02   6.155051323198317E-02   6.069909055710475E-02
   5.976739536890591E-02   5.875644730770010E-02   5.766766091975196E-02
   5.650285919290949E-02   5.526428464892300E-02   5.395460763153521E-02
   5.257693142370017E-02   5.113479382663597E-02   4.963216483868521E-02
   4.807344008404341E-02   4.646342966118354E-02   4.480734210917726E-02
   4.311076322792464E-02   4.137962953636472E-02   3.962019621178542E-02
   3.783899942391832E-02   3.604281306006700E-02   3.423859993220274E-02
   3.243345766371779E-02   3.063455957191645E-02   2.884909099148924E-02
   2.708418162289901E-02   2.534683463592055E-02   2.364385341010077E-02
   2.198176694752651E-02   2.036675514512442E-02   1.880457525919871E-02
   1.730049102855466E-02   1.585920603813861E-02   1.448480299558289E-02
   1.318069065052773E-02   1.194956010265782E-02   1.079335220995593E-02
   9.713237714419362E-03   8.709611538936270E-03   7.782102466991929E-03
   6.929599087866129E-03   6.150292466634809E-03   5.441735475037950E-03
   4.800918093017709E-03   4.224357261558537E-03   3.708199039611362E-03
   3.248329900540518E-03   2.840493011904265E-03   2.480404298587448E-03
   2.163862023368733E-03   1.886842569705470E-03   1.645574127058017E-03
   1.436777718772597E-03   1.258134446003978E-03   1.107455302350513E-03
   9.824672513291111E-04   8.808341950606868E-04   8.001784888833074E-04
   7.381027014726760E-04   6.922112647175238E-04   6.601316002770585E-04
   6.395342520175151E-04   6.281514968413116E-04   6.237938525581743E-04
   6.243638523261708E-04   6.278664127785660E-04   6.324150895598013E-04
   6.362334918872947E-04   6.376511195219092E-04   6.350928937765565E-04
   6.270616817087293E-04   6.121131622604525E-04   5.888224577711987E-04
   5.557420568672589E-04   5.113506880636276E-04   4.550658563675092E-04
   3.904346658617497E-04   3.218926053971116E-04   2.535768984603393E-04
   1.891913347504826E-04   1.318630997785286E-04   8.399295000038887E-05
   4.710036104454973E-05   2.166556753957494E-05   6.970711197484825E-06
   9.426149538693807E-07  -5.551115123125783E-17   0.000000000000000E+00
   0.000000000000000E+00   0.000000000000000E+00   0.000000000000000E+00
   0.000000000000000E+00   0.000000000000000E+00   0.000000000000000E+00
   0.000000000000000E+00   0.000000000000000E+00   0.000000000000000E+00
   0.000000000000000E+00   0.000000000000000E+00   0.000000000000000E+00
   0.000000000000000E+00   0.000000000000000E+00   0.000000000000000E+00
   0.000000000000000E+00   0.000000000000000E+00   0.000000000000000E+00
   0.000000000000000E+00   0.000000000000000E+00   0.000000000000000E+00
   0.000000000000000E+00   0.000000000000000E+00   0.000000000000000E+00
   0.000000000000000E+00   0.000000000000000E+00   0.000000000000000E+00
   0.000000000000000E+00   0.000000000000000E+00   0.000000000000000E+00
   0.000000000000000E+00   0.000000000000000E+00   0.000000000000000E+00
   0.000000000000000E+00   0.000000000000000E+00   0.000000000000000E+00
   0.000000000000000E+00   0.000000000000000E+00   0.000000000000000E+00
   0.000000000000000E+00   0.000000000000000E+00   0.000000000000000E+00
   0.000000000000000E+00   0.000000000000000E+00   0.000000000000000E+00
   0.000000000000000E+00   0.000000000000000E+00   0.000000000000000E+00
   0.000000000000000E+00   0.000000000000000E+00   0.000000000000000E+00
   0.000000000000000E+00   0.000000000000000E+00   0.000000000000000E+00
   0.000000000000000E+00   0.000000000000000E+00   0.000000000000000E+00
   0.000000000000000E+00   0.000000000000000E+00   0.000000000000000E+00
   0.000000000000000E+00   0.000000000000000E+00   0.000000000000000E+00
   0.000000000000000E+00   0.000000000000000E+00   0.000000000000000E+00
   0.000000000000000E+00   0.000000000000000E+00   0.000000000000000E+00
   0.000000000000000E+00   0.000000000000000E+00   0.000000000000000E+00
   0.000000000000000E+00   0.000000000000000E+00   0.000000000000000E+00
   0.000000000000000E+00   0.000000000000000E+00   0.000000000000000E+00
   0.000000000000000E+00   0.000000000000000E+00   0.000000000000000E+00
   0.000000000000000E+00   0.000000000000000E+00   0.000000000000000E+00
   0.000000000000000E+00   0.000000000000000E+00   0.000000000000000E+00
   0.000000000000000E+00   0.000000000000000E+00   0.000000000000000E+00
   0.000000000000000E+00   0.000000000000000E+00   0.000000000000000E+00
   0.000000000000000E+00   0.000000000000000E+00   0.000000000000000E+00
   0.000000000000000E+00   0.000000000000000E+00   0.000000000000000E+00
   0.000000000000000E+00   0.000000000000000E+00   0.000000000000000E+00
   0.000000000000000E+00   0.000000000000000E+00   0.000000000000000E+00
   0.000000000000000E+00   0.000000000000000E+00   0.000000000000000E+00
   0.000000000000000E+00   0.000000000000000E+00   0.000000000000000E+00
   0.000000000000000E+00   0.000000000000000E+00   0.000000000000000E+00
   0.000000000000000E+00   0.000000000000000E+00   0.000000000000000E+00
   0.000000000000000E+00   0.000000000000000E+00   0.000000000000000E+00
   0.000000000000000E+00   0.000000000000000E+00   0.000000000000000E+00
   0.000000000000000E+00   0.000000000000000E+00   0.000000000000000E+00
   0.000000000000000E+00   0.000000000000000E+00   0.000000000000000E+00
   0.000000000000000E+00   0.000000000000000E+00   0.000000000000000E+00
   0.000000000000000E+00   0.000000000000000E+00   0.000000000000000E+00
   0.000000000000000E+00   0.000000000000000E+00   0.000000000000000E+00
   0.000000000000000E+00   0.000000000000000E+00   0.000000000000000E+00
   0.000000000000000E+00   0.000000000000000E+00   0.000000000000000E+00
   0.000000000000000E+00   0.000000000000000E+00   0.000000000000000E+00
   0.000000000000000E+00   0.000000000000000E+00   0.000000000000000E+00
   0.000000000000000E+00   0.000000000000000E+00   0.000000000000000E+00
   0.000000000000000E+00   0.000000000000000E+00   0.000000000000000E+00
   0.000000000000000E+00   0.000000000000000E+00   0.000000000000000E+00
   0.000000000000000E+00   0.000000000000000E+00   0.000000000000000E+00
   0.000000000000000E+00   0.000000000000000E+00   0.000000000000000E+00
   0.000000000000000E+00   0.000000000000000E+00   0.000000000000000E+00
   0.000000000000000E+00   0.000000000000000E+00   0.000000000000000E+00
   0.000000000000000E+00   0.000000000000000E+00   0.000000000000000E+00
   0.000000000000000E+00   0.000000000000000E+00   0.000000000000000E+00
   0.000000000000000E+00   0.000000000000000E+00   0.000000000000000E+00
   0.000000000000000E+00   0.000000000000000E+00   0.000000000000000E+00
   0.000000000000000E+00   0.000000000000000E+00   0.000000000000000E+00
   0.000000000000000E+00   0.000000000000000E+00   0.000000000000000E+00
   0.000000000000000E+00   0.000000000000000E+00   0.000000000000000E+00
   0.000000000000000E+00   0.000000000000000E+00   0.000000000000000E+00
   0.000000000000000E+00   0.000000000000000E+00   0.000000000000000E+00
   0.000000000000000E+00   0.000000000000000E+00   0.000000000000000E+00
   0.000000000000000E+00   0.000000000000000E+00   0.000000000000000E+00
   0.000000000000000E+00   0.000000000000000E+00   0.000000000000000E+00
   0.000000000000000E+00   0.000000000000000E+00   0.000000000000000E+00
   0.000000000000000E+00   0.000000000000000E+00   0.000000000000000E+00
   0.000000000000000E+00   0.000000000000000E+00   0.000000000000000E+00
   0.000000000000000E+00   0.000000000000000E+00   0.000000000000000E+00
   0.000000000000000E+00   0.000000000000000E+00   0.000000000000000E+00
   0.000000000000000E+00   0.000000000000000E+00   0.000000000000000E+00
   0.000000000000000E+00   0.000000000000000E+00   0.000000000000000E+00
   0.000000000000000E+00   0.000000000000000E+00   0.000000000000000E+00
   0.000000000000000E+00   0.000000000000000E+00   0.000000000000000E+00
   0.000000000000000E+00   0.000000000000000E+00   0.000000000000000E+00
   0.000000000000000E+00   0.000000000000000E+00   0.000000000000000E+00
   0.000000000000000E+00   0.000000000000000E+00   0.000000000000000E+00
   0.000000000000000E+00   0.000000000000000E+00   0.000000000000000E+00
   0.000000000000000E+00   0.000000000000000E+00   0.000000000000000E+00
   0.000000000000000E+00   0.000000000000000E+00   0.000000000000000E+00
   0.000000000000000E+00   0.000000000000000E+00   0.000000000000000E+00
   0.000000000000000E+00   0.000000000000000E+00   0.000000000000000E+00
   0.000000000000000E+00   0.000000000000000E+00   0.000000000000000E+00
   0.000000000000000E+00   0.000000000000000E+00   0.000000000000000E+00
   0.000000000000000E+00   0.000000000000000E+00   0.000000000000000E+00
   0.000000000000000E+00   0.000000000000000E+00   0.000000000000000E+00
   0.000000000000000E+00   0.000000000000000E+00   0.000000000000000E+00
   0.000000000000000E+00   0.000000000000000E+00   0.000000000000000E+00
   0.000000000000000E+00   0.000000000000000E+00   0.000000000000000E+00
   0.000000000000000E+00   0.000000000000000E+00   0.000000000000000E+00
   0.000000000000000E+00   0.000000000000000E+00   0.000000000000000E+00
   0.000000000000000E+00   0.000000000000000E+00   0.000000000000000E+00
   0.000000000000000E+00   0.000000000000000E+00   0.000000000000000E+00
   0.000000000000000E+00   0.000000000000000E+00   0.000000000000000E+00
   0.000000000000000E+00   0.000000000000000E+00   0.000000000000000E+00
   0.000000000000000E+00   0.000000000000000E+00   0.000000000000000E+00
   0.000000000000000E+00   0.000000000000000E+00   0.000000000000000E+00
   0.000000000000000E+00   0.000000000000000E+00   0.000000000000000E+00
   0.000000000000000E+00   0.000000000000000E+00   0.000000000000000E+00
   0.000000000000000E+00   0.000000000000000E+00   0.000000000000000E+00
   0.000000000000000E+00   0.000000000000000E+00   0.000000000000000E+00
   0.000000000000000E+00   0.000000000000000E+00   0.000000000000000E+00
   0.000000000000000E+00   0.000000000000000E+00   0.000000000000000E+00
   0.000000000000000E+00   0.000000000000000E+00   0.000000000000000E+00
   0.000000000000000E+00   0.000000000000000E+00   0.000000000000000E+00
   0.000000000000000E+00   0.000000000000000E+00   0.000000000000000E+00
   0.000000000000000E+00   0.000000000000000E+00   0.000000000000000E+00
   0.000000000000000E+00   0.000000000000000E+00   0.000000000000000E+00
   0.000000000000000E+00   0.000000000000000E+00   0.000000000000000E+00
   0.000000000000000E+00   0.000000000000000E+00
      </PP_QIJL.1.4.1>
      <PP_QIJL.2.2.0 first_index="2" second_index="2" composite_index="3" angular_momentum="0" size="1073">
  -3.582293504462991E-08  -3.672979689710102E-08  -3.765961606329680E-08
  -3.861297371020825E-08  -3.959046571713013E-08  -4.059270304810395E-08
  -4.162031213378971E-08  -4.267393526300489E-08  -4.375423098417482E-08
  -4.486187451694647E-08  -4.599755817422144E-08  -4.716199179487324E-08
  -4.835590318741891E-08  -4.958003858492177E-08  -5.083516311141079E-08
  -5.212206126010635E-08  -5.344153738375313E-08  -5.479441619736555E-08
  -5.618154329370009E-08  -5.760378567177730E-08  -5.906203227878246E-08
  -6.055719456568535E-08  -6.209020705692504E-08  -6.366202793451647E-08
  -6.527363963694409E-08  -6.692604947321512E-08  -6.862029025245945E-08
  -7.035742092946650E-08  -7.213852726656423E-08  -7.396472251225433E-08
  -7.583714809702552E-08  -7.775697434678298E-08  -7.972540121433719E-08
  -8.174365902941089E-08  -8.381300926763261E-08  -8.593474533899645E-08
  -8.811019339628247E-08  -9.034071316394227E-08  -9.262769878796704E-08
  -9.497257970727139E-08  -9.737682154713413E-08  -9.984192703525854E-08
  -1.023694369410217E-07  -1.049609310385004E-07  -1.076180290938782E-07
  -1.103423918778450E-07  -1.131357222036289E-07  -1.159997659913040E-07
  -1.189363133590416E-07  -1.219471997419865E-07  -1.250343070394567E-07
  -1.281995647911853E-07  -1.314449513833389E-07  -1.347724952850654E-07
  -1.381842763163464E-07  -1.416824269479429E-07  -1.452691336342512E-07
  -1.489466381798987E-07  -1.527172391409352E-07  -1.565832932614962E-07
  -1.605472169468324E-07  -1.646114877736319E-07  -1.687786460385743E-07
  -1.730512963460862E-07  -1.774321092362921E-07  -1.819238228541739E-07
  -1.865292446609872E-07  -1.912512531890011E-07  -1.960927998406583E-07
  -2.010569107332826E-07  -2.061466885904813E-07  -2.113653146814319E-07
  -2.167160508092590E-07  -2.222022413497468E-07  -2.278273153416637E-07
  -2.335947886299984E-07  -2.395082660634548E-07  -2.455714437475759E-07
  -2.517881113549032E-07  -2.581621544936201E-07  -2.646975571361518E-07
  -2.713984041092502E-07  -2.782688836471111E-07  -2.853132900091231E-07
  -2.925360261638865E-07  -2.999416065411728E-07  -3.075346598535528E-07
  -3.153199319894528E-07  -3.233022889794446E-07  -3.314867200376312E-07
  -3.398783406800180E-07  -3.484823959218281E-07  -3.573042635557562E-07
  -3.663494575132079E-07  -3.756236313106316E-07  -3.851325815830853E-07
  -3.948822517072623E-07  -4.048787355162264E-07  -4.151282811081851E-07
  -4.256372947516837E-07  -4.364123448896494E-07  -4.474601662448027E-07
  -4.587876640289917E-07  -4.704019182590842E-07  -4.823101881821153E-07
  -4.945199168124498E-07  -5.070387355838058E-07  -5.198744691190381E-07
  -5.330351401206667E-07  -5.465289743852062E-07  -5.603644059444244E-07
  -5.745500823367560E-07  -5.890948700121509E-07  -6.040078598737468E-07
  -6.192983729598240E-07  -6.349759662695907E-07  -6.510504387364449E-07
  -6.675318373524485E-07  -6.844304634478293E-07  -7.017568791294511E-07
  -7.195219138822575E-07  -7.377366713378341E-07  -7.564125362143035E-07
  -7.755611814319014E-07  -7.951945754086749E-07  -8.153249895408559E-07
  -8.359650058726038E-07  -8.571275249598894E-07  -8.788257739334470E-07
  -9.010733147658357E-07  -9.238840527477566E-07  -9.472722451789507E-07
  -9.712525102790885E-07  -9.958398363242285E-07  -1.021049591014557E-06
  -1.046897531079245E-06  -1.073399812124448E-06  -1.100572998730598E-06
  -1.128434074805275E-06  -1.157000454198171E-06  -1.186289991584718E-06
  -1.216320993625254E-06  -1.247112230406639E-06  -1.278682947173501E-06
  -1.311052876356449E-06  -1.344242249904731E-06  -1.378271811931098E-06
  -1.413162831676728E-06  -1.448937116804335E-06  -1.485617027027780E-06
  -1.523225488086655E-06  -1.561786006074628E-06  -1.601322682130473E-06
  -1.641860227500959E-06  -1.683423978985037E-06  -1.726039914768935E-06
  -1.769734670662096E-06  -1.814535556744085E-06  -1.860470574432855E-06
  -1.907568433985078E-06  -1.955858572439406E-06  -2.005371172013945E-06
  -2.056137178969404E-06  -2.108188322949683E-06  -2.161557136812057E-06
  -2.216276976959218E-06  -2.272382044186056E-06  -2.329907405054014E-06
  -2.388889013806513E-06  -2.449363734839088E-06  -2.511369365738223E-06
  -2.574944660903416E-06  -2.640129355767050E-06  -2.706964191627359E-06
  -2.775490941109936E-06  -2.845752434273623E-06  -2.917792585377290E-06
  -2.991656420323960E-06  -3.067390104799648E-06  -3.145040973124392E-06
  -3.224657557833449E-06  -3.306289620007314E-06  -3.389988180369262E-06
  -3.475805551170059E-06  -3.563795368879648E-06  -3.654012627706171E-06
  -3.746513713963504E-06  -3.841356441308433E-06  -3.938600086869771E-06
  -4.038305428291853E-06  -4.140534781715471E-06  -4.245352040720234E-06
  -4.352822716252304E-06  -4.463013977562780E-06  -4.575994694182144E-06
  -4.691835478956880E-06  -4.810608732175464E-06  -4.932388686810884E-06
  -5.057251454908241E-06  -5.185275075146329E-06  -5.316539561602691E-06
  -5.451126953753028E-06  -5.589121367735677E-06  -5.730609048913573E-06
  -5.875678425766336E-06  -6.024420165146033E-06  -6.176927228931464E-06
  -6.333294932115879E-06  -6.493621002364761E-06  -6.658005641080758E-06
  -6.826551586013663E-06  -6.999364175454995E-06  -7.176551414056718E-06
  -7.358224040315591E-06  -7.544495595765150E-06  -7.735482495918282E-06
  -7.931304103005207E-06  -8.132082800551603E-06  -8.337944069843973E-06
  -8.549016568329727E-06  -8.765432210000764E-06  -8.987326247811204E-06
  -9.214837358180094E-06  -9.448107727632248E-06  -9.687283141631225E-06
  -9.932513075659515E-06  -1.018395078860346E-05  -1.044175341850037E-05
  -1.070608208070813E-05  -1.097710196855843E-05  -1.125498245655607E-05
  -1.153989720618940E-05  -1.183202427441703E-05  -1.213154622489919E-05
  -1.243865024204291E-05  -1.275352824793168E-05  -1.307637702221348E-05
  -1.340739832502084E-05  -1.374679902300041E-05  -1.409479121853032E-05
  -1.445159238220550E-05  -1.481742548867463E-05  -1.519251915591197E-05
  -1.557710778801209E-05  -1.597143172159594E-05  -1.637573737591946E-05
  -1.679027740677861E-05  -1.721531086430639E-05  -1.765110335476036E-05
  -1.809792720640157E-05  -1.855606163956788E-05  -1.902579294104799E-05
  -1.950741464286460E-05  -2.000122770557814E-05  -2.050754070622519E-05
  -2.102667003100861E-05  -2.155894007285952E-05  -2.210468343399376E-05
  -2.266424113358947E-05  -2.323796282071475E-05  -2.382620699263767E-05
  -2.442934121865529E-05  -2.504774236958008E-05  -2.568179685302721E-05
  -2.633190085464878E-05  -2.699846058546501E-05  -2.768189253544660E-05
  -2.838262373350544E-05  -2.910109201405584E-05  -2.983774629031180E-05
  -3.059304683449009E-05  -3.136746556509379E-05  -3.216148634145420E-05
  -3.297560526571465E-05  -3.381033099244391E-05  -3.466618504607088E-05
  -3.554370214633873E-05  -3.644343054197968E-05  -3.736593235281814E-05
  -3.831178392051484E-05  -3.928157616816872E-05  -4.027591496900101E-05
  -4.129542152434924E-05  -4.234073275120632E-05  -4.341250167954496E-05
  -4.451139785967341E-05  -4.563810777987611E-05  -4.679333529459675E-05
  -4.797780206343052E-05  -4.919224800119688E-05  -5.043743173937135E-05
  -5.171413109916326E-05  -5.302314357653101E-05  -5.436528683943638E-05
  -5.574139923764509E-05  -5.715234032538858E-05  -5.859899139721172E-05
  -6.008225603733633E-05  -6.160306068288126E-05  -6.316235520128705E-05
  -6.476111348230111E-05  -6.640033404489074E-05  -6.808104065945703E-05
  -6.980428298573540E-05  -7.157113722677566E-05  -7.338270679940490E-05
  -7.524012302158781E-05  -7.714454581710700E-05  -7.909716443799885E-05
  -8.109919820518931E-05  -8.315189726778575E-05  -8.525654338149365E-05
  -8.741445070663517E-05  -8.962696662626231E-05  -9.189547258486767E-05
  -9.422138494820689E-05  -9.660615588476349E-05  -9.905127426939508E-05
  -1.015582666097175E-04  -1.041286979957954E-04  -1.067641730737196E-04
  -1.094663370436716E-04  -1.122368766830833E-04  -1.150775213955214E-04
  -1.179900442859365E-04  -1.209762632629370E-04  -1.240380421687587E-04
  -1.271772919376234E-04  -1.303959717831938E-04  -1.336960904158468E-04
  -1.370797072905131E-04  -1.405489338858362E-04  -1.441059350154384E-04
  -1.477529301720867E-04  -1.514921949055780E-04  -1.553260622351831E-04
  -1.592569240975033E-04  -1.632872328306247E-04  -1.674195026954656E-04
  -1.716563114352419E-04  -1.760003018739954E-04  -1.804541835551489E-04
  -1.850207344210848E-04  -1.897028025347582E-04  -1.945033078443833E-04
  -1.994252439922622E-04  -2.044716801688390E-04  -2.096457630131019E-04
  -2.149507185604738E-04  -2.203898542393596E-04  -2.259665609175550E-04
  -2.316843149997336E-04  -2.375466805772796E-04  -2.435573116317451E-04
  -2.497199542932517E-04  -2.560384491551830E-04  -2.625167336465486E-04
  -2.691588444634329E-04  -2.759689200609735E-04  -2.829512032073495E-04
  -2.901100436012964E-04  -2.974499005546913E-04  -3.049753457418050E-04
  -3.126910660168370E-04  -3.206018663013964E-04  -3.287126725436328E-04
  -3.370285347507485E-04  -3.455546300966814E-04  -3.542962661067720E-04
  -3.632588839212812E-04  -3.724480616396646E-04  -3.818695177475454E-04
  -3.915291146283920E-04  -4.014328621619260E-04  -4.115869214113559E-04
  -4.219976084015646E-04  -4.326713979904256E-04  -4.436149278354892E-04
  -4.548350024583073E-04  -4.663385974087301E-04  -4.781328635315605E-04
  -4.902251313379909E-04  -5.026229154843190E-04  -5.153339193604818E-04
  -5.283660397910056E-04  -5.417273718510259E-04  -5.554262138000918E-04
  -5.694710721365185E-04  -5.838706667751257E-04  -5.986339363512465E-04
  -6.137700436539595E-04  -6.292883811915579E-04  -6.451985768923256E-04
  -6.615104999437722E-04  -6.782342667735223E-04  -6.953802471751337E-04
  -7.129590705821851E-04  -7.309816324940291E-04  -7.494591010566977E-04
  -7.684029238024935E-04  -7.878248345518842E-04  -8.077368604813846E-04
  -8.281513293611734E-04  -8.490808769662914E-04  -8.705384546653009E-04
  -8.925373371903964E-04  -9.150911305930111E-04  -9.382137803890325E-04
  -9.619195798978460E-04  -9.862231787794646E-04  -1.011139591774100E-03
  -1.036684207648613E-03  -1.062872798354317E-03  -1.089721528400755E-03
  -1.117246964450069E-03  -1.145466085136727E-03  -1.174396291117398E-03
  -1.204055415355859E-03  -1.234461733647914E-03  -1.265633975391346E-03
  -1.297591334606022E-03  -1.330353481209347E-03  -1.363940572552292E-03
  -1.398373265221371E-03  -1.433672727111942E-03  -1.469860649778306E-03
  -1.506959261066167E-03  -1.544991338033003E-03  -1.583980220162079E-03
  -1.623949822875801E-03  -1.664924651354185E-03  -1.706929814664327E-03
  -1.749991040206718E-03  -1.794134688484398E-03  -1.839387768200911E-03
  -1.885777951693103E-03  -1.933333590704846E-03  -1.982083732507737E-03
  -2.032058136374983E-03  -2.083287290414550E-03  -2.135802428767765E-03
  -2.189635549179563E-03  -2.244819430946491E-03  -2.301387653248715E-03
  -2.359374613872109E-03  -2.418815548326584E-03  -2.479746549366771E-03
  -2.542204586921023E-03  -2.606227528434831E-03  -2.671854159634500E-03
  -2.739124205716975E-03  -2.808078352971553E-03  -2.878758270839095E-03
  -2.951206634414318E-03  -3.025467147396517E-03  -3.101584565493924E-03
  -3.179604720286816E-03  -3.259574543554111E-03  -3.341542092068260E-03
  -3.425556572862679E-03  -3.511668368975960E-03  -3.599929065676698E-03
  -3.690391477172411E-03  -3.783109673805872E-03  -3.878139009741590E-03
  -3.975536151144892E-03  -4.075359104855658E-03  -4.177667247558092E-03
  -4.282521355447724E-03  -4.389983634395962E-03  -4.500117750612144E-03
  -4.612988861802336E-03  -4.728663648823345E-03  -4.847210347829939E-03
  -4.968698782912162E-03  -5.093200399219055E-03  -5.220788296564098E-03
  -5.351537263506612E-03  -5.485523811902653E-03  -5.622826211917481E-03
  -5.763524527490762E-03  -5.907700652244397E-03  -6.055438345821352E-03
  -6.206823270642834E-03  -6.361943029069307E-03  -6.520887200949451E-03
  -6.683747381539515E-03  -6.850617219773496E-03  -7.021592456863087E-03
  -7.196770965203899E-03  -7.376252787562667E-03  -7.560140176517753E-03
  -7.748537634122792E-03  -7.941551951761102E-03  -8.139292250155514E-03
  -8.341870019495564E-03  -8.549399159641147E-03  -8.761996020358240E-03
  -8.979779441539505E-03  -9.202870793358535E-03  -9.431394016303158E-03
  -9.665475661029290E-03  -9.905244927972377E-03  -1.015083370664966E-02
  -1.040237661458166E-02  -1.066001103575608E-02  -1.092387715855336E-02
  -1.119411801304618E-02  -1.147087950758136E-02  -1.175431046454531E-02
  -1.204456265520866E-02  -1.234179083353914E-02  -1.264615276886465E-02
  -1.295780927726167E-02  -1.327692425153620E-02  -1.360366468965686E-02
  -1.393820072149119E-02  -1.428070563368754E-02  -1.463135589253596E-02
  -1.499033116463176E-02  -1.535781433515533E-02  -1.573399152357152E-02
  -1.611905209654035E-02  -1.651318867782033E-02  -1.691659715493237E-02
  -1.732947668234049E-02  -1.775202968089236E-02  -1.818446183324813E-02
  -1.862698207501308E-02  -1.907980258127297E-02  -1.954313874821679E-02
  -2.001720916951422E-02  -2.050223560709866E-02  -2.099844295598899E-02
  -2.150605920276435E-02  -2.202531537728751E-02  -2.255644549725224E-02
  -2.309968650510886E-02  -2.365527819690180E-02  -2.422346314252905E-02
  -2.480448659691150E-02  -2.539859640153529E-02  -2.600604287580522E-02
  -2.662707869762254E-02  -2.726195877257219E-02  -2.791094009107804E-02
  -2.857428157285597E-02  -2.925224389796441E-02  -2.994508932372295E-02
  -3.065308148673741E-02  -3.137648518923784E-02  -3.211556616890357E-02
  -3.287059085131417E-02  -3.364182608413255E-02  -3.442953885208930E-02
  -3.523399597180168E-02  -3.605546376542462E-02  -3.689420771209169E-02
  -3.775049207606821E-02  -3.862457951049825E-02  -3.951673063558883E-02
  -4.042720359003604E-02  -4.135625355445655E-02  -4.230413224555055E-02
  -4.327108737968113E-02  -4.425736210451639E-02  -4.526319439734231E-02
  -4.628881642861472E-02  -4.733445388928444E-02  -4.840032528039010E-02
  -4.948664116338152E-02  -5.059360336960225E-02  -5.172140416732843E-02
  -5.287022538473603E-02  -5.404023748713919E-02  -5.523159860682357E-02
  -5.644445352377991E-02  -5.767893259562784E-02  -5.893515063501487E-02
  -6.021320573276946E-02  -6.151317802509314E-02  -6.283512840308687E-02
  -6.417909716292494E-02  -6.554510259502087E-02  -6.693313951056401E-02
  -6.834317770385812E-02  -6.977516034895298E-02  -7.122900232913447E-02
  -7.270458849793102E-02  -7.420177187039789E-02  -7.572037174356508E-02
  -7.726017174508035E-02  -7.882091780923872E-02  -8.040231607978438E-02
  -8.200403073907708E-02  -8.362568176346008E-02  -8.526684260493470E-02
  -8.692703779954694E-02  -8.860574050323194E-02  -9.030236995623067E-02
  -9.201628887760964E-02  -9.374680079187049E-02  -9.549314729013675E-02
  -9.725450522895951E-02  -9.902998387038563E-02  -1.008186219675938E-01
  -1.026193848011232E-01  -1.044311611715018E-01  -1.062527603549354E-01
  -1.080829090296349E-01  -1.099202481813597E-01  -1.117633299978289E-01
  -1.136106147628074E-01  -1.154604677619217E-01  -1.173111562135919E-01
  -1.191608462398942E-01  -1.210075998936924E-01  -1.228493722600032E-01
  -1.246840086512840E-01  -1.265092419181660E-01  -1.283226898990910E-01
  -1.301218530343559E-01  -1.319041121722196E-01  -1.336667265969868E-01
  -1.354068323113403E-01  -1.371214406076616E-01  -1.388074369656293E-01
  -1.404615803160383E-01  -1.420805027135029E-01  -1.436607094635041E-01
  -1.451985797520907E-01  -1.466903678294306E-01  -1.481322048013161E-01
  -1.495201010856294E-01  -1.508499495936418E-01  -1.521175296988274E-01
  -1.533185120585749E-01  -1.544484643567402E-01  -1.555028580373555E-01
  -1.564770761019304E-01  -1.573664220445971E-01  -1.581661300007945E-01
  -1.588713761861693E-01  -1.594772917028267E-01  -1.599789767898757E-01
  -1.603715165943009E-01  -1.606499985364211E-01  -1.608095313414586E-01
  -1.608452658048922E-01  -1.607524173541701E-01  -1.605262904628494E-01
  -1.601623049651489E-01  -1.596560243090668E-01  -1.590031857744506E-01
  -1.581997326684952E-01  -1.572418484949231E-01  -1.561259930743046E-01
  -1.548489405714540E-01  -1.534078193613187E-01  -1.518001536370994E-01
  -1.500239066332519E-01  -1.480775253013528E-01  -1.459599862383870E-01
  -1.436708426246310E-01  -1.412102718818969E-01  -1.385791237123113E-01
  -1.357789681230169E-01  -1.328121429832149E-01  -1.296818005968536E-01
  -1.263919527072310E-01  -1.229475132790080E-01  -1.193543383290389E-01
  -1.156192620005057E-01  -1.117501279956942E-01  -1.077558154022612E-01
  -1.036462578669238E-01  -9.943245499040600E-02  -9.512647473965075E-02
  -9.074144559933789E-02  -8.629153711671197E-02  -8.179192743372485E-02
  -7.725875635114776E-02  -7.270906243344338E-02  -6.816070264391393E-02
  -6.363225300056376E-02  -5.914288876792825E-02  -5.471224275302081E-02
  -5.036024035894709E-02  -4.610691017218965E-02  -4.197216902406620E-02
  -3.797558067824283E-02  -3.413608755954534E-02  -3.047171525959719E-02
  -2.699924993669696E-02  -2.373388917533984E-02  -2.068886738861387E-02
  -1.787505743753913E-02  -1.530055080732445E-02  -1.297021942228468E-02
  -1.088526299810093E-02  -9.042746719464667E-03  -7.435134988084479E-03
  -6.049828002986465E-03  -4.868709001439840E-03  -3.867711090847889E-03
  -3.020289284134225E-03  -2.310818185901065E-03  -1.726589197336537E-03
  -1.254609331705459E-03  -8.817739716722728E-04  -5.950455557222623E-04
  -3.816354755274975E-04  -2.291861024136810E-04  -1.259495111982922E-04
  -6.095914332276964E-05  -2.419035860001806E-05  -6.705577851318090E-06
  -7.795299924173715E-07   0.000000000000000E+00   0.000000000000000E+00
   0.000000000000000E+00   0.000000000000000E+00   0.000000000000000E+00
   0.000000000000000E+00   0.000000000000000E+00   0.000000000000000E+00
   0.000000000000000E+00   0.000000000000000E+00   0.000000000000000E+00
   0.000000000000000E+00   0.000000000000000E+00   0.000000000000000E+00
   0.000000000000000E+00   0.000000000000000E+00   0.000000000000000E+00
   0.000000000000000E+00   0.000000000000000E+00   0.000000000000000E+00
   0.000000000000000E+00   0.000000000000000E+00   0.000000000000000E+00
   0.000000000000000E+00   0.000000000000000E+00   0.000000000000000E+00
   0.000000000000000E+00   0.000000000000000E+00   0.000000000000000E+00
   0.000000000000000E+00   0.000000000000000E+00   0.000000000000000E+00
   0.000000000000000E+00   0.000000000000000E+00   0.000000000000000E+00
   0.000000000000000E+00   0.000000000000000E+00   0.000000000000000E+00
   0.000000000000000E+00   0.000000000000000E+00   0.000000000000000E+00
   0.000000000000000E+00   0.000000000000000E+00   0.000000000000000E+00
   0.000000000000000E+00   0.000000000000000E+00   0.000000000000000E+00
   0.000000000000000E+00   0.000000000000000E+00   0.000000000000000E+00
   0.000000000000000E+00   0.000000000000000E+00   0.000000000000000E+00
   0.000000000000000E+00   0.000000000000000E+00   0.000000000000000E+00
   0.000000000000000E+00   0.000000000000000E+00   0.000000000000000E+00
   0.000000000000000E+00   0.000000000000000E+00   0.000000000000000E+00
   0.000000000000000E+00   0.000000000000000E+00   0.000000000000000E+00
   0.000000000000000E+00   0.000000000000000E+00   0.000000000000000E+00
   0.000000000000000E+00   0.000000000000000E+00   0.000000000000000E+00
   0.000000000000000E+00   0.000000000000000E+00   0.000000000000000E+00
   0.000000000000000E+00   0.000000000000000E+00   0.000000000000000E+00
   0.000000000000000E+00   0.000000000000000E+00   0.000000000000000E+00
   0.000000000000000E+00   0.000000000000000E+00   0.000000000000000E+00
   0.000000000000000E+00   0.000000000000000E+00   0.000000000000000E+00
   0.000000000000000E+00   0.000000000000000E+00   0.000000000000000E+00
   0.000000000000000E+00   0.000000000000000E+00   0.000000000000000E+00
   0.000000000000000E+00   0.000000000000000E+00   0.000000000000000E+00
   0.000000000000000E+00   0.000000000000000E+00   0.000000000000000E+00
   0.000000000000000E+00   0.000000000000000E+00   0.000000000000000E+00
   0.000000000000000E+00   0.000000000000000E+00   0.000000000000000E+00
   0.000000000000000E+00   0.000000000000000E+00   0.000000000000000E+00
   0.000000000000000E+00   0.000000000000000E+00   0.000000000000000E+00
   0.000000000000000E+00   0.000000000000000E+00   0.000000000000000E+00
   0.000000000000000E+00   0.000000000000000E+00   0.000000000000000E+00
   0.000000000000000E+00   0.000000000000000E+00   0.000000000000000E+00
   0.000000000000000E+00   0.000000000000000E+00   0.000000000000000E+00
   0.000000000000000E+00   0.000000000000000E+00   0.000000000000000E+00
   0.000000000000000E+00   0.000000000000000E+00   0.000000000000000E+00
   0.000000000000000E+00   0.000000000000000E+00   0.000000000000000E+00
   0.000000000000000E+00   0.000000000000000E+00   0.000000000000000E+00
   0.000000000000000E+00   0.000000000000000E+00   0.000000000000000E+00
   0.000000000000000E+00   0.000000000000000E+00   0.000000000000000E+00
   0.000000000000000E+00   0.000000000000000E+00   0.000000000000000E+00
   0.000000000000000E+00   0.000000000000000E+00   0.000000000000000E+00
   0.000000000000000E+00   0.000000000000000E+00   0.000000000000000E+00
   0.000000000000000E+00   0.000000000000000E+00   0.000000000000000E+00
   0.000000000000000E+00   0.000000000000000E+00   0.000000000000000E+00
   0.000000000000000E+00   0.000000000000000E+00   0.000000000000000E+00
   0.000000000000000E+00   0.000000000000000E+00   0.000000000000000E+00
   0.000000000000000E+00   0.000000000000000E+00   0.000000000000000E+00
   0.000000000000000E+00   0.000000000000000E+00   0.000000000000000E+00
   0.000000000000000E+00   0.000000000000000E+00   0.000000000000000E+00
   0.000000000000000E+00   0.000000000000000E+00   0.000000000000000E+00
   0.000000000000000E+00   0.000000000000000E+00   0.000000000000000E+00
   0.000000000000000E+00   0.000000000000000E+00   0.000000000000000E+00
   0.000000000000000E+00   0.000000000000000E+00   0.000000000000000E+00
   0.000000000000000E+00   0.000000000000000E+00   0.000000000000000E+00
   0.000000000000000E+00   0.000000000000000E+00   0.000000000000000E+00
   0.000000000000000E+00   0.000000000000000E+00   0.000000000000000E+00
   0.000000000000000E+00   0.000000000000000E+00   0.000000000000000E+00
   0.000000000000000E+00   0.000000000000000E+00   0.000000000000000E+00
   0.000000000000000E+00   0.000000000000000E+00   0.000000000000000E+00
   0.000000000000000E+00   0.000000000000000E+00   0.000000000000000E+00
   0.000000000000000E+00   0.000000000000000E+00   0.000000000000000E+00
   0.000000000000000E+00   0.000000000000000E+00   0.000000000000000E+00
   0.000000000000000E+00   0.000000000000000E+00   0.000000000000000E+00
   0.000000000000000E+00   0.000000000000000E+00   0.000000000000000E+00
   0.000000000000000E+00   0.000000000000000E+00   0.000000000000000E+00
   0.000000000000000E+00   0.000000000000000E+00   0.000000000000000E+00
   0.000000000000000E+00   0.000000000000000E+00   0.000000000000000E+00
   0.000000000000000E+00   0.000000000000000E+00   0.000000000000000E+00
   0.000000000000000E+00   0.000000000000000E+00   0.000000000000000E+00
   0.000000000000000E+00   0.000000000000000E+00   0.000000000000000E+00
   0.000000000000000E+00   0.000000000000000E+00   0.000000000000000E+00
   0.000000000000000E+00   0.000000000000000E+00   0.000000000000000E+00
   0.000000000000000E+00   0.000000000000000E+00   0.000000000000000E+00
   0.000000000000000E+00   0.000000000000000E+00   0.000000000000000E+00
   0.000000000000000E+00   0.000000000000000E+00   0.000000000000000E+00
   0.000000000000000E+00   0.000000000000000E+00   0.000000000000000E+00
   0.000000000000000E+00   0.000000000000000E+00   0.000000000000000E+00
   0.000000000000000E+00   0.000000000000000E+00   0.000000000000000E+00
   0.000000000000000E+00   0.000000000000000E+00   0.000000000000000E+00
   0.000000000000000E+00   0.000000000000000E+00   0.000000000000000E+00
   0.000000000000000E+00   0.000000000000000E+00   0.000000000000000E+00
   0.000000000000000E+00   0.000000000000000E+00   0.000000000000000E+00
   0.000000000000000E+00   0.000000000000000E+00   0.000000000000000E+00
   0.000000000000000E+00   0.000000000000000E+00   0.000000000000000E+00
   0.000000000000000E+00   0.000000000000000E+00   0.000000000000000E+00
   0.000000000000000E+00   0.000000000000000E+00   0.000000000000000E+00
   0.000000000000000E+00   0.000000000000000E+00   0.000000000000000E+00
   0.000000000000000E+00   0.000000000000000E+00   0.000000000000000E+00
   0.000000000000000E+00   0.000000000000000E+00   0.000000000000000E+00
   0.000000000000000E+00   0.000000000000000E+00   0.000000000000000E+00
   0.000000000000000E+00   0.000000000000000E+00   0.000000000000000E+00
   0.000000000000000E+00   0.000000000000000E+00   0.000000000000000E+00
   0.000000000000000E+00   0.000000000000000E+00   0.000000000000000E+00
   0.000000000000000E+00   0.000000000000000E+00   0.000000000000000E+00
   0.000000000000000E+00   0.000000000000000E+00   0.000000000000000E+00
   0.000000000000000E+00   0.000000000000000E+00   0.000000000000000E+00
   0.000000000000000E+00   0.000000000000000E+00   0.000000000000000E+00
   0.000000000000000E+00   0.000000000000000E+00   0.000000000000000E+00
   0.000000000000000E+00   0.000000000000000E+00   0.000000000000000E+00
   0.000000000000000E+00   0.000000000000000E+00   0.000000000000000E+00
   0.000000000000000E+00   0.000000000000000E+00   0.000000000000000E+00
   0.000000000000000E+00   0.000000000000000E+00   0.000000000000000E+00
   0.000000000000000E+00   0.000000000000000E+00   0.000000000000000E+00
   0.000000000000000E+00   0.000000000000000E+00   0.000000000000000E+00
   0.000000000000000E+00   0.000000000000000E+00   0.000000000000000E+00
   0.000000000000000E+00   0.000000000000000E+00   0.000000000000000E+00
   0.000000000000000E+00   0.000000000000000E+00   0.000000000000000E+00
   0.000000000000000E+00   0.000000000000000E+00   0.000000000000000E+00
   0.000000000000000E+00   0.000000000000000E+00   0.000000000000000E+00
   0.000000000000000E+00   0.000000000000000E+00   0.000000000000000E+00
   0.000000000000000E+00   0.000000000000000E+00
      </PP_QIJL.2.2.0>
      <PP_QIJL.2.3.1 first_index="2" second_index="3" composite_index="5" angular_momentum="1" size="1073">
   1.523538443224124E-11   1.581755883082912E-11   1.642197927152373E-11
   1.704949581974292E-11   1.770099102358398E-11   1.837738115505029E-11
   1.907961749870809E-11   1.980868768958502E-11   2.056561710219242E-11
   2.135147029262512E-11   2.216735249576609E-11   2.301441117970266E-11
   2.389383765953980E-11   2.480686877288019E-11   2.575478861932815E-11
   2.673893036646239E-11   2.776067812481935E-11   2.882146889452282E-11
   2.992279458629798E-11   3.106620411971274E-11   3.225330560159603E-11
   3.348576858769838E-11   3.476532643077448E-11   3.609377871839057E-11
   3.747299380388540E-11   3.890491143404299E-11   4.039154547717508E-11
   4.193498675544785E-11   4.353740598543749E-11   4.520105683105042E-11
   4.692827907310019E-11   4.872150190000117E-11   5.058324732420498E-11
   5.251613372918578E-11   5.452287955196268E-11   5.660630710633743E-11
   5.876934655222595E-11   6.101504001666533E-11   6.334654587229163E-11
   6.576714317930764E-11   6.828023629718409E-11   7.088935967258497E-11
   7.359818281024707E-11   7.641051543380573E-11   7.933031284382700E-11
   8.236168148057722E-11   8.550888469935874E-11   8.877634876653066E-11
   9.216866908464845E-11   9.569061665547855E-11   9.934714478997419E-11
   1.031433960746541E-10   1.070847096041776E-10   1.111766284902898E-10
   1.154249076576980E-10   1.198355219378404E-10   1.244146744719338E-10
   1.291688054351169E-10   1.341046010939572E-10   1.392290032100638E-10
   1.445492188030247E-10   1.500727302864077E-10   1.558073059910723E-10
   1.617610110905976E-10   1.679422189441897E-10   1.743596228730196E-10
   1.810222483865570E-10   1.879394658760933E-10   1.951210037933043E-10
   2.025769623323915E-10   2.103178276350367E-10   2.183544865381555E-10
   2.266982418851867E-10   2.353608284224495E-10   2.443544293029326E-10
   2.536916932207115E-10   2.633857522001087E-10   2.734502400646026E-10
   2.838993116114637E-10   2.947476625190888E-10   3.060105500150188E-10
   3.177038143337220E-10   3.298439009943106E-10   3.424478839295225E-10
   3.555334894985037E-10   3.691191214171466E-10   3.832238866410662E-10
   3.978676222375974E-10   4.130709232846140E-10   4.288551718354092E-10
   4.452425669903576E-10   4.622561561176689E-10   4.799198672671293E-10
   4.982585428224201E-10   5.172979744393439E-10   5.370649393190806E-10
   5.575872378675083E-10   5.788937327935321E-10   6.010143897014168E-10
   6.239803192342164E-10   6.478238208275423E-10   6.725784281352435E-10
   6.982789561908487E-10   7.249615503711154E-10   7.526637372305439E-10
   7.814244772783267E-10   8.112842197719902E-10   8.422849596047618E-10
   8.744702963666717E-10   9.078854956624585E-10   9.425775527724901E-10
   9.785952587462594E-10   1.015989269021375E-09   1.054812174664567E-09
   1.095118576334901E-09   1.136965161073176E-09   1.180410782025554E-09
   1.225516541213507E-09   1.272345875466475E-09   1.320964645638113E-09
   1.371441229231557E-09   1.423846616564002E-09   1.478254510605809E-09
   1.534741430634553E-09   1.593386819849794E-09   1.654273157099858E-09
   1.717486072877833E-09   1.783114469749830E-09   1.851250647384900E-09
   1.921990432362455E-09   1.995433312939675E-09   2.071682578968489E-09
   2.150845467158870E-09   2.233033311892701E-09   2.318361701800363E-09
   2.406950642320110E-09   2.498924724468987E-09   2.594413300062524E-09
   2.693550663629623E-09   2.796476241278524E-09   2.903334786779311E-09
   3.014276585138856E-09   3.129457663954354E-09   3.249040012842732E-09
   3.373191811254480E-09   3.502087664992223E-09   3.635908851766716E-09
   3.774843576135511E-09   3.919087234182764E-09   4.068842688312515E-09
   4.224320552541641E-09   4.385739488693861E-09   4.553326513911197E-09
   4.727317319915339E-09   4.907956604467857E-09   5.095498415495285E-09
   5.290206508363116E-09   5.492354716800954E-09   5.702227338000471E-09
   5.920119532427727E-09   6.146337738911858E-09   6.381200105594041E-09
   6.625036937342577E-09   6.878191160263165E-09   7.141018803957773E-09
   7.413889502209699E-09   7.697187012799635E-09   7.991309757182731E-09
   8.296671380786210E-09   8.613701334715112E-09   8.942845479683736E-09
   9.284566713022805E-09   9.639345619642883E-09   1.000768114787019E-08
   1.039009131110479E-08   1.078711391628718E-08   1.119930732019876E-08
   1.162725121465799E-08   1.207154744171744E-08   1.253282084000751E-08
   1.301172012341610E-08   1.350891879334111E-08   1.402511608579656E-08
   1.456103795470533E-08   1.511743809276036E-08   1.569509899128910E-08
   1.629483304061273E-08   1.691748367244514E-08   1.756392654593945E-08
   1.823507077904874E-08   1.893186022693155E-08   1.965527480920115E-08
   2.040633188788198E-08   2.118608769801260E-08   2.199563883290523E-08
   2.283612378614922E-08   2.370872455252819E-08   2.461466829009866E-08
   2.555522904576854E-08   2.653172954680085E-08   2.754554306075926E-08
   2.859809532651320E-08   2.969086655901303E-08   3.082539353065617E-08
   3.200327173216886E-08   3.322615761603926E-08   3.449577092565892E-08
   3.581389711344186E-08   3.718238985132330E-08   3.860317363716568E-08
   4.007824650073326E-08   4.160968281304262E-08   4.319963620303254E-08
   4.485034258565587E-08   4.656412330564813E-08   4.834338840138888E-08
   5.019063999344716E-08   5.210847580256727E-08   5.409959280204335E-08
   5.616679100961326E-08   5.831297742419832E-08   6.054117011302599E-08
   6.285450245487198E-08   6.525622754538878E-08   6.774972277070973E-08
   7.033849455575074E-08   7.302618329388914E-08   7.581656846493636E-08
   7.871357394860170E-08   8.172127354091075E-08   8.484389668132369E-08
   8.808583439860840E-08   9.145164548380973E-08   9.494606289899571E-08
   9.857400043077981E-08   1.023405595979604E-07   1.062510368229916E-07
   1.103109308773446E-07   1.145259506112267E-07   1.189020229785118E-07
   1.234453013681465E-07   1.281621742537462E-07   1.330592741735108E-07
   1.381434870530835E-07   1.434219618844399E-07   1.489021207743945E-07
   1.545916693768401E-07   1.604986077233617E-07   1.666312414674347E-07
   1.729981935579934E-07   1.796084163587535E-07   1.864712042303087E-07
   1.935962065926559E-07   2.009934414864905E-07   2.086733096523028E-07
   2.166466091470366E-07   2.249245505188255E-07   2.335187725610976E-07
   2.424413586681643E-07   2.517048538152372E-07   2.613222821866991E-07
   2.713071654773669E-07   2.816735418924158E-07   2.924359858726265E-07
   3.036096285726211E-07   3.152101791208125E-07   3.272539466908909E-07
   3.397578634157958E-07   3.527395081763169E-07   3.662171312976766E-07
   3.802096801887232E-07   3.947368259596916E-07   4.098189910558264E-07
   4.254773779456808E-07   4.417339989041198E-07   4.586117069321269E-07
   4.761342278561774E-07   4.943261936529274E-07   5.132131770451243E-07
   5.328217274178745E-07   5.531794081050413E-07   5.743148350984356E-07
   5.962577172338537E-07   6.190388979100668E-07   6.426903983997178E-07
   6.672454628118286E-07   6.927386047701134E-07   7.192056558712840E-07
   7.466838159920139E-07   7.752117055145155E-07   8.048294195438806E-07
   8.355785841932518E-07   8.675024150153181E-07   9.006457776620863E-07
   9.350552508578593E-07   9.707791917727588E-07   1.007867803889449E-06
   1.046373207456804E-06   1.086349512629640E-06   1.127852895396585E-06
   1.170941676402152E-06   1.215676402773239E-06   1.262119933064481E-06
   1.310337525439935E-06   1.360396929216468E-06   1.412368479895741E-06
   1.466325197815735E-06   1.522342890561260E-06   1.580500259277027E-06
   1.640879009030667E-06   1.703563963377961E-06   1.768643183292787E-06
   1.836208090628034E-06   1.906353596274415E-06   1.979178233204245E-06
   2.054784294575728E-06   2.133277977099985E-06   2.214769529861916E-06
   2.299373408809267E-06   2.387208437118357E-06   2.478397971665732E-06
   2.573070075833452E-06   2.671357698887776E-06   2.773398862186500E-06
   2.879336852465359E-06   2.989320422478980E-06   3.103503999272442E-06
   3.222047900370894E-06   3.345118558192736E-06   3.472888752990215E-06
   3.605537854649506E-06   3.743252073676382E-06   3.886224721724568E-06
   4.034656482019313E-06   4.188755690058126E-06   4.348738624973139E-06
   4.514829811958209E-06   4.687262336183571E-06   4.866278168626222E-06
   5.052128504272693E-06   5.245074113155348E-06   5.445385704713397E-06
   5.653344305978120E-06   5.869241654102368E-06   6.093380603782517E-06
   6.326075550128081E-06   6.567652867563472E-06   6.818451365369403E-06
   7.078822760487226E-06   7.349132168238746E-06   7.629758611637539E-06
   7.921095549986683E-06   8.223551427494403E-06   8.537550242660205E-06
   8.863532139208516E-06   9.201954019383507E-06   9.553290180444152E-06
   9.918032975232512E-06   1.029669349771360E-05   1.068980229443463E-05
   1.109791010286182E-05   1.152158861761615E-05   1.196143128564337E-05
   1.241805413140629E-05   1.289209661322452E-05   1.338422251192380E-05
   1.389512085300296E-05   1.442550686357545E-05   1.497612296538044E-05
   1.554773980521030E-05   1.614115732414900E-05   1.675720586707615E-05
   1.739674733392248E-05   1.806067637424762E-05   1.874992162674006E-05
   1.946544700531249E-05   2.020825303352722E-05   2.097937822914359E-05
   2.177990054064627E-05   2.261093883768032E-05   2.347365445739181E-05
   2.436925280874880E-05   2.529898503696664E-05   2.626414975028596E-05
   2.726609481137862E-05   2.830621919579168E-05   2.938597491986443E-05
   3.050686904071614E-05   3.167046573091970E-05   3.287838843062585E-05
   3.413232207997145E-05   3.543401543471271E-05   3.678528346814193E-05
   3.818800986242276E-05   3.964414959263316E-05   4.115573160687871E-05
   4.272486160599551E-05   4.435372492643979E-05   4.604458953014599E-05
   4.779980910521347E-05   4.962182628144091E-05   5.151317596487298E-05
   5.347648879565295E-05   5.551449473362554E-05   5.763002677630877E-05
   5.982602481396702E-05   6.210553962673791E-05   6.447173702888263E-05
   6.692790216542385E-05   6.947744396663437E-05   7.212389976596708E-05
   7.487094008727789E-05   7.772237360731392E-05   8.068215229971468E-05
   8.375437676690503E-05   8.694330176653640E-05   9.025334193930585E-05
   9.368907774522747E-05   9.725526161566502E-05   1.009568243286421E-04
   1.047988816152389E-04   1.087867410050799E-04   1.129259089192135E-04
   1.172220980189306E-04   1.216812348193351E-04   1.263094675767635E-04
   1.311131744594400E-04   1.360989720110075E-04   1.412737239169371E-04
   1.466445500840464E-04   1.522188360437100E-04   1.580042426896824E-04
   1.640087163616979E-04   1.702404992864449E-04   1.767081403877514E-04
   1.834205064782322E-04   1.903867938449582E-04   1.976165402420663E-04
   2.051196373036084E-04   2.129063433902790E-04   2.209872968840426E-04
   2.293735299450601E-04   2.380764827456868E-04   2.471080181966988E-04
   2.564804371812898E-04   2.662064943127800E-04   2.762994142323691E-04
   2.867729084636121E-04   2.976411928408119E-04   3.089190055287426E-04
   3.206216256516871E-04   3.327648925500366E-04   3.453652256831466E-04
   3.584396451975179E-04   3.720057931797581E-04   3.860819556141303E-04
   4.006870850648776E-04   4.158408241038606E-04   4.315635295043892E-04
   4.478762972224631E-04   4.648009881869246E-04   4.823602549203627E-04
   5.005775690128411E-04   5.194772494708018E-04   5.390844919637025E-04
   5.594253989911605E-04   5.805270109935207E-04   6.024173384289013E-04
   6.251253948398577E-04   6.486812309328645E-04   6.731159696937675E-04
   6.984618425623734E-04   7.247522266891367E-04   7.520216832968278E-04
   7.803059971697383E-04   8.096422172926904E-04   8.400686986617571E-04
   8.716251452879899E-04   9.043526544150300E-04   9.382937619706501E-04
   9.734924892715301E-04   1.009994390999673E-03   1.047846604467758E-03
   1.087097900189597E-03   1.127798733770450E-03   1.170001299130547E-03
   1.213759583073377E-03   1.259129421208515E-03   1.306168555236701E-03
   1.354936691602531E-03   1.405495561517718E-03   1.457908982355037E-03
   1.512242920410113E-03   1.568565555024889E-03   1.626947344063072E-03
   1.687461090723873E-03   1.750182011676175E-03   1.815187806490623E-03
   1.882558728342188E-03   1.952377655950320E-03   2.024730166717996E-03
   2.099704611024765E-03   2.177392187621908E-03   2.257887020070902E-03
   2.341286234158225E-03   2.427690036211298E-03   2.517201792231459E-03
   2.609928107749843E-03   2.705978908302310E-03   2.805467520407899E-03
   2.908510752923959E-03   3.015228978638359E-03   3.125746215945625E-03
   3.240190210439908E-03   3.358692516242147E-03   3.481388576862763E-03
   3.608417805384139E-03   3.739923663728630E-03   3.876053740758841E-03
   4.016959828936132E-03   4.162797999241823E-03   4.313728674042464E-03
   4.469916697556326E-03   4.631531403552765E-03   4.798746679888912E-03
   4.971741029459770E-03   5.150697627107844E-03   5.335804372006672E-03
   5.527253934999833E-03   5.725243800341869E-03   5.929976301251197E-03
   6.141658648646920E-03   6.360502952401155E-03   6.586726234397083E-03
   6.820550432638885E-03   7.062202395614331E-03   7.311913866063574E-03
   7.569921453257836E-03   7.836466592841287E-03   8.111795493235568E-03
   8.396159067551999E-03   8.689812849899475E-03   8.993016894917400E-03
   9.306035659303217E-03   9.629137864041513E-03   9.962596335978631E-03
   1.030668782732178E-02   1.066169281157499E-02   1.102789525435782E-02
   1.140558235748349E-02   1.179504427460499E-02   1.219657379666791E-02
   1.261046600533925E-02   1.303701789251270E-02   1.347652794392147E-02
   1.392929568482273E-02   1.439562118565141E-02   1.487580452547657E-02
   1.537014521103326E-02   1.587894154904340E-02   1.640248996948631E-02
   1.694108429742960E-02   1.749501497098799E-02   1.806456820294141E-02
   1.865002508351401E-02   1.925166062179658E-02   1.986974272328505E-02
   2.050453110100865E-02   2.115627611773838E-02   2.182521755679344E-02
   2.251158331901132E-02   2.321558804351032E-02   2.393743164995710E-02
   2.467729780016034E-02   2.543535227694002E-02   2.621174127838172E-02
   2.700658962577186E-02   2.781999888372839E-02   2.865204539129727E-02
   2.950277820307507E-02   3.037221693975194E-02   3.126034954784539E-02
   3.216712996881847E-02   3.309247571825286E-02   3.403626537627325E-02
   3.499833599100811E-02   3.597848039751921E-02   3.697644445534427E-02
   3.799192420858081E-02   3.902456297329070E-02   4.007394835793580E-02
   4.113960922356395E-02   4.222101259155284E-02   4.331756050789980E-02
   4.442858687430433E-02   4.555335425764724E-02   4.669105069091494E-02
   4.784078648015298E-02   4.900159103366866E-02   5.017240973142179E-02
   5.135210085436034E-02   5.253943259536128E-02   5.373308017542388E-02
   5.493162309083452E-02   5.613354251916038E-02   5.733721891413706E-02
   5.854092982177434E-02   5.974284795230290E-02   6.094103954491343E-02
   6.213346306456854E-02   6.331796827248892E-02   6.449229571419572E-02
   6.565407667120399E-02   6.680083362458182E-02   6.792998128057265E-02
   6.903882821028999E-02   7.012457915709086E-02   7.118433806656163E-02
   7.221511189506477E-02   7.321381525342603E-02   7.417727594253720E-02
   7.510224143733445E-02   7.598538637471386E-02   7.682332109939116E-02
   7.761260131941103E-02   7.834973891988553E-02   7.903121397949289E-02
   7.965348802921154E-02   8.021301858660151E-02   8.070627499157958E-02
   8.112975556097884E-02   8.148000606913526E-02   8.175363955022504E-02
   8.194735740500120E-02   8.205797177987367E-02   8.208242916988809E-02
   8.201783517903670E-02   8.186148035145774E-02   8.161086696544430E-02
   8.126373665881960E-02   8.081809872919755E-02   8.027225892603881E-02
   7.962484852337322E-02   7.887485343277653E-02   7.802164308592320E-02
   7.706499878508445E-02   7.600514118868770E-02   7.484275656796127E-02
   7.357902144027220E-02   7.221562515567159E-02   7.075478998607923E-02
   6.919928824228139E-02   6.755245592339337E-02   6.581820238761041E-02
   6.400101552307320E-02   6.210596189462614E-02   6.013868134743306E-02
   5.810537556313992E-02   5.601279008986990E-02   5.386818940522635E-02
   5.167932462298921E-02   4.945439352066645E-02   4.720199264776065E-02
   4.493106137457364E-02   4.265081785956419E-02   4.037068705026330E-02
   3.810022098884572E-02   3.584901186850758E-02   3.362659848008424E-02
   3.144236689860504E-02   2.930544648461339E-02   2.722460251222471E-02
   2.520812698119415E-02   2.326372941877239E-02   2.139842972281711E-02
   1.961845533312430E-02   1.792914523464047E-02   1.633486348414985E-02
   1.483892509983182E-02   1.344353724822053E-02   1.214975869172561E-02
   1.095748040727566E-02   9.865430137333198E-03   8.871203372677858E-03
   7.971322876334293E-03   7.161328324899883E-03   6.435896953956282E-03
   5.788995237253711E-03   5.214060597432419E-03   4.704210936373712E-03
   4.252478388981330E-03   3.852062155912200E-03   3.496593578108692E-03
   3.180404809130809E-03   2.898790562665260E-03   2.648250518277717E-03
   2.426384091751721E-03   2.230560057408681E-03   2.057981505191653E-03
   1.905899775226427E-03   1.771646811378369E-03   1.652665993465308E-03
   1.546540819752473E-03   1.451020780805223E-03   1.364043749800758E-03
   1.283754216981681E-03   1.208516721236230E-03   1.136923883941654E-03
   1.067798533216091E-03   1.000189524455408E-03   9.333610189159458E-04
   8.667751790610856E-04   8.000684796841129E-04   7.330221185806729E-04
   6.655273400145156E-04   5.975468568488740E-04   5.290739699341795E-04
   4.600914310753934E-04   3.905325708233875E-04   3.208967280734498E-04
   2.539997096334123E-04   1.926815206474419E-04   1.390520468111944E-04
   9.445003612240654E-05   5.943299499919230E-05   3.380411436193498E-05
   1.668245406696856E-05   6.622578188231198E-06   1.789619532663322E-06
   1.953287272898896E-07  -1.387778780781446E-17   0.000000000000000E+00
   0.000000000000000E+00   0.000000000000000E+00   0.000000000000000E+00
   0.000000000000000E+00   0.000000000000000E+00   0.000000000000000E+00
   0.000000000000000E+00   0.000000000000000E+00   0.000000000000000E+00
   0.000000000000000E+00   0.000000000000000E+00   0.000000000000000E+00
   0.000000000000000E+00   0.000000000000000E+00   0.000000000000000E+00
   0.000000000000000E+00   0.000000000000000E+00   0.000000000000000E+00
   0.000000000000000E+00   0.000000000000000E+00   0.000000000000000E+00
   0.000000000000000E+00   0.000000000000000E+00   0.000000000000000E+00
   0.000000000000000E+00   0.000000000000000E+00   0.000000000000000E+00
   0.000000000000000E+00   0.000000000000000E+00   0.000000000000000E+00
   0.000000000000000E+00   0.000000000000000E+00   0.000000000000000E+00
   0.000000000000000E+00   0.000000000000000E+00   0.000000000000000E+00
   0.000000000000000E+00   0.000000000000000E+00   0.000000000000000E+00
   0.000000000000000E+00   0.000000000000000E+00   0.000000000000000E+00
   0.000000000000000E+00   0.000000000000000E+00   0.000000000000000E+00
   0.000000000000000E+00   0.000000000000000E+00   0.000000000000000E+00
   0.000000000000000E+00   0.000000000000000E+00   0.000000000000000E+00
   0.000000000000000E+00   0.000000000000000E+00   0.000000000000000E+00
   0.000000000000000E+00   0.000000000000000E+00   0.000000000000000E+00
   0.000000000000000E+00   0.000000000000000E+00   0.000000000000000E+00
   0.000000000000000E+00   0.000000000000000E+00   0.000000000000000E+00
   0.000000000000000E+00   0.000000000000000E+00   0.000000000000000E+00
   0.000000000000000E+00   0.000000000000000E+00   0.000000000000000E+00
   0.000000000000000E+00   0.000000000000000E+00   0.000000000000000E+00
   0.000000000000000E+00   0.000000000000000E+00   0.000000000000000E+00
   0.000000000000000E+00   0.000000000000000E+00   0.000000000000000E+00
   0.000000000000000E+00   0.000000000000000E+00   0.000000000000000E+00
   0.000000000000000E+00   0.000000000000000E+00   0.000000000000000E+00
   0.000000000000000E+00   0.000000000000000E+00   0.000000000000000E+00
   0.000000000000000E+00   0.000000000000000E+00   0.000000000000000E+00
   0.000000000000000E+00   0.000000000000000E+00   0.000000000000000E+00
   0.000000000000000E+00   0.000000000000000E+00   0.000000000000000E+00
   0.000000000000000E+00   0.000000000000000E+00   0.000000000000000E+00
   0.000000000000000E+00   0.000000000000000E+00   0.000000000000000E+00
   0.000000000000000E+00   0.000000000000000E+00   0.000000000000000E+00
   0.000000000000000E+00   0.000000000000000E+00   0.000000000000000E+00
   0.000000000000000E+00   0.000000000000000E+00   0.000000000000000E+00
   0.000000000000000E+00   0.000000000000000E+00   0.000000000000000E+00
   0.000000000000000E+00   0.000000000000000E+00   0.000000000000000E+00
   0.000000000000000E+00   0.000000000000000E+00   0.000000000000000E+00
   0.000000000000000E+00   0.000000000000000E+00   0.000000000000000E+00
   0.000000000000000E+00   0.000000000000000E+00   0.000000000000000E+00
   0.000000000000000E+00   0.000000000000000E+00   0.000000000000000E+00
   0.000000000000000E+00   0.000000000000000E+00   0.000000000000000E+00
   0.000000000000000E+00   0.000000000000000E+00   0.000000000000000E+00
   0.000000000000000E+00   0.000000000000000E+00   0.000000000000000E+00
   0.000000000000000E+00   0.000000000000000E+00   0.000000000000000E+00
   0.000000000000000E+00   0.000000000000000E+00   0.000000000000000E+00
   0.000000000000000E+00   0.000000000000000E+00   0.000000000000000E+00
   0.000000000000000E+00   0.000000000000000E+00   0.000000000000000E+00
   0.000000000000000E+00   0.000000000000000E+00   0.000000000000000E+00
   0.000000000000000E+00   0.000000000000000E+00   0.000000000000000E+00
   0.000000000000000E+00   0.000000000000000E+00   0.000000000000000E+00
   0.000000000000000E+00   0.000000000000000E+00   0.000000000000000E+00
   0.000000000000000E+00   0.000000000000000E+00   0.000000000000000E+00
   0.000000000000000E+00   0.000000000000000E+00   0.000000000000000E+00
   0.000000000000000E+00   0.000000000000000E+00   0.000000000000000E+00
   0.000000000000000E+00   0.000000000000000E+00   0.000000000000000E+00
   0.000000000000000E+00   0.000000000000000E+00   0.000000000000000E+00
   0.000000000000000E+00   0.000000000000000E+00   0.000000000000000E+00
   0.000000000000000E+00   0.000000000000000E+00   0.000000000000000E+00
   0.000000000000000E+00   0.000000000000000E+00   0.000000000000000E+00
   0.000000000000000E+00   0.000000000000000E+00   0.000000000000000E+00
   0.000000000000000E+00   0.000000000000000E+00   0.000000000000000E+00
   0.000000000000000E+00   0.000000000000000E+00   0.000000000000000E+00
   0.000000000000000E+00   0.000000000000000E+00   0.000000000000000E+00
   0.000000000000000E+00   0.000000000000000E+00   0.000000000000000E+00
   0.000000000000000E+00   0.000000000000000E+00   0.000000000000000E+00
   0.000000000000000E+00   0.000000000000000E+00   0.000000000000000E+00
   0.000000000000000E+00   0.000000000000000E+00   0.000000000000000E+00
   0.000000000000000E+00   0.000000000000000E+00   0.000000000000000E+00
   0.000000000000000E+00   0.000000000000000E+00   0.000000000000000E+00
   0.000000000000000E+00   0.000000000000000E+00   0.000000000000000E+00
   0.000000000000000E+00   0.000000000000000E+00   0.000000000000000E+00
   0.000000000000000E+00   0.000000000000000E+00   0.000000000000000E+00
   0.000000000000000E+00   0.000000000000000E+00   0.000000000000000E+00
   0.000000000000000E+00   0.000000000000000E+00   0.000000000000000E+00
   0.000000000000000E+00   0.000000000000000E+00   0.000000000000000E+00
   0.000000000000000E+00   0.000000000000000E+00   0.000000000000000E+00
   0.000000000000000E+00   0.000000000000000E+00   0.000000000000000E+00
   0.000000000000000E+00   0.000000000000000E+00   0.000000000000000E+00
   0.000000000000000E+00   0.000000000000000E+00   0.000000000000000E+00
   0.000000000000000E+00   0.000000000000000E+00   0.000000000000000E+00
   0.000000000000000E+00   0.000000000000000E+00   0.000000000000000E+00
   0.000000000000000E+00   0.000000000000000E+00   0.000000000000000E+00
   0.000000000000000E+00   0.000000000000000E+00   0.000000000000000E+00
   0.000000000000000E+00   0.000000000000000E+00   0.000000000000000E+00
   0.000000000000000E+00   0.000000000000000E+00   0.000000000000000E+00
   0.000000000000000E+00   0.000000000000000E+00   0.000000000000000E+00
   0.000000000000000E+00   0.000000000000000E+00   0.000000000000000E+00
   0.000000000000000E+00   0.000000000000000E+00   0.000000000000000E+00
   0.000000000000000E+00   0.000000000000000E+00   0.000000000000000E+00
   0.000000000000000E+00   0.000000000000000E+00   0.000000000000000E+00
   0.000000000000000E+00   0.000000000000000E+00   0.000000000000000E+00
   0.000000000000000E+00   0.000000000000000E+00   0.000000000000000E+00
   0.000000000000000E+00   0.000000000000000E+00   0.000000000000000E+00
   0.000000000000000E+00   0.000000000000000E+00   0.000000000000000E+00
   0.000000000000000E+00   0.000000000000000E+00   0.000000000000000E+00
   0.000000000000000E+00   0.000000000000000E+00   0.000000000000000E+00
   0.000000000000000E+00   0.000000000000000E+00   0.000000000000000E+00
   0.000000000000000E+00   0.000000000000000E+00   0.000000000000000E+00
   0.000000000000000E+00   0.000000000000000E+00   0.000000000000000E+00
   0.000000000000000E+00   0.000000000000000E+00   0.000000000000000E+00
   0.000000000000000E+00   0.000000000000000E+00   0.000000000000000E+00
   0.000000000000000E+00   0.000000000000000E+00   0.000000000000000E+00
   0.000000000000000E+00   0.000000000000000E+00   0.000000000000000E+00
   0.000000000000000E+00   0.000000000000000E+00   0.000000000000000E+00
   0.000000000000000E+00   0.000000000000000E+00   0.000000000000000E+00
   0.000000000000000E+00   0.000000000000000E+00   0.000000000000000E+00
   0.000000000000000E+00   0.000000000000000E+00   0.000000000000000E+00
   0.000000000000000E+00   0.000000000000000E+00   0.000000000000000E+00
   0.000000000000000E+00   0.000000000000000E+00   0.000000000000000E+00
   0.000000000000000E+00   0.000000000000000E+00   0.000000000000000E+00
   0.000000000000000E+00   0.000000000000000E+00
      </PP_QIJL.2.3.1>
      <PP_QIJL.2.4.1 first_index="2" second_index="4" composite_index="8" angular_momentum="1" size="1073">
   1.299153992516958E-11   1.348797255214456E-11   1.400337485742481E-11
   1.453847171005803E-11   1.509401567777021E-11   1.567078808538621E-11
   1.626960011369501E-11   1.689129394030450E-11   1.753674392409058E-11
   1.820685783490662E-11   1.890257813028187E-11   1.962488328090558E-11
   2.037478914676017E-11   2.115335040583899E-11   2.196166203745858E-11
   2.280086086225039E-11   2.367212714099924E-11   2.457668623457610E-11
   2.551581032730007E-11   2.649082021615375E-11   2.750308716836714E-11
   2.855403484998412E-11   2.964514132812269E-11   3.077794114974559E-11
   3.195402749986483E-11   3.317505444221462E-11   3.444273924554560E-11
   3.575886479881053E-11   3.712528211863889E-11   3.854391295262734E-11
   4.001675248210581E-11   4.154587212818230E-11   4.313342246501141E-11
   4.478163624438454E-11   4.649283153589553E-11   4.826941498709712E-11
   5.011388520823493E-11   5.202883628631817E-11   5.401696143346905E-11
   5.608105677468378E-11   5.822402528032853E-11   6.044888084890586E-11
   6.275875254582968E-11   6.515688900417176E-11   6.764666299357008E-11
   7.023157616372117E-11   7.291526396913229E-11   7.570150078205613E-11
   7.859420520080029E-11   8.159744556087769E-11   8.471544565674601E-11
   8.795259068218741E-11   9.131343339767954E-11   9.480270053343304E-11
   9.842529943710170E-11   1.021863249755110E-10   1.060910667001165E-10
   1.101450162862663E-10   1.143538752567297E-10   1.187235630003584E-10
   1.232602250971508E-10   1.279702419614354E-10   1.328602378153228E-10
   1.379370900050501E-10   1.432079386733195E-10   1.486801968012315E-10
   1.543615606339395E-10   1.602600205046867E-10   1.663838720724454E-10
   1.727417279889702E-10   1.793425300116638E-10   1.861955615792985E-10
   1.933104608682783E-10   2.006972343477984E-10   2.083662708529764E-10
   2.163283561957329E-10   2.245946883339840E-10   2.331768931204714E-10
   2.420870406533803E-10   2.513376622517430E-10   2.609417680794955E-10
   2.709128654429820E-10   2.812649777876337E-10   2.920126644205400E-10
   3.031710409866540E-10   3.147558007274187E-10   3.267832365517235E-10
   3.392702639502246E-10   3.522344447852540E-10   3.656940119897824E-10
   3.796678952101571E-10   3.941757474286948E-10   4.092379726035600E-10
   4.248757543648020E-10   4.411110858069143E-10   4.579668004197985E-10
   4.754666042016574E-10   4.936351089989569E-10   5.124978671203578E-10
   5.320814072732981E-10   5.524132718737457E-10   5.735220557816222E-10
   5.954374465163496E-10   6.181902660090869E-10   6.418125139503795E-10
   6.663374127941616E-10   6.917994544814321E-10   7.182344489492938E-10
   7.456795744935806E-10   7.741734300559063E-10   8.037560895086488E-10
   8.344691580142410E-10   8.663558305380027E-10   8.994609525968173E-10
   9.338310833290863E-10   9.695145609746334E-10   1.006561570856683E-09
   1.045024215961493E-09   1.084956590214898E-09   1.126414854558831E-09
   1.169457315934786E-09   1.214144509285315E-09   1.260539282688879E-09
   1.308706885747765E-09   1.358715061353396E-09   1.410634140958025E-09
   1.464537143486878E-09   1.520499878029776E-09   1.578601050456675E-09
   1.638922374107076E-09   1.701548684708913E-09   1.766568059688586E-09
   1.834071942039886E-09   1.904155268926016E-09   1.976916605195574E-09
   2.052458282000195E-09   2.130886540708875E-09   2.212311682321300E-09
   2.296848222590281E-09   2.384615053071520E-09   2.475735608327037E-09
   2.570338039517555E-09   2.668555394627821E-09   2.770525805578382E-09
   2.876392682486907E-09   2.986304915352204E-09   3.100417083444614E-09
   3.218889672697169E-09   3.341889301403222E-09   3.469588954537983E-09
   3.602168227033335E-09   3.739813576348177E-09   3.882718584689341E-09
   4.031084231251880E-09   4.185119174861515E-09   4.345040047416633E-09
   4.511071758542611E-09   4.683447811886693E-09   4.862410633498281E-09
   5.048211912756394E-09   5.241112956323552E-09   5.441385055623989E-09
   5.649309868362801E-09   5.865179814622419E-09   6.089298488093652E-09
   6.321981083018977E-09   6.563554837449211E-09   6.814359493435919E-09
   7.074747774807326E-09   7.345085883199280E-09   7.625754013038376E-09
   7.917146886202145E-09   8.219674307107090E-09   8.533761739005793E-09
   8.859850902303124E-09   9.198400395732419E-09   9.549886341265961E-09
   9.914803053665250E-09   1.029366373561351E-08   1.068700119940727E-08
   1.109536861622145E-08   1.151934029400225E-08   1.195951248508036E-08
   1.241650422464089E-08   1.289095820122845E-08   1.338354166051077E-08
   1.389494734357277E-08   1.442589446105842E-08   1.497712970453140E-08
   1.554942829647575E-08   1.614359508041209E-08   1.676046565266352E-08
   1.740090753736014E-08   1.806582140633569E-08   1.875614234563060E-08
   1.947284117038110E-08   2.021692578994460E-08   2.098944262517809E-08
   2.179147807986353E-08   2.262416006834819E-08   2.348865960154606E-08
   2.438619243353223E-08   2.531802077104175E-08   2.628545504827809E-08
   2.728985576952528E-08   2.833263542215209E-08   2.941526046270042E-08
   3.053925337884533E-08   3.170619483012798E-08   3.291772587046905E-08
   3.417555025558499E-08   3.548143683855329E-08   3.683722205688949E-08
   3.824481251463428E-08   3.970618766307849E-08   4.122340258389144E-08
   4.279859087856803E-08   4.443396766824966E-08   4.613183270813877E-08
   4.789457362088175E-08   4.972466925346190E-08   5.162469316232408E-08
   5.359731723162221E-08   5.564531542967787E-08   5.777156770892708E-08
   5.997906405483150E-08   6.227090868944944E-08   6.465032443556430E-08
   6.712065724750764E-08   6.968538091504075E-08   7.234810194689884E-08
   7.511256464086620E-08   7.798265634749492E-08   8.096241293486875E-08
   8.405602446208547E-08   8.726784106942317E-08   9.060237909347266E-08
   9.406432741581333E-08   9.765855405415856E-08   1.013901130052234E-07
   1.052642513489208E-07   1.092864166238735E-07   1.134622644845855E-07
   1.177976666510354E-07   1.222987191618501E-07   1.269717509426469E-07
   1.318233327015754E-07   1.368602861645472E-07   1.420896936631201E-07
   1.475189080884968E-07   1.531555632256083E-07   1.590075844817942E-07
   1.650832000251321E-07   1.713909523480550E-07   1.779397102724858E-07
   1.847386814133320E-07   1.917974251178408E-07   1.991258658989613E-07
   2.067343073815731E-07   2.146334467811451E-07   2.228343899351358E-07
   2.313486669082314E-07   2.401882481933045E-07   2.493655615308276E-07
   2.588935093703296E-07   2.687854869983856E-07   2.790554013585689E-07
   2.897176905897522E-07   3.007873443101622E-07   3.122799246756079E-07
   3.242115882415330E-07   3.365991086591680E-07   3.494599002382683E-07
   3.628120424086206E-07   3.766743051154948E-07   3.910661751837807E-07
   4.060078836884790E-07   4.215204343693332E-07   4.376256331299182E-07
   4.543461186619858E-07   4.717053942383932E-07   4.897278607191692E-07
   5.084388508162765E-07   5.278646646660434E-07   5.480326067584100E-07
   5.689710242746537E-07   5.907093468879116E-07   6.132781280813357E-07
   6.367090880423823E-07   6.610351581930727E-07   6.862905274182796E-07
   7.125106900571786E-07   7.397324957246137E-07   7.679942010321228E-07
   7.973355232811982E-07   8.277976962036983E-07   8.594235278270899E-07
   8.922574605460379E-07   9.263456334835954E-07   9.617359472296680E-07
   9.984781310467243E-07   1.036623812637548E-06   1.076226590571016E-06
   1.117342109468903E-06   1.160028138056025E-06   1.204344650186623E-06
   1.250353908955667E-06   1.298120554016126E-06   1.347711692221261E-06
   1.399196991720143E-06   1.452648779637770E-06   1.508142143473470E-06
   1.565755036363117E-06   1.625568386346977E-06   1.687666209800408E-06
   1.752135729180839E-06   1.819067495258392E-06   1.888555513999359E-06
   1.960697378276974E-06   2.035594404597915E-06   2.113351775027544E-06
   2.194078684519016E-06   2.277888493844834E-06   2.364898888347352E-06
   2.455232042725840E-06   2.549014792093560E-06   2.646378809535539E-06
   2.747460790421614E-06   2.852402643722661E-06   2.961351690601999E-06
   3.074460870554046E-06   3.191888955374579E-06   3.313800771264680E-06
   3.440367429368910E-06   3.571766565073737E-06   3.708182586391745E-06
   3.849806931780714E-06   3.996838337748163E-06   4.149483116617123E-06
   4.307955444833874E-06   4.472477662215898E-06   4.643280582554132E-06
   4.820603815998931E-06   5.004696103669659E-06   5.195815664959646E-06
   5.394230558001193E-06   5.600219053798862E-06   5.814070024539006E-06
   6.036083346616668E-06   6.266570318921457E-06   6.505854096974062E-06
   6.754270143495635E-06   7.012166696033774E-06   7.279905252291416E-06
   7.557861073811518E-06   7.846423708721521E-06   8.145997534241931E-06
   8.457002319710539E-06   8.779873810880900E-06   9.115064336308987E-06
   9.463043436634346E-06   9.824298517637485E-06   1.019933552794289E-05
   1.058867966230736E-05   1.099287609143527E-05   1.141249071932774E-05
   1.184811096917931E-05   1.230034659890378E-05   1.276983054738075E-05
   1.325721981258044E-05   1.376319636274596E-05   1.428846808187052E-05
   1.483376975074624E-05   1.539986406490123E-05   1.598754269080502E-05
   1.659762736175959E-05   1.723097101494703E-05   1.788845897116720E-05
   1.857101015884032E-05   1.927957838391572E-05   2.001515364739265E-05
   2.077876351220077E-05   2.157147452127461E-05   2.239439366870491E-05
   2.324866992592720E-05   2.413549582497317E-05   2.505610910088545E-05
   2.601179439547013E-05   2.700388502464345E-05   2.803376481169678E-05
   2.910286998890615E-05   3.021269116998227E-05   3.136477539594983E-05
   3.256072825713987E-05   3.380221609407600E-05   3.509096828011556E-05
   3.642877958883482E-05   3.781751264922549E-05   3.925910049189857E-05
   4.075554918957890E-05   4.230894059531784E-05   4.392143518194411E-05
   4.559527498640111E-05   4.733278666275973E-05   4.913638464780195E-05
   5.100857444321914E-05   5.295195601860732E-05   5.496922733957141E-05
   5.706318802541440E-05   5.923674314101240E-05   6.149290712767131E-05
   6.383480787786882E-05   6.626569095900280E-05   6.878892399139217E-05
   7.140800118597912E-05   7.412654804734947E-05   7.694832624786806E-05
   7.987723867892143E-05   8.291733468546289E-05   8.607281549021865E-05
   8.934803981417405E-05   9.274752970011465E-05   9.627597654624894E-05
   9.993824735714142E-05   1.037393912194158E-04   1.076846460099254E-04
   1.117794453443223E-04   1.160294257741857E-04   1.204404342411374E-04
   1.250185357966275E-04   1.297700215963025E-04   1.347014171781735E-04
   1.398194910340475E-04   1.451312634839420E-04   1.506440158635487E-04
   1.563653000350098E-04   1.623029482316361E-04   1.684650832474333E-04
   1.748601289826520E-04   1.814968213568320E-04   1.883842196011598E-04
   1.955317179422330E-04   2.029490576896657E-04   2.106463397402788E-04
   2.186340375119086E-04   2.269230103202513E-04   2.355245172124138E-04
   2.444502312711886E-04   2.537122544044253E-04   2.633231326341363E-04
   2.732958719003319E-04   2.836439543948924E-04   2.943813554410629E-04
   3.055225609345358E-04   3.170825853623146E-04   3.290769904158853E-04
   3.415219042155286E-04   3.544340411628094E-04   3.678307224386744E-04
   3.817298971646628E-04   3.961501642451860E-04   4.111107949088385E-04
   4.266317559670842E-04   4.427337338087070E-04   4.594381591486792E-04
   4.767672325501315E-04   4.947439507382950E-04   5.133921337252684E-04
   5.327364527645861E-04   5.528024591544649E-04   5.736166139086061E-04
   5.952063183133312E-04   6.175999453896120E-04   6.408268722784600E-04
   6.649175135677439E-04   6.899033555782512E-04   7.158169916263848E-04
   7.426921582803080E-04   7.705637726259477E-04   7.994679705584117E-04
   8.294421461137302E-04   8.605249918549245E-04   8.927565403253519E-04
   9.261782065813232E-04   9.608328318144966E-04   9.967647280734212E-04
   1.034019724091866E-03   1.072645212229942E-03   1.112690196532122E-03
   1.154205341904202E-03   1.197243024408934E-03   1.241857382677630E-03
   1.288104370432223E-03   1.336041810109392E-03   1.385729447575093E-03
   1.437229007914319E-03   1.490604252277125E-03   1.545921035757818E-03
   1.603247366279807E-03   1.662653464453758E-03   1.724211824371497E-03
   1.787997275292622E-03   1.854087044174610E-03   1.922560818990982E-03
   1.993500812774955E-03   2.066991828318672E-03   2.143121323450238E-03
   2.221979476802039E-03   2.303659253975066E-03   2.388256473993922E-03
   2.475869875937066E-03   2.566601185615671E-03   2.660555182162730E-03
   2.757839764381620E-03   2.858566016689846E-03   2.962848274479714E-03
   3.070804188702635E-03   3.182554789467695E-03   3.298224548428581E-03
   3.417941439714774E-03   3.541836999144326E-03   3.670046381435357E-03
   3.802708415112534E-03   3.939965654782536E-03   4.081964430429064E-03
   4.228854893353381E-03   4.380791058360448E-03   4.537930841763379E-03
   4.700436094750701E-03   4.868472631630486E-03   5.042210252434402E-03
   5.221822759331832E-03   5.407487966269655E-03   5.599387701217935E-03
   5.797707800363979E-03   6.002638093558707E-03   6.214372380278771E-03
   6.433108395325726E-03   6.659047763440631E-03   6.892395941966859E-03
   7.133362150647970E-03   7.382159287599298E-03   7.639003830442619E-03
   7.904115721543058E-03   8.177718236234883E-03   8.460037832870533E-03
   8.751303983472790E-03   9.051748983715028E-03   9.361607740899509E-03
   9.681117538546724E-03   1.001051777615302E-02   1.035004968261697E-02
   1.069995600177848E-02   1.106048064845959E-02   1.143186833334033E-02
   1.181436415495003E-02   1.220821315700255E-02   1.261365984925426E-02
   1.303094769001731E-02   1.346031852841701E-02   1.390201200444321E-02
   1.435626490481101E-02   1.482331047261732E-02   1.530337766875773E-02
   1.579669038305292E-02   1.630346659302752E-02   1.682391746828787E-02
   1.735824641845805E-02   1.790664808266118E-02   1.846930725857093E-02
   1.904639776911380E-02   1.963808126497349E-02   2.024450596113770E-02
   2.086580530583850E-02   2.150209658036747E-02   2.215347942840409E-02
   2.282003431367675E-02   2.350182090498691E-02   2.419887638786861E-02
   2.491121370242969E-02   2.563881970723286E-02   2.638165326942369E-02
   2.713964328170295E-02   2.791268660717767E-02   2.870064595360497E-02
   2.950334767907691E-02   3.032057953177825E-02   3.115208832708990E-02
   3.199757756601123E-02   3.285670499963372E-02   3.372908014522376E-02
   3.461426176036442E-02   3.551175528256383E-02   3.642101024277197E-02
   3.734141766234750E-02   3.827230744419510E-02   3.921294577004482E-02
   4.016253251716892E-02   4.112019870923429E-02   4.208500401745773E-02
   4.305593432977570E-02   4.403189940734953E-02   4.501173064939804E-02
   4.599417898908070E-02   4.697791294493017E-02   4.796151685415424E-02
   4.894348931597445E-02   4.992224187503434E-02   5.089609797677944E-02
   5.186329222856158E-02   5.282197000203803E-02   5.377018741419586E-02
   5.470591172600505E-02   5.562702219926982E-02   5.653131145366296E-02
   5.741648736716674E-02   5.828017556416220E-02   5.911992253616166E-02
   5.993319944062661E-02   6.071740662339521E-02   6.146987890991421E-02
   6.218789170966493E-02   6.286866797683217E-02   6.350938606832654E-02
   6.410718853765823E-02   6.465919189981385E-02   6.516249739812591E-02
   6.561420279907955E-02   6.601141523499714E-02   6.635126510750583E-02
   6.663092105655827E-02   6.684760599047407E-02   6.699861416194132E-02
   6.708132926311196E-02   6.709324349979730E-02   6.703197759029772E-02
   6.689530161856644E-02   6.668115665422095E-02   6.638767703340732E-02
   6.601321317474791E-02   6.555635478365271E-02   6.501595427626616E-02
   6.439115023142829E-02   6.368139065544298E-02   6.288645582044368E-02
   6.200648041301671E-02   6.104197470586908E-02   5.999384444213383E-02
   5.886340909987987E-02   5.765241818411546E-02   5.636306517565097E-02
   5.499799875133698E-02   5.356033087918351E-02   5.205364138550516E-02
   5.048197859045130E-02   4.884985561396851E-02   4.716224196739841E-02
   4.542455006753800E-02   4.364261634104007E-02   4.182267662851979E-02
   3.997133565052871E-02   3.809553036249522E-02   3.620248710350510E-02
   3.429967253486157E-02   3.239473846904675E-02   3.049546080790747E-02
   2.860967294024885E-02   2.674519409270604E-02   2.490975328240191E-02
   2.311090968362341E-02   2.135597039091986E-02   1.965190673436856E-02
   1.800527047514572E-02   1.642211137598995E-02   1.490789779583030E-02
   1.346744209394052E-02   1.210483273881421E-02   1.082337509196976E-02
   9.625542867721203E-03   8.512942246653573E-03   7.486290532641972E-03
   6.545411080189798E-03   5.689245970191343E-03   4.915887568127563E-03
   4.222629650547226E-03   3.606038226549989E-03   3.062041506539329E-03
   2.586037679723242E-03   2.173018257971334E-03   1.817703735252276E-03
   1.514687213848922E-03   1.258580483205651E-03   1.044155835389551E-03
   8.664757030029547E-04   7.210010615115395E-04   6.036685097782317E-04
   5.109955939897604E-04   4.401187826227893E-04   3.882937302440159E-04
   3.528118184186191E-04   3.310306011437558E-04   3.204033023338493E-04
   3.185068312570039E-04   3.230677503595070E-04   3.319856097382390E-04
   3.433530568017207E-04   3.554721417088347E-04   3.668662722610128E-04
   3.762873291864310E-04   3.827175372247416E-04   3.853658016984562E-04
   3.836583665765558E-04   3.772238300412400E-04   3.658727679434759E-04
   3.495724643317599E-04   3.284175299074765E-04   3.025975011877735E-04
   2.723628509939680E-04   2.379911981777727E-04   2.002354564550890E-04
   1.615920392936121E-04   1.245693304129658E-04   9.111986368048886E-05
   6.260455206411053E-05   3.978040261920501E-05   2.281627779007755E-05
   1.134128823471192E-05   4.530302452496193E-06   1.230811060098924E-06
   1.349655660703997E-07  -6.938893903907228E-18   0.000000000000000E+00
   0.000000000000000E+00   0.000000000000000E+00   0.000000000000000E+00
   0.000000000000000E+00   0.000000000000000E+00   0.000000000000000E+00
   0.000000000000000E+00   0.000000000000000E+00   0.000000000000000E+00
   0.000000000000000E+00   0.000000000000000E+00   0.000000000000000E+00
   0.000000000000000E+00   0.000000000000000E+00   0.000000000000000E+00
   0.000000000000000E+00   0.000000000000000E+00   0.000000000000000E+00
   0.000000000000000E+00   0.000000000000000E+00   0.000000000000000E+00
   0.000000000000000E+00   0.000000000000000E+00   0.000000000000000E+00
   0.000000000000000E+00   0.000000000000000E+00   0.000000000000000E+00
   0.000000000000000E+00   0.000000000000000E+00   0.000000000000000E+00
   0.000000000000000E+00   0.000000000000000E+00   0.000000000000000E+00
   0.000000000000000E+00   0.000000000000000E+00   0.000000000000000E+00
   0.000000000000000E+00   0.000000000000000E+00   0.000000000000000E+00
   0.000000000000000E+00   0.000000000000000E+00   0.000000000000000E+00
   0.000000000000000E+00   0.000000000000000E+00   0.000000000000000E+00
   0.000000000000000E+00   0.000000000000000E+00   0.000000000000000E+00
   0.000000000000000E+00   0.000000000000000E+00   0.000000000000000E+00
   0.000000000000000E+00   0.000000000000000E+00   0.000000000000000E+00
   0.000000000000000E+00   0.000000000000000E+00   0.000000000000000E+00
   0.000000000000000E+00   0.000000000000000E+00   0.000000000000000E+00
   0.000000000000000E+00   0.000000000000000E+00   0.000000000000000E+00
   0.000000000000000E+00   0.000000000000000E+00   0.000000000000000E+00
   0.000000000000000E+00   0.000000000000000E+00   0.000000000000000E+00
   0.000000000000000E+00   0.000000000000000E+00   0.000000000000000E+00
   0.000000000000000E+00   0.000000000000000E+00   0.000000000000000E+00
   0.000000000000000E+00   0.000000000000000E+00   0.000000000000000E+00
   0.000000000000000E+00   0.000000000000000E+00   0.000000000000000E+00
   0.000000000000000E+00   0.000000000000000E+00   0.000000000000000E+00
   0.000000000000000E+00   0.000000000000000E+00   0.000000000000000E+00
   0.000000000000000E+00   0.000000000000000E+00   0.000000000000000E+00
   0.000000000000000E+00   0.000000000000000E+00   0.000000000000000E+00
   0.000000000000000E+00   0.000000000000000E+00   0.000000000000000E+00
   0.000000000000000E+00   0.000000000000000E+00   0.000000000000000E+00
   0.000000000000000E+00   0.000000000000000E+00   0.000000000000000E+00
   0.000000000000000E+00   0.000000000000000E+00   0.000000000000000E+00
   0.000000000000000E+00   0.000000000000000E+00   0.000000000000000E+00
   0.000000000000000E+00   0.000000000000000E+00   0.000000000000000E+00
   0.000000000000000E+00   0.000000000000000E+00   0.000000000000000E+00
   0.000000000000000E+00   0.000000000000000E+00   0.000000000000000E+00
   0.000000000000000E+00   0.000000000000000E+00   0.000000000000000E+00
   0.000000000000000E+00   0.000000000000000E+00   0.000000000000000E+00
   0.000000000000000E+00   0.000000000000000E+00   0.000000000000000E+00
   0.000000000000000E+00   0.000000000000000E+00   0.000000000000000E+00
   0.000000000000000E+00   0.000000000000000E+00   0.000000000000000E+00
   0.000000000000000E+00   0.000000000000000E+00   0.000000000000000E+00
   0.000000000000000E+00   0.000000000000000E+00   0.000000000000000E+00
   0.000000000000000E+00   0.000000000000000E+00   0.000000000000000E+00
   0.000000000000000E+00   0.000000000000000E+00   0.000000000000000E+00
   0.000000000000000E+00   0.000000000000000E+00   0.000000000000000E+00
   0.000000000000000E+00   0.000000000000000E+00   0.000000000000000E+00
   0.000000000000000E+00   0.000000000000000E+00   0.000000000000000E+00
   0.000000000000000E+00   0.000000000000000E+00   0.000000000000000E+00
   0.000000000000000E+00   0.000000000000000E+00   0.000000000000000E+00
   0.000000000000000E+00   0.000000000000000E+00   0.000000000000000E+00
   0.000000000000000E+00   0.000000000000000E+00   0.000000000000000E+00
   0.000000000000000E+00   0.000000000000000E+00   0.000000000000000E+00
   0.000000000000000E+00   0.000000000000000E+00   0.000000000000000E+00
   0.000000000000000E+00   0.000000000000000E+00   0.000000000000000E+00
   0.000000000000000E+00   0.000000000000000E+00   0.000000000000000E+00
   0.000000000000000E+00   0.000000000000000E+00   0.000000000000000E+00
   0.000000000000000E+00   0.000000000000000E+00   0.000000000000000E+00
   0.000000000000000E+00   0.000000000000000E+00   0.000000000000000E+00
   0.000000000000000E+00   0.000000000000000E+00   0.000000000000000E+00
   0.000000000000000E+00   0.000000000000000E+00   0.000000000000000E+00
   0.000000000000000E+00   0.000000000000000E+00   0.000000000000000E+00
   0.000000000000000E+00   0.000000000000000E+00   0.000000000000000E+00
   0.000000000000000E+00   0.000000000000000E+00   0.000000000000000E+00
   0.000000000000000E+00   0.000000000000000E+00   0.000000000000000E+00
   0.000000000000000E+00   0.000000000000000E+00   0.000000000000000E+00
   0.000000000000000E+00   0.000000000000000E+00   0.000000000000000E+00
   0.000000000000000E+00   0.000000000000000E+00   0.000000000000000E+00
   0.000000000000000E+00   0.000000000000000E+00   0.000000000000000E+00
   0.000000000000000E+00   0.000000000000000E+00   0.000000000000000E+00
   0.000000000000000E+00   0.000000000000000E+00   0.000000000000000E+00
   0.000000000000000E+00   0.000000000000000E+00   0.000000000000000E+00
   0.000000000000000E+00   0.000000000000000E+00   0.000000000000000E+00
   0.000000000000000E+00   0.000000000000000E+00   0.000000000000000E+00
   0.000000000000000E+00   0.000000000000000E+00   0.000000000000000E+00
   0.000000000000000E+00   0.000000000000000E+00   0.000000000000000E+00
   0.000000000000000E+00   0.000000000000000E+00   0.000000000000000E+00
   0.000000000000000E+00   0.000000000000000E+00   0.000000000000000E+00
   0.000000000000000E+00   0.000000000000000E+00   0.000000000000000E+00
   0.000000000000000E+00   0.000000000000000E+00   0.000000000000000E+00
   0.000000000000000E+00   0.000000000000000E+00   0.000000000000000E+00
   0.000000000000000E+00   0.000000000000000E+00   0.000000000000000E+00
   0.000000000000000E+00   0.000000000000000E+00   0.000000000000000E+00
   0.000000000000000E+00   0.000000000000000E+00   0.000000000000000E+00
   0.000000000000000E+00   0.000000000000000E+00   0.000000000000000E+00
   0.000000000000000E+00   0.000000000000000E+00   0.000000000000000E+00
   0.000000000000000E+00   0.000000000000000E+00   0.000000000000000E+00
   0.000000000000000E+00   0.000000000000000E+00   0.000000000000000E+00
   0.000000000000000E+00   0.000000000000000E+00   0.000000000000000E+00
   0.000000000000000E+00   0.000000000000000E+00   0.000000000000000E+00
   0.000000000000000E+00   0.000000000000000E+00   0.000000000000000E+00
   0.000000000000000E+00   0.000000000000000E+00   0.000000000000000E+00
   0.000000000000000E+00   0.000000000000000E+00   0.000000000000000E+00
   0.000000000000000E+00   0.000000000000000E+00   0.000000000000000E+00
   0.000000000000000E+00   0.000000000000000E+00   0.000000000000000E+00
   0.000000000000000E+00   0.000000000000000E+00   0.000000000000000E+00
   0.000000000000000E+00   0.000000000000000E+00   0.000000000000000E+00
   0.000000000000000E+00   0.000000000000000E+00   0.000000000000000E+00
   0.000000000000000E+00   0.000000000000000E+00   0.000000000000000E+00
   0.000000000000000E+00   0.000000000000000E+00   0.000000000000000E+00
   0.000000000000000E+00   0.000000000000000E+00   0.000000000000000E+00
   0.000000000000000E+00   0.000000000000000E+00   0.000000000000000E+00
   0.000000000000000E+00   0.000000000000000E+00   0.000000000000000E+00
   0.000000000000000E+00   0.000000000000000E+00   0.000000000000000E+00
   0.000000000000000E+00   0.000000000000000E+00   0.000000000000000E+00
   0.000000000000000E+00   0.000000000000000E+00   0.000000000000000E+00
   0.000000000000000E+00   0.000000000000000E+00   0.000000000000000E+00
   0.000000000000000E+00   0.000000000000000E+00   0.000000000000000E+00
   0.000000000000000E+00   0.000000000000000E+00   0.000000000000000E+00
   0.000000000000000E+00   0.000000000000000E+00   0.000000000000000E+00
   0.000000000000000E+00   0.000000000000000E+00
      </PP_QIJL.2.4.1>
      <PP_QIJL.3.3.0 first_index="3" second_index="3" composite_index="6" angular_momentum="0" size="1073">
   5.377563523724541E-09   5.513697235057852E-09   5.653277189885282E-09
   5.796390630388212E-09   5.943127007300143E-09   6.093578035816683E-09
   6.247837752921025E-09   6.406002576160591E-09   6.568171363911639E-09
   6.734445477169549E-09   6.904928842903230E-09   7.079728019013495E-09
   7.258952260935819E-09   7.442713589929189E-09   7.631126863093772E-09
   7.824309845160993E-09   8.022383282101097E-09   8.225470976594138E-09
   8.433699865411472E-09   8.647200098756323E-09   8.866105121612744E-09
   9.090551757154075E-09   9.320680292262908E-09   9.556634565216002E-09
   9.798562055589100E-09   1.004661397643752E-08   1.030094536881057E-08
   1.056171519865856E-08   1.082908645619302E-08   1.110322625776241E-08
   1.138430595030674E-08   1.167250121845661E-08   1.196799219434349E-08
   1.227096357018995E-08   1.258160471375020E-08   1.290010978667300E-08
   1.322667786586106E-08   1.356151306790284E-08   1.390482467665416E-08
   1.425682727405009E-08   1.461774087422781E-08   1.498779106104550E-08
   1.536720912908228E-08   1.575623222820774E-08   1.615510351181152E-08
   1.656407228878513E-08   1.698339417935163E-08   1.741333127484016E-08
   1.785415230150519E-08   1.830613278849333E-08   1.876955524006186E-08
   1.924470931215770E-08   1.973189199346618E-08   2.023140779104355E-08
   2.074356892064895E-08   2.126869550189450E-08   2.180711575833622E-08
   2.235916622263033E-08   2.292519194688313E-08   2.350554671832656E-08
   2.410059328045325E-08   2.471070355975041E-08   2.533625889817345E-08
   2.597765029150493E-08   2.663527863374829E-08   2.730955496770811E-08
   2.800090074191457E-08   2.870974807405218E-08   2.943654002105757E-08
   3.018173085605530E-08   3.094578635230438E-08   3.172918407433366E-08
   3.253241367644780E-08   3.335597720878982E-08   3.420038943115309E-08
   3.506617813473680E-08   3.595388447204823E-08   3.686406329515648E-08
   3.779728350250979E-08   3.875412839453364E-08   3.973519603823046E-08
   4.074109964101086E-08   4.177246793398858E-08   4.282994556497949E-08
   4.391419350145020E-08   4.502588944366785E-08   4.616572824831007E-08
   4.733442236279913E-08   4.853270227063264E-08   4.976131694798864E-08
   5.102103433189040E-08   5.231264180022442E-08   5.363694666391092E-08
   5.499477667153498E-08   5.638698052675399E-08   5.781442841880379E-08
   5.927801256643698E-08   6.077864777563182E-08   6.231727201142141E-08
   6.389484698420074E-08   6.551235875087665E-08   6.717081833123902E-08
   6.887126233993656E-08   7.061475363445337E-08   7.240238197949127E-08
   7.423526472817232E-08   7.611454752048958E-08   7.804140499944041E-08
   8.001704154529224E-08   8.204269202843845E-08   8.411962258131530E-08
   8.624913138986358E-08   8.843254950502900E-08   9.067124167480851E-08
   9.296660719736478E-08   9.532008079573841E-08   9.773313351470963E-08
   1.002072736403671E-07   1.027440476429591E-07   1.053450411436193E-07
   1.080118799055678E-07   1.107462308504100E-07   1.135498031001687E-07
   1.164243490457002E-07   1.193716654421632E-07   1.223935945322243E-07
   1.254920251977058E-07   1.286688941403920E-07   1.319261870927352E-07
   1.352659400592193E-07   1.386902405891530E-07   1.422012290816947E-07
   1.458011001239211E-07   1.494921038627778E-07   1.532765474117715E-07
   1.571567962932792E-07   1.611352759173830E-07   1.652144730981509E-07
   1.693969376083126E-07   1.736852837733069E-07   1.780821921056900E-07
   1.825904109809365E-07   1.872127583556748E-07   1.919521235294339E-07
   1.968114689510061E-07   2.017938320705506E-07   2.069023272386019E-07
   2.121401476531694E-07   2.175105673561458E-07   2.230169432802734E-07
   2.286627173479514E-07   2.344514186231936E-07   2.403866655180881E-07
   2.464721680551362E-07   2.527117301868872E-07   2.591092521743207E-07
   2.656687330254658E-07   2.723942729957833E-07   2.792900761518737E-07
   2.863604530001215E-07   2.936098231819110E-07   3.010427182371125E-07
   3.086637844375619E-07   3.164777856923053E-07   3.244896065264390E-07
   3.327042551353892E-07   3.411268665165725E-07   3.497627056803666E-07
   3.586171709424260E-07   3.676957972993955E-07   3.770042598901259E-07
   3.865483775445837E-07   3.963341164226474E-07   4.063675937450942E-07
   4.166550816191030E-07   4.272030109606612E-07   4.380179755163608E-07
   4.491067359870644E-07   4.604762242560568E-07   4.721335477243204E-07
   4.840859937556324E-07   4.963410342343120E-07   5.089063302384219E-07
   5.217897368313937E-07   5.349993079750630E-07   5.485433015671802E-07
   5.624301846065951E-07   5.766686384893007E-07   5.912675644386996E-07
   6.062360890734751E-07   6.215835701165552E-07   6.373196022487759E-07
   6.534540231108722E-07   6.699969194576014E-07   6.869586334678375E-07
   7.043497692145863E-07   7.221811992990133E-07   7.404640716526017E-07
   7.592098165117444E-07   7.784301535691380E-07   7.981370993064347E-07
   8.183429745128184E-07   8.390604119941539E-07   8.603023644775948E-07
   8.820821127166054E-07   9.044132738014502E-07   9.273098096804382E-07
   9.507860358971954E-07   9.748566305495056E-07   9.995366434753455E-07
   1.024841505671830E-06   1.050787038953084E-06   1.077389465852993E-06
   1.104665419779160E-06   1.132631955424392E-06   1.161306559442252E-06
   1.190707161393465E-06   1.220852144969948E-06   1.251760359503634E-06
   1.283451131767255E-06   1.315944278074519E-06   1.349260116687356E-06
   1.383419480537937E-06   1.418443730273566E-06   1.454354767632625E-06
   1.491175049159950E-06   1.528927600270383E-06   1.567636029669232E-06
   1.607324544138811E-06   1.648017963700378E-06   1.689741737160929E-06
   1.732521958054822E-06   1.776385380990087E-06   1.821359438409889E-06
   1.867472257779644E-06   1.914752679210609E-06   1.963230273531176E-06
   2.012935360817124E-06   2.063899029392682E-06   2.116153155314307E-06
   2.169730422349480E-06   2.224664342463275E-06   2.280989276825444E-06
   2.338740457351490E-06   2.397954008791251E-06   2.458666971378977E-06
   2.520917324059295E-06   2.584744008303660E-06   2.650186952532497E-06
   2.717287097158408E-06   2.786086420266344E-06   2.856627963947055E-06
   2.928955861300459E-06   3.003115364126087E-06   3.079152871318211E-06
   3.157115957983591E-06   3.237053405300448E-06   3.319015231137503E-06
   3.403052721452676E-06   3.489218462491326E-06   3.577566373804500E-06
   3.668151742108296E-06   3.761031256005783E-06   3.856263041593678E-06
   3.953906698976474E-06   4.054023339711179E-06   4.156675625206760E-06
   4.261927806102577E-06   4.369845762651117E-06   4.480497046130752E-06
   4.593950921314998E-06   4.710278410025472E-06   4.829552335796365E-06
   4.951847369679065E-06   5.077240077216324E-06   5.205808966615947E-06
   5.337634538155075E-06   5.472799334846633E-06   5.611387994400582E-06
   5.753487302513355E-06   5.899186247519665E-06   6.048576076442041E-06
   6.201750352474014E-06   6.358805013934090E-06   6.519838434728604E-06
   6.684951486362333E-06   6.854247601537069E-06   7.027832839379242E-06
   7.205815952338747E-06   7.388308454802427E-06   7.575424693466534E-06
   7.767281919514043E-06   7.964000362643409E-06   8.165703306997195E-06
   8.372517169039821E-06   8.584571577435055E-06   8.801999454975627E-06
   9.024937102618096E-06   9.253524285678117E-06   9.487904322242438E-06
   9.728224173855330E-06   9.974634538539252E-06   1.022728994621040E-05
   1.048634885655212E-05   1.075197375941050E-05   1.102433127777811E-05
   1.130359227343408E-05   1.158993195530998E-05   1.188352999065336E-05
   1.218457061906254E-05   1.249324276946805E-05   1.280974018013868E-05
   1.313426152179168E-05   1.346701052388919E-05   1.380819610420523E-05
   1.415803250174949E-05   1.451673941313730E-05   1.488454213249647E-05
   1.526167169500572E-05   1.564836502416057E-05   1.604486508286603E-05
   1.645142102845816E-05   1.686828837175907E-05   1.729572914027319E-05
   1.773401204563540E-05   1.818341265542506E-05   1.864421356946234E-05
   1.911670460070790E-05   1.960118296088915E-05   2.009795345098028E-05
   2.060732865666701E-05   2.112962914893023E-05   2.166518368988744E-05
   2.221432944403347E-05   2.277741219502744E-05   2.335478656817651E-05
   2.394681625877031E-05   2.455387426642690E-05   2.517634313561285E-05
   2.581461520250682E-05   2.646909284838015E-05   2.714018875967253E-05
   2.782832619494733E-05   2.853393925891558E-05   2.925747318372281E-05
   2.999938461770044E-05   3.076014192178660E-05   3.154022547383050E-05
   3.234012798099819E-05   3.316035480050517E-05   3.400142426890893E-05
   3.486386804019872E-05   3.574823143293084E-05   3.665507378666155E-05
   3.758496882793993E-05   3.853850504612959E-05   3.951628607933677E-05
   4.051893111073074E-05   4.154707527555196E-05   4.260137007911057E-05
   4.368248382608981E-05   4.479110206147581E-05   4.592792802344807E-05
   4.709368310857333E-05   4.828910734965637E-05   4.951495990661433E-05
   5.077201957074930E-05   5.206108528280975E-05   5.338297666524040E-05
   5.473853456903452E-05   5.612862163561647E-05   5.755412287419308E-05
   5.901594625503114E-05   6.051502331912862E-05   6.205230980476525E-05
   6.362878629143309E-05   6.524545886166270E-05   6.690335978128091E-05
   6.860354819864923E-05   7.034711086345426E-05   7.213516286563852E-05
   7.396884839507788E-05   7.584934152263646E-05   7.777784700324784E-05
   7.975560110169249E-05   8.178387244176771E-05   8.386396287956702E-05
   8.599720840160898E-05   8.818498004858681E-05   9.042868486552948E-05
   9.272976687919666E-05   9.508970810355765E-05   9.751002957423098E-05
   9.999229241279819E-05   1.025380989219293E-04   1.051490937122975E-04
   1.078269648622907E-04   1.105734451115639E-04   1.133903130895153E-04
   1.162793945798061E-04   1.192425638220832E-04   1.222817448521085E-04
   1.253989128815369E-04   1.285960957186371E-04   1.318753752312897E-04
   1.352388888536468E-04   1.386888311378947E-04   1.422274553526013E-04
   1.458570751291975E-04   1.495800661581908E-04   1.533988679367702E-04
   1.573159855695270E-04   1.613339916240715E-04   1.654555280434032E-04
   1.696833081169540E-04   1.740201185122972E-04   1.784688213695948E-04
   1.830323564609254E-04   1.877137434167267E-04   1.925160840216638E-04
   1.974425645823244E-04   2.024964583692386E-04   2.076811281358065E-04
   2.130000287168283E-04   2.184567097094279E-04   2.240548182392694E-04
   2.297981018150825E-04   2.356904112746206E-04   2.417357038253130E-04
   2.479380461829805E-04   2.543016178121318E-04   2.608307142714859E-04
   2.675297506685107E-04   2.744032652269213E-04   2.814559229712311E-04
   2.886925195326146E-04   2.961179850805058E-04   3.037373883845300E-04
   3.115559410115577E-04   3.195790016628478E-04   3.278120806564490E-04
   3.362608445602413E-04   3.449311209811937E-04   3.538289035166653E-04
   3.629603568737793E-04   3.723318221631619E-04   3.819498223735792E-04
   3.918210680342616E-04   4.019524630719929E-04   4.123511108703032E-04
   4.230243205384135E-04   4.339796133978784E-04   4.452247296951831E-04
   4.567676355489031E-04   4.686165301403515E-04   4.807798531570068E-04
   4.932662924983941E-04   5.060847922544419E-04   5.192445609667905E-04
   5.327550801838861E-04   5.466261133211565E-04   5.608677148380115E-04
   5.754902397438452E-04   5.905043534457406E-04   6.059210419510326E-04
   6.217516224384269E-04   6.380077542119025E-04   6.547014500521582E-04
   6.718450879809817E-04   6.894514234544558E-04   7.075336020015773E-04
   7.261051723254780E-04   7.451800998850796E-04   7.647727809757280E-04
   7.848980573280192E-04   8.055712312447591E-04   8.268080812967703E-04
   8.486248785989636E-04   8.710384036889679E-04   8.940659640313528E-04
   9.177254121713493E-04   9.420351645628472E-04   9.670142210962782E-04
   9.926821853529749E-04   1.019059285613465E-03   1.046166396648138E-03
   1.074025062319703E-03   1.102657519027807E-03   1.132086720027290E-03
   1.162336360652459E-03   1.193430904480955E-03   1.225395610471740E-03
   1.258256561112876E-03   1.292040691615875E-03   1.326775820194471E-03
   1.362490679466790E-03   1.399214949021077E-03   1.436979289186131E-03
   1.475815376048927E-03   1.515755937762801E-03   1.556834792190881E-03
   1.599086885930421E-03   1.642548334764812E-03   1.687256465591139E-03
   1.733249859872116E-03   1.780568398662234E-03   1.829253309258943E-03
   1.879347213530446E-03   1.930894177972685E-03   1.983939765548642E-03
   2.038531089363870E-03   2.094716868232675E-03   2.152547484189746E-03
   2.212075042002470E-03   2.273353430739210E-03   2.336438387448859E-03
   2.401387563006877E-03   2.468260590182425E-03   2.537119153980909E-03
   2.608027064315061E-03   2.681050331056764E-03   2.756257241520299E-03
   2.833718440425864E-03   2.913507012390207E-03   2.995698566988482E-03
   3.080371326428571E-03   3.167606215875561E-03   3.257486956460034E-03
   3.350100160999354E-03   3.445535432455744E-03   3.543885465149197E-03
   3.645246148736537E-03   3.749716674960502E-03   3.857399647164519E-03
   3.968401192559442E-03   4.082831077218358E-03   4.200802823764227E-03
   4.322433831702430E-03   4.447845500336766E-03   4.577163354192009E-03
   4.710517170849665E-03   4.848041111085301E-03   4.989873851175868E-03
   5.136158717223989E-03   5.287043821322166E-03   5.442682199354617E-03
   5.603231950206173E-03   5.768856376117674E-03   5.939724123894588E-03
   6.116009326640022E-03   6.297891745645287E-03   6.485556912029925E-03
   6.679196267678624E-03   6.879007304975066E-03   7.085193704781195E-03
   7.297965472055528E-03   7.517539068445423E-03   7.744137541124681E-03
   7.977990647081160E-03   8.219334971986514E-03   8.468414042703865E-03
   8.725478432407422E-03   8.990785857201091E-03   9.264601263031219E-03
   9.547196901590421E-03   9.838852393806071E-03   1.013985477939756E-02
   1.045049855087017E-02   1.077108567019253E-02   1.110192556627506E-02
   1.144333511123273E-02   1.179563857327370E-02   1.215916754390695E-02
   1.253426083700810E-02   1.292126435712013E-02   1.332053093419871E-02
   1.373242012183721E-02   1.415729795582579E-02   1.459553666971374E-02
   1.504751436385140E-02   1.551361462419243E-02   1.599422608693575E-02
   1.648974194488203E-02   1.700055939117282E-02   1.752707899587100E-02
   1.806970401063190E-02   1.862883959650635E-02   1.920489196970951E-02
   1.979826745998937E-02   2.040937147603135E-02   2.103860737214959E-02
   2.168637521033959E-02   2.235307041160437E-02   2.303908229032403E-02
   2.374479246531322E-02   2.447057314111431E-02   2.521678525300523E-02
   2.598377646916510E-02   2.677187904344860E-02   2.758140751226804E-02
   2.841265622918610E-02   2.926589673098312E-02   3.014137492918906E-02
   3.103930812137319E-02   3.195988181686690E-02   3.290324637207222E-02
   3.386951343108580E-02   3.485875216805692E-02   3.587098532851409E-02
   3.690618506783903E-02   3.796426858616390E-02   3.904509356022205E-02
   4.014845337410743E-02   4.127407215251470E-02   4.242159960184160E-02
   4.359060566656477E-02   4.478057501055399E-02   4.599090133548548E-02
   4.722088155126875E-02   4.846970981641745E-02   4.973647146959669E-02
   5.102013687716728E-02   5.231955522543730E-02   5.363344829052966E-02
   5.496040422328227E-02   5.629887139142175E-02   5.764715232638801E-02
   5.900339782762998E-02   6.036560128293476E-02   6.173159326937092E-02
   6.309903650570747E-02   6.446542123367541E-02   6.582806111213382E-02
   6.718408971504215E-02   6.853045773105727E-02   6.986393096950759E-02
   7.118108928435823E-02   7.247832653447091E-02   7.375185170487675E-02
   7.499769131977302E-02   7.621169328339610E-02   7.738953228962916E-02
   7.852671694499427E-02   7.961859875234761E-02   8.066038310389663E-02
   8.164714243185606E-02   8.257383166285921E-02   8.343530611784601E-02
   8.422634199224575E-02   8.494165954149792E-02   8.557594908396322E-02
   8.612389991667496E-02   8.658023221877784E-02   8.693973199250329E-02
   8.719728906171484E-02   8.734793811304475E-02   8.738690272403030E-02
   8.730964227609189E-02   8.711190159734809E-02   8.678976312085390E-02
   8.633970127768162E-02   8.575863877120150E-02   8.504400429896450E-02
   8.419379120184241E-02   8.320661642682983E-02   8.208177909060665E-02
   8.081931782627552E-02   7.942006598656177E-02   7.788570366437469E-02
   7.621880537753573E-02   7.442288215052496E-02   7.250241661456562E-02
   7.046288964094821E-02   6.831079692429123E-02   6.605365384610869E-02
   6.369998687865859E-02   6.125930973921834E-02   5.874208248079311E-02
   5.615965171235880E-02   5.352417018619212E-02   5.084849407801424E-02
   4.814605642438240E-02   4.543071537795977E-02   4.271657620196842E-02
   4.001778625726083E-02   3.734830264553555E-02   3.472163266627662E-02
   3.215054782807175E-02   2.964677283076492E-02   2.722065170557291E-02
   2.488079416565287E-02   2.263370617692338E-02   2.048340980218903E-02
   1.843105849092747E-02   1.647455516826424E-02   1.460818170033018E-02
   1.282544565999355E-02   1.112967044857022E-02   9.526522330890685E-03
   8.021061967570464E-03   6.617674886577773E-03   5.320005150913243E-03
   4.130893282945525E-03   3.052319578097762E-03   2.085354005810669E-03
   1.230113951922795E-03   4.857311021193023E-04  -1.496712007922341E-04
  -6.789887738025135E-04  -1.106134228666678E-03  -1.436020080729072E-03
  -1.674526016127553E-03  -1.828449047843239E-03  -1.905435354495999E-03
  -1.913892676606244E-03  -1.862882243312991E-03  -1.761989318071588E-03
  -1.621171584816450E-03  -1.450584746968131E-03  -1.260384881547005E-03
  -1.060507281713807E-03  -8.604217364954758E-04  -6.688644413990197E-04
  -4.935470150473353E-04  -3.408434244068781E-04  -2.154560070141143E-04
  -1.200622382056538E-04  -5.494444363129958E-05  -1.760532432248940E-05
  -2.372968594177571E-06   1.665334536937735E-16   0.000000000000000E+00
   0.000000000000000E+00   0.000000000000000E+00   0.000000000000000E+00
   0.000000000000000E+00   0.000000000000000E+00   0.000000000000000E+00
   0.000000000000000E+00   0.000000000000000E+00   0.000000000000000E+00
   0.000000000000000E+00   0.000000000000000E+00   0.000000000000000E+00
   0.000000000000000E+00   0.000000000000000E+00   0.000000000000000E+00
   0.000000000000000E+00   0.000000000000000E+00   0.000000000000000E+00
   0.000000000000000E+00   0.000000000000000E+00   0.000000000000000E+00
   0.000000000000000E+00   0.000000000000000E+00   0.000000000000000E+00
   0.000000000000000E+00   0.000000000000000E+00   0.000000000000000E+00
   0.000000000000000E+00   0.000000000000000E+00   0.000000000000000E+00
   0.000000000000000E+00   0.000000000000000E+00   0.000000000000000E+00
   0.000000000000000E+00   0.000000000000000E+00   0.000000000000000E+00
   0.000000000000000E+00   0.000000000000000E+00   0.000000000000000E+00
   0.000000000000000E+00   0.000000000000000E+00   0.000000000000000E+00
   0.000000000000000E+00   0.000000000000000E+00   0.000000000000000E+00
   0.000000000000000E+00   0.000000000000000E+00   0.000000000000000E+00
   0.000000000000000E+00   0.000000000000000E+00   0.000000000000000E+00
   0.000000000000000E+00   0.000000000000000E+00   0.000000000000000E+00
   0.000000000000000E+00   0.000000000000000E+00   0.000000000000000E+00
   0.000000000000000E+00   0.000000000000000E+00   0.000000000000000E+00
   0.000000000000000E+00   0.000000000000000E+00   0.000000000000000E+00
   0.000000000000000E+00   0.000000000000000E+00   0.000000000000000E+00
   0.000000000000000E+00   0.000000000000000E+00   0.000000000000000E+00
   0.000000000000000E+00   0.000000000000000E+00   0.000000000000000E+00
   0.000000000000000E+00   0.000000000000000E+00   0.000000000000000E+00
   0.000000000000000E+00   0.000000000000000E+00   0.000000000000000E+00
   0.000000000000000E+00   0.000000000000000E+00   0.000000000000000E+00
   0.000000000000000E+00   0.000000000000000E+00   0.000000000000000E+00
   0.000000000000000E+00   0.000000000000000E+00   0.000000000000000E+00
   0.000000000000000E+00   0.000000000000000E+00   0.000000000000000E+00
   0.000000000000000E+00   0.000000000000000E+00   0.000000000000000E+00
   0.000000000000000E+00   0.000000000000000E+00   0.000000000000000E+00
   0.000000000000000E+00   0.000000000000000E+00   0.000000000000000E+00
   0.000000000000000E+00   0.000000000000000E+00   0.000000000000000E+00
   0.000000000000000E+00   0.000000000000000E+00   0.000000000000000E+00
   0.000000000000000E+00   0.000000000000000E+00   0.000000000000000E+00
   0.000000000000000E+00   0.000000000000000E+00   0.000000000000000E+00
   0.000000000000000E+00   0.000000000000000E+00   0.000000000000000E+00
   0.000000000000000E+00   0.000000000000000E+00   0.000000000000000E+00
   0.000000000000000E+00   0.000000000000000E+00   0.000000000000000E+00
   0.000000000000000E+00   0.000000000000000E+00   0.000000000000000E+00
   0.000000000000000E+00   0.000000000000000E+00   0.000000000000000E+00
   0.000000000000000E+00   0.000000000000000E+00   0.000000000000000E+00
   0.000000000000000E+00   0.000000000000000E+00   0.000000000000000E+00
   0.000000000000000E+00   0.000000000000000E+00   0.000000000000000E+00
   0.000000000000000E+00   0.000000000000000E+00   0.000000000000000E+00
   0.000000000000000E+00   0.000000000000000E+00   0.000000000000000E+00
   0.000000000000000E+00   0.000000000000000E+00   0.000000000000000E+00
   0.000000000000000E+00   0.000000000000000E+00   0.000000000000000E+00
   0.000000000000000E+00   0.000000000000000E+00   0.000000000000000E+00
   0.000000000000000E+00   0.000000000000000E+00   0.000000000000000E+00
   0.000000000000000E+00   0.000000000000000E+00   0.000000000000000E+00
   0.000000000000000E+00   0.000000000000000E+00   0.000000000000000E+00
   0.000000000000000E+00   0.000000000000000E+00   0.000000000000000E+00
   0.000000000000000E+00   0.000000000000000E+00   0.000000000000000E+00
   0.000000000000000E+00   0.000000000000000E+00   0.000000000000000E+00
   0.000000000000000E+00   0.000000000000000E+00   0.000000000000000E+00
   0.000000000000000E+00   0.000000000000000E+00   0.000000000000000E+00
   0.000000000000000E+00   0.000000000000000E+00   0.000000000000000E+00
   0.000000000000000E+00   0.000000000000000E+00   0.000000000000000E+00
   0.000000000000000E+00   0.000000000000000E+00   0.000000000000000E+00
   0.000000000000000E+00   0.000000000000000E+00   0.000000000000000E+00
   0.000000000000000E+00   0.000000000000000E+00   0.000000000000000E+00
   0.000000000000000E+00   0.000000000000000E+00   0.000000000000000E+00
   0.000000000000000E+00   0.000000000000000E+00   0.000000000000000E+00
   0.000000000000000E+00   0.000000000000000E+00   0.000000000000000E+00
   0.000000000000000E+00   0.000000000000000E+00   0.000000000000000E+00
   0.000000000000000E+00   0.000000000000000E+00   0.000000000000000E+00
   0.000000000000000E+00   0.000000000000000E+00   0.000000000000000E+00
   0.000000000000000E+00   0.000000000000000E+00   0.000000000000000E+00
   0.000000000000000E+00   0.000000000000000E+00   0.000000000000000E+00
   0.000000000000000E+00   0.000000000000000E+00   0.000000000000000E+00
   0.000000000000000E+00   0.000000000000000E+00   0.000000000000000E+00
   0.000000000000000E+00   0.000000000000000E+00   0.000000000000000E+00
   0.000000000000000E+00   0.000000000000000E+00   0.000000000000000E+00
   0.000000000000000E+00   0.000000000000000E+00   0.000000000000000E+00
   0.000000000000000E+00   0.000000000000000E+00   0.000000000000000E+00
   0.000000000000000E+00   0.000000000000000E+00   0.000000000000000E+00
   0.000000000000000E+00   0.000000000000000E+00   0.000000000000000E+00
   0.000000000000000E+00   0.000000000000000E+00   0.000000000000000E+00
   0.000000000000000E+00   0.000000000000000E+00   0.000000000000000E+00
   0.000000000000000E+00   0.000000000000000E+00   0.000000000000000E+00
   0.000000000000000E+00   0.000000000000000E+00   0.000000000000000E+00
   0.000000000000000E+00   0.000000000000000E+00   0.000000000000000E+00
   0.000000000000000E+00   0.000000000000000E+00   0.000000000000000E+00
   0.000000000000000E+00   0.000000000000000E+00   0.000000000000000E+00
   0.000000000000000E+00   0.000000000000000E+00   0.000000000000000E+00
   0.000000000000000E+00   0.000000000000000E+00   0.000000000000000E+00
   0.000000000000000E+00   0.000000000000000E+00   0.000000000000000E+00
   0.000000000000000E+00   0.000000000000000E+00   0.000000000000000E+00
   0.000000000000000E+00   0.000000000000000E+00   0.000000000000000E+00
   0.000000000000000E+00   0.000000000000000E+00   0.000000000000000E+00
   0.000000000000000E+00   0.000000000000000E+00   0.000000000000000E+00
   0.000000000000000E+00   0.000000000000000E+00   0.000000000000000E+00
   0.000000000000000E+00   0.000000000000000E+00   0.000000000000000E+00
   0.000000000000000E+00   0.000000000000000E+00   0.000000000000000E+00
   0.000000000000000E+00   0.000000000000000E+00   0.000000000000000E+00
   0.000000000000000E+00   0.000000000000000E+00   0.000000000000000E+00
   0.000000000000000E+00   0.000000000000000E+00   0.000000000000000E+00
   0.000000000000000E+00   0.000000000000000E+00   0.000000000000000E+00
   0.000000000000000E+00   0.000000000000000E+00   0.000000000000000E+00
   0.000000000000000E+00   0.000000000000000E+00   0.000000000000000E+00
   0.000000000000000E+00   0.000000000000000E+00   0.000000000000000E+00
   0.000000000000000E+00   0.000000000000000E+00   0.000000000000000E+00
   0.000000000000000E+00   0.000000000000000E+00   0.000000000000000E+00
   0.000000000000000E+00   0.000000000000000E+00   0.000000000000000E+00
   0.000000000000000E+00   0.000000000000000E+00   0.000000000000000E+00
   0.000000000000000E+00   0.000000000000000E+00   0.000000000000000E+00
   0.000000000000000E+00   0.000000000000000E+00   0.000000000000000E+00
   0.000000000000000E+00   0.000000000000000E+00   0.000000000000000E+00
   0.000000000000000E+00   0.000000000000000E+00   0.000000000000000E+00
   0.000000000000000E+00   0.000000000000000E+00   0.000000000000000E+00
   0.000000000000000E+00   0.000000000000000E+00   0.000000000000000E+00
   0.000000000000000E+00   0.000000000000000E+00
      </PP_QIJL.3.3.0>
      <PP_QIJL.3.3.2 first_index="3" second_index="3" composite_index="6" angular_momentum="2" size="1073">
   2.655497745349027E-15   2.791648017760083E-15   2.934778863253994E-15
   3.085248183414983E-15   3.243432229829943E-15   3.409726544912829E-15
   3.584546950966208E-15   3.768330589953021E-15   3.961537016578533E-15
   4.164649347415852E-15   4.378175468948196E-15   4.602649307548892E-15
   4.838632164574572E-15   5.086714119909984E-15   5.347515507474165E-15
   5.621688466377168E-15   5.909918571606439E-15   6.212926548320146E-15
   6.531470074034098E-15   6.866345673208875E-15   7.218390708974171E-15
   7.588485476971188E-15   7.977555406548441E-15   8.386573374815227E-15
   8.816562139339115E-15   9.268596895570192E-15   9.743807965387439E-15
   1.024338362348948E-14   1.076857306869747E-14   1.132068954759986E-14
   1.190111363834948E-14   1.251129670282458E-14   1.315276451578566E-14
   1.382712108010300E-14   1.453605263759501E-14   1.528133188550609E-14
   1.606482240916811E-14   1.688848334192885E-14   1.775437426399979E-14
   1.866466035247324E-14   1.962161779538547E-14   2.062763948336524E-14
   2.168524099309864E-14   2.279706687757224E-14   2.396589727882408E-14
   2.519465487973618E-14   2.648641221225360E-14   2.784439934030282E-14
   2.927201193662134E-14   3.077281977369490E-14   3.235057565003279E-14
   3.400922477410349E-14   3.575291462939356E-14   3.758600534525805E-14
   3.951308059949575E-14   4.153895907990901E-14   4.366870653351045E-14
   4.590764843350436E-14   4.826138329571649E-14   5.073579667777154E-14
   5.333707589602070E-14   5.607172549702245E-14   5.894658352226070E-14
   6.196883860677098E-14   6.514604795443111E-14   6.848615623486096E-14
   7.199751544918638E-14   7.568890581433970E-14   7.956955771811816E-14
   8.364917479990144E-14   8.793795821473683E-14   9.244663214147033E-14
   9.718647059870297E-14   1.021693256356263E-13   1.074076569682321E-13
   1.129145631349931E-13   1.187038142499306E-13   1.247898864349601E-13
   1.311879980176154E-13   1.379141475846668E-13   1.449851539867791E-13
   1.524186983942498E-13   1.602333685089820E-13   1.684487050432455E-13
   1.770852505814496E-13   1.861646009470978E-13   1.957094592033785E-13
   2.057436924224118E-13   2.162923913651063E-13   2.273819332208594E-13
   2.390400475639704E-13   2.512958856917031E-13   2.641800935173700E-13
   2.777248882007070E-13   2.919641387071582E-13   3.069334504974956E-13
   3.226702545595571E-13   3.392139010047122E-13   3.566057574630976E-13
   3.748893125236634E-13   3.941102844776654E-13   4.143167356375366E-13
   4.355591925169738E-13   4.578907721727558E-13   4.813673150242140E-13
   5.060475244824462E-13   5.319931137384466E-13   5.592689600771681E-13
   5.879432671033870E-13   6.180877352850171E-13   6.497777412402911E-13
   6.830925262171492E-13   7.181153942360885E-13   7.549339203919486E-13
   7.936401698354817E-13   8.343309279822455E-13   8.771079425244821E-13
   9.220781778511096E-13   9.693540825119907E-13   1.019053870395286E-12
   1.071301816320932E-12   1.126228566789408E-12   1.183971466662772E-12
   1.244674902594851E-12   1.308490664069300E-12   1.375578322948277E-12
   1.446105632480831E-12   1.520248946768658E-12   1.598193661738097E-12
   1.680134678721026E-12   1.766276891803748E-12   1.856835700162541E-12
   1.952037546666900E-12   2.052120484097209E-12   2.157334770392712E-12
   2.267943494418020E-12   2.384223233813032E-12   2.506464746571053E-12
   2.634973698074394E-12   2.770071425405419E-12   2.912095740844002E-12
   3.061401776560669E-12   3.218362872617398E-12   3.383371510496478E-12
   3.556840294491722E-12   3.739202983415771E-12   3.930915575203379E-12
   4.132457447122523E-12   4.344332554444329E-12   4.567070690569131E-12
   4.801228811759237E-12   5.047392429791043E-12   5.306177076008528E-12
   5.578229840438911E-12   5.864230989818874E-12   6.164895668576951E-12
   6.480975687025423E-12   6.813261401232699E-12   7.162583689276641E-12
   7.529816028820384E-12   7.915876681204992E-12   8.321730987520453E-12
   8.748393782395810E-12   9.196931931543656E-12   9.668466999404339E-12
   1.016417805355887E-11   1.068530461292415E-11   1.123314974710030E-11
   1.180908333462083E-11   1.241454548825213E-11   1.305105015590568E-11
   1.372018890616854E-11   1.442363490791469E-11   1.516314711394963E-11
   1.594057465914776E-11   1.675786148407865E-11   1.761705119568473E-11
   1.852029217716087E-11   1.946984295981434E-11   2.046807787033550E-11
   2.151749296759808E-11   2.262071228383527E-11   2.378049438579296E-11
   2.499973927226771E-11   2.628149562527364E-11   2.762896843296719E-11
   2.904552700339229E-11   3.053471338907749E-11   3.210025124355273E-11
   3.374605513192714E-11   3.547624031880521E-11   3.729513305801729E-11
   3.920728140988519E-11   4.121746661307323E-11   4.333071503945440E-11
   4.555231076187873E-11   4.788780876627174E-11   5.034304884108748E-11
   5.292417017884793E-11   5.563762672627346E-11   5.849020332137733E-11
   6.148903265787810E-11   6.464161311933223E-11   6.795582752758244E-11
   7.143996285239213E-11   7.510273093153673E-11   7.895329025316520E-11
   8.300126885487544E-11   8.725678839676195E-11   9.173048946861759E-11
   9.643355819455170E-11   1.013777542015488E-10   1.065754400218757E-10
   1.120396120028519E-10   1.177839328012565E-10   1.238227655435962E-10
   1.301712097376528E-10   1.368451390250627E-10   1.438612408693273E-10
   1.512370582784601E-10   1.589910336665689E-10   1.671425549640379E-10
   1.757120040915553E-10   1.847208079191827E-10   1.941914918378488E-10
   2.041477360771738E-10   2.146144349104349E-10   2.256177588946369E-10
   2.371852203012976E-10   2.493457419015029E-10   2.621297292771536E-10
   2.755691468392006E-10   2.896975977428372E-10   3.045504078994514E-10
   3.201647142953186E-10   3.365795578377783E-10   3.538359809610195E-10
   3.719771302353832E-10   3.910483642367071E-10   4.110973669453132E-10
   4.321742669580544E-10   4.543317628114434E-10   4.776252547290223E-10
   5.021129831223253E-10   5.278561741915694E-10   5.549191929899760E-10
   5.833697043342958E-10   6.132788419636729E-10   6.447213863696399E-10
   6.777759517416680E-10   7.125251824954745E-10   7.490559598752598E-10
   7.874596191461735E-10   8.278321779198049E-10   8.702745761832921E-10
   9.148929286318611E-10   9.617987899354008E-10   1.011109433601905E-09
   1.062948145134682E-09   1.117444530215844E-09   1.174734838711480E-09
   1.234962305128982E-09   1.298277506932298E-09   1.364838740577120E-09
   1.434812417666748E-09   1.508373480224026E-09   1.585705838731545E-09
   1.667002831505448E-09   1.752467707667901E-09   1.842314135635469E-09
   1.936766737008197E-09   2.036061648001423E-09   2.140447109649892E-09
   2.250184088185063E-09   2.365546927498686E-09   2.486824034704122E-09
   2.614318601002062E-09   2.748349359366163E-09   2.889251381295314E-09
   3.037376914028474E-09   3.193096261303387E-09   3.356798708212351E-09
   3.528893494665178E-09   3.709810837764688E-09   3.900003007064966E-09
   4.099945455843946E-09   4.310138002952239E-09   4.531106098010677E-09
   4.763402111013644E-09   5.007606734348980E-09   5.264330426324564E-09
   5.534214921822245E-09   5.817934863979965E-09   6.116199464275333E-09
   6.429754293061762E-09   6.759383129385584E-09   7.105909925741463E-09
   7.470200871795098E-09   7.853166541987978E-09   8.255764191410368E-09
   8.679000123810817E-09   9.123932239220045E-09   9.591672633785427E-09
   1.008339041394960E-08   1.060031461187207E-08   1.114373722377075E-08
   1.171501648179509E-08   1.231558021890285E-08   1.294692943149170E-08
   1.361064207435043E-08   1.430837693212737E-08   1.504187781296096E-08
   1.581297788546169E-08   1.662360427468409E-08   1.747578283435191E-08
   1.837164324876218E-08   1.931342434936144E-08   2.030347966467060E-08
   2.134428334245357E-08   2.243843630657346E-08   2.358867275517247E-08
   2.479786698044727E-08   2.606904055622385E-08   2.740536989199952E-08
   2.881019413571113E-08   3.028702351450488E-08   3.183954812082766E-08
   3.347164714155470E-08   3.518739842196733E-08   3.699108883310475E-08
   3.888722477600155E-08   4.088054361706158E-08   4.297602535405891E-08
   4.517890514107224E-08   4.749468629233959E-08   4.992915408790513E-08
   5.248839012594918E-08   5.517878753430844E-08   5.800706696004545E-08
   6.098029326721095E-08   6.410589320976968E-08   6.739167393643271E-08
   7.084584245420435E-08   7.447702618810846E-08   7.829429433844220E-08
   8.230718060247344E-08   8.652570699059052E-08   9.096040871680924E-08
   9.562236049457799E-08   1.005232042142670E-07   1.056751778898766E-07
   1.110911461934285E-07   1.167846324937034E-07   1.227698526934519E-07
   1.290617504561297E-07   1.356760346041365E-07   1.426292181757035E-07
   1.499386596190404E-07   1.576226060404400E-07   1.657002386238256E-07
   1.741917204044558E-07   1.831182465624865E-07   1.925020971393705E-07
   2.023666925031821E-07   2.127366517872792E-07   2.236378540177321E-07
   2.350975026419226E-07   2.471441932227271E-07   2.598079845684183E-07
   2.731204736379654E-07   2.871148740032648E-07   3.018260986102633E-07
   3.172908465859076E-07   3.335476944803363E-07   3.506371923074950E-07
   3.686019642457566E-07   3.874868147316956E-07   4.073388397123712E-07
   4.282075438335503E-07   4.501449633517927E-07   4.732057955314381E-07
   4.974475344317199E-07   5.229306137608634E-07   5.497185570230495E-07
   5.778781351019424E-07   6.074795322144810E-07   6.385965199262987E-07
   6.713066404124358E-07   7.056913987449076E-07   7.418364650315030E-07
   7.798318870846918E-07   8.197723135557908E-07   8.617572286254409E-07
   9.058911986035071E-07   9.522841310506648E-07   1.001051547095306E-06
   1.052314867511291E-06   1.106201713504898E-06   1.162846222474576E-06
   1.222389380261047E-06   1.284979369851299E-06   1.350771937970664E-06
   1.419930780297039E-06   1.492627946124205E-06   1.569044263740597E-06
   1.649369787089235E-06   1.733804265399914E-06   1.822557636306225E-06
   1.915850544182737E-06   2.013914884770723E-06   2.116994377063109E-06
   2.225345164502875E-06   2.339236446419643E-06   2.458951141407018E-06
   2.584786584372297E-06   2.717055258672864E-06   2.856085565288137E-06
   3.002222631064990E-06   3.155829157269012E-06   3.317286311633537E-06
   3.486994664914101E-06   3.665375174781377E-06   3.852870219532242E-06
   4.049944683643913E-06   4.257087098114144E-06   4.474810838229045E-06
   4.703655381590040E-06   4.944187629345688E-06   5.197003294049670E-06
   5.462728356918445E-06   5.742020598711295E-06   6.035571206990246E-06
   6.344106464429817E-06   6.668389521457198E-06   7.009222257922573E-06
   7.367447237849633E-06   7.743949762202558E-06   8.139660024102516E-06
   8.555555371955005E-06   8.992662685517798E-06   9.452060870635572E-06
   9.934883478393460E-06   1.044232145470249E-05   1.097562602715199E-05
   1.153611173515418E-05   1.212515961103052E-05   1.274422051918683E-05
   1.339481866081477E-05   1.407855525276487E-05   1.479711238864190E-05
   1.555225709090250E-05   1.634584556382213E-05   1.717982765626899E-05
   1.805625154511236E-05   1.897726864951223E-05   1.994513878741891E-05
   2.096223558591301E-05   2.203105215752688E-05   2.315420705540594E-05
   2.433445052061881E-05   2.557467103549157E-05   2.687790219782982E-05
   2.824732993102442E-05   2.968630004602863E-05   3.119832617227708E-05
   3.278709807435041E-05   3.445649037323487E-05   3.621057169063837E-05
   3.805361423690905E-05   3.999010386257889E-05   4.202475059592103E-05
   4.416249968847027E-05   4.640854319284936E-05   4.876833209696851E-05
   5.124758904050894E-05   5.385232164068282E-05   5.658883645479801E-05
   5.946375360955464E-05   6.248402212624434E-05   6.565693597494422E-05
   6.899015088935414E-05   7.249170197760204E-05   7.617002216407010E-05
   8.003396149996801E-05   8.409280738074399E-05   8.835630571121579E-05
   9.283468305974093E-05   9.753866984511372E-05   1.024795246013422E-04
   1.076690593670639E-04   1.131196662483412E-04   1.188443452053573E-04
   1.248567331152857E-04   1.311711341655200E-04   1.378025516336818E-04
   1.447667211123864E-04   1.520801452391358E-04   1.597601299935937E-04
   1.678248226265156E-04   1.762932512870587E-04   1.851853664169192E-04
   1.945220839821821E-04   2.043253306158849E-04   2.146180907464810E-04
   2.254244557896443E-04   2.367696754826139E-04   2.486802114432674E-04
   2.611837930375331E-04   2.743094756408771E-04   2.880877013823078E-04
   3.025503624605386E-04   3.177308671244907E-04   3.336642084115168E-04
   3.503870357393714E-04   3.679377294483385E-04   3.863564783928322E-04
   4.056853606813798E-04   4.259684276666863E-04   4.472517912870418E-04
   4.695837148617068E-04   4.930147074430004E-04   5.175976218276015E-04
   5.433877563298951E-04   5.704429604188724E-04   5.988237443189309E-04
   6.285933926741306E-04   6.598180823719137E-04   6.925670046211246E-04
   7.269124913741988E-04   7.629301461806611E-04   8.006989795533040E-04
   8.403015489231199E-04   8.818241032521015E-04   9.253567323660946E-04
   9.709935210599050E-04   1.018832708018430E-03   1.068976849585025E-03
   1.121532988396711E-03   1.176612826891147E-03   1.234332905674746E-03
   1.294814786723810E-03   1.358185241371280E-03   1.424576443009887E-03
   1.494126164419590E-03   1.566977979600375E-03   1.643281469963856E-03
   1.723192434705329E-03   1.806873105144382E-03   1.894492362784447E-03
   1.986225960802490E-03   2.082256748634520E-03   2.182774899276642E-03
   2.287978138868727E-03   2.398071978072936E-03   2.513269944698574E-03
   2.633793816960601E-03   2.759873856688952E-03   2.891749041731201E-03
   3.029667296710712E-03   3.173885721216432E-03   3.324670814407950E-03
   3.482298694921714E-03   3.647055314858442E-03   3.819236666520876E-03
   3.999148980451209E-03   4.187108913191536E-03   4.383443723056838E-03
   4.588491432067446E-03   4.802600972038994E-03   5.026132312668467E-03
   5.259456569289079E-03   5.502956087791042E-03   5.757024504021041E-03
   6.022066774781172E-03   6.298499177345985E-03   6.586749274206470E-03
   6.887255839531425E-03   7.200468743609142E-03   7.526848791298435E-03
   7.866867510274968E-03   8.221006884609739E-03   8.589759028961402E-03
   8.973625798402003E-03   9.373118328631828E-03   9.788756501068276E-03
   1.022106832702482E-02   1.067058924492384E-02   1.113786132421788E-02
   1.162343236942888E-02   1.212785491745396E-02   1.265168512103635E-02
   1.319548151106074E-02   1.375980363010782E-02   1.434521052949976E-02
   1.495225912188524E-02   1.558150238126087E-02   1.623348738220573E-02
   1.690875317002393E-02   1.760782845345695E-02   1.833122911164177E-02
   1.907945550706861E-02   1.985298959643612E-02   2.065229183152104E-02
   2.147779784248745E-02   2.232991489646092E-02   2.320901812470299E-02
   2.411544651234719E-02   2.504949864541442E-02   2.601142821072721E-02
   2.700143924539593E-02   2.801968113377842E-02   2.906624335122635E-02
   3.014114995554102E-02   3.124435382889194E-02   3.237573067500644E-02
   3.353507277874571E-02   3.472208253775017E-02   3.593636577868198E-02
   3.717742487373384E-02   3.844465167651762E-02   3.973732030021486E-02
   4.105457976497084E-02   4.239544654595414E-02   4.375879705829729E-02
   4.514336012027838E-02   4.654770944160576E-02   4.797025618952286E-02
   4.940924169164888E-02   5.086273034100578E-02   5.232860277552419E-02
   5.380454941145283E-02   5.528806441747725E-02   5.677644022393780E-02
   5.826676266927759E-02   5.975590689366776E-02   6.124053409758270E-02
   6.271708929083118E-02   6.418180016507861E-02   6.563067723010456E-02
   6.705951536076706E-02   6.846389690774407E-02   6.983919653039590E-02
   7.118058791433475E-02   7.248305253928282E-02   7.374139066426930E-02
   7.495023469691536E-02   7.610406511116097E-02   7.719722907297666E-02
   7.822396192605298E-02   7.917841167876527E-02   8.005466661952490E-02
   8.084678616951831E-02   8.154883505939679E-02   8.215492088930269E-02
   8.265923509925102E-02   8.305609733894494E-02   8.334000318216200E-02
   8.350567508054532E-02   8.354811639463063E-02   8.346266827595247E-02
   8.324506910289559E-02   8.289151609445718E-02   8.239872864026743E-02
   8.176401279218388E-02   8.098532626283036E-02   8.006134317005328E-02
   7.899151765411576E-02   7.777614537749125E-02   7.641642179657475E-02
   7.491449597207750E-02   7.327351856220682E-02   7.149768252228947E-02
   6.959225491902613E-02   6.756359816026823E-02   6.541917884584843E-02
   6.316756236578047E-02   6.081839131390916E-02   5.838234575319302E-02
   5.587108336913469E-02   5.329715758696147E-02   5.067391181292111E-02
   4.801534809797819E-02   4.533596872109592E-02   4.265058945720732E-02
   3.997412364021169E-02   3.732133656194294E-02   3.470657027195781E-02
   3.214343946744470E-02   2.964449989388654E-02   2.722089152040588E-02
   2.488195971216911E-02   2.263485869675785E-02   2.048414281001095E-02
   1.843135230377608E-02   1.647460189330126E-02   1.460818170033019E-02
   1.282544565999355E-02   1.112967044857022E-02   9.526522330890685E-03
   8.021061967570464E-03   6.617674886577773E-03   5.320005150913243E-03
   4.130893282945525E-03   3.052319578097762E-03   2.085354005810669E-03
   1.230113951922795E-03   4.857311021193023E-04  -1.496712007922341E-04
  -6.789887738025135E-04  -1.106134228666678E-03  -1.436020080729072E-03
  -1.674526016127553E-03  -1.828449047843239E-03  -1.905435354495999E-03
  -1.913892676606244E-03  -1.862882243312991E-03  -1.761989318071588E-03
  -1.621171584816450E-03  -1.450584746968131E-03  -1.260384881547005E-03
  -1.060507281713807E-03  -8.604217364954758E-04  -6.688644413990197E-04
  -4.935470150473353E-04  -3.408434244068781E-04  -2.154560070141143E-04
  -1.200622382056538E-04  -5.494444363129958E-05  -1.760532432248940E-05
  -2.372968594177571E-06   1.665334536937735E-16   0.000000000000000E+00
   0.000000000000000E+00   0.000000000000000E+00   0.000000000000000E+00
   0.000000000000000E+00   0.000000000000000E+00   0.000000000000000E+00
   0.000000000000000E+00   0.000000000000000E+00   0.000000000000000E+00
   0.000000000000000E+00   0.000000000000000E+00   0.000000000000000E+00
   0.000000000000000E+00   0.000000000000000E+00   0.000000000000000E+00
   0.000000000000000E+00   0.000000000000000E+00   0.000000000000000E+00
   0.000000000000000E+00   0.000000000000000E+00   0.000000000000000E+00
   0.000000000000000E+00   0.000000000000000E+00   0.000000000000000E+00
   0.000000000000000E+00   0.000000000000000E+00   0.000000000000000E+00
   0.000000000000000E+00   0.000000000000000E+00   0.000000000000000E+00
   0.000000000000000E+00   0.000000000000000E+00   0.000000000000000E+00
   0.000000000000000E+00   0.000000000000000E+00   0.000000000000000E+00
   0.000000000000000E+00   0.000000000000000E+00   0.000000000000000E+00
   0.000000000000000E+00   0.000000000000000E+00   0.000000000000000E+00
   0.000000000000000E+00   0.000000000000000E+00   0.000000000000000E+00
   0.000000000000000E+00   0.000000000000000E+00   0.000000000000000E+00
   0.000000000000000E+00   0.000000000000000E+00   0.000000000000000E+00
   0.000000000000000E+00   0.000000000000000E+00   0.000000000000000E+00
   0.000000000000000E+00   0.000000000000000E+00   0.000000000000000E+00
   0.000000000000000E+00   0.000000000000000E+00   0.000000000000000E+00
   0.000000000000000E+00   0.000000000000000E+00   0.000000000000000E+00
   0.000000000000000E+00   0.000000000000000E+00   0.000000000000000E+00
   0.000000000000000E+00   0.000000000000000E+00   0.000000000000000E+00
   0.000000000000000E+00   0.000000000000000E+00   0.000000000000000E+00
   0.000000000000000E+00   0.000000000000000E+00   0.000000000000000E+00
   0.000000000000000E+00   0.000000000000000E+00   0.000000000000000E+00
   0.000000000000000E+00   0.000000000000000E+00   0.000000000000000E+00
   0.000000000000000E+00   0.000000000000000E+00   0.000000000000000E+00
   0.000000000000000E+00   0.000000000000000E+00   0.000000000000000E+00
   0.000000000000000E+00   0.000000000000000E+00   0.000000000000000E+00
   0.000000000000000E+00   0.000000000000000E+00   0.000000000000000E+00
   0.000000000000000E+00   0.000000000000000E+00   0.000000000000000E+00
   0.000000000000000E+00   0.000000000000000E+00   0.000000000000000E+00
   0.000000000000000E+00   0.000000000000000E+00   0.000000000000000E+00
   0.000000000000000E+00   0.000000000000000E+00   0.000000000000000E+00
   0.000000000000000E+00   0.000000000000000E+00   0.000000000000000E+00
   0.000000000000000E+00   0.000000000000000E+00   0.000000000000000E+00
   0.000000000000000E+00   0.000000000000000E+00   0.000000000000000E+00
   0.000000000000000E+00   0.000000000000000E+00   0.000000000000000E+00
   0.000000000000000E+00   0.000000000000000E+00   0.000000000000000E+00
   0.000000000000000E+00   0.000000000000000E+00   0.000000000000000E+00
   0.000000000000000E+00   0.000000000000000E+00   0.000000000000000E+00
   0.000000000000000E+00   0.000000000000000E+00   0.000000000000000E+00
   0.000000000000000E+00   0.000000000000000E+00   0.000000000000000E+00
   0.000000000000000E+00   0.000000000000000E+00   0.000000000000000E+00
   0.000000000000000E+00   0.000000000000000E+00   0.000000000000000E+00
   0.000000000000000E+00   0.000000000000000E+00   0.000000000000000E+00
   0.000000000000000E+00   0.000000000000000E+00   0.000000000000000E+00
   0.000000000000000E+00   0.000000000000000E+00   0.000000000000000E+00
   0.000000000000000E+00   0.000000000000000E+00   0.000000000000000E+00
   0.000000000000000E+00   0.000000000000000E+00   0.000000000000000E+00
   0.000000000000000E+00   0.000000000000000E+00   0.000000000000000E+00
   0.000000000000000E+00   0.000000000000000E+00   0.000000000000000E+00
   0.000000000000000E+00   0.000000000000000E+00   0.000000000000000E+00
   0.000000000000000E+00   0.000000000000000E+00   0.000000000000000E+00
   0.000000000000000E+00   0.000000000000000E+00   0.000000000000000E+00
   0.000000000000000E+00   0.000000000000000E+00   0.000000000000000E+00
   0.000000000000000E+00   0.000000000000000E+00   0.000000000000000E+00
   0.000000000000000E+00   0.000000000000000E+00   0.000000000000000E+00
   0.000000000000000E+00   0.000000000000000E+00   0.000000000000000E+00
   0.000000000000000E+00   0.000000000000000E+00   0.000000000000000E+00
   0.000000000000000E+00   0.000000000000000E+00   0.000000000000000E+00
   0.000000000000000E+00   0.000000000000000E+00   0.000000000000000E+00
   0.000000000000000E+00   0.000000000000000E+00   0.000000000000000E+00
   0.000000000000000E+00   0.000000000000000E+00   0.000000000000000E+00
   0.000000000000000E+00   0.000000000000000E+00   0.000000000000000E+00
   0.000000000000000E+00   0.000000000000000E+00   0.000000000000000E+00
   0.000000000000000E+00   0.000000000000000E+00   0.000000000000000E+00
   0.000000000000000E+00   0.000000000000000E+00   0.000000000000000E+00
   0.000000000000000E+00   0.000000000000000E+00   0.000000000000000E+00
   0.000000000000000E+00   0.000000000000000E+00   0.000000000000000E+00
   0.000000000000000E+00   0.000000000000000E+00   0.000000000000000E+00
   0.000000000000000E+00   0.000000000000000E+00   0.000000000000000E+00
   0.000000000000000E+00   0.000000000000000E+00   0.000000000000000E+00
   0.000000000000000E+00   0.000000000000000E+00   0.000000000000000E+00
   0.000000000000000E+00   0.000000000000000E+00   0.000000000000000E+00
   0.000000000000000E+00   0.000000000000000E+00   0.000000000000000E+00
   0.000000000000000E+00   0.000000000000000E+00   0.000000000000000E+00
   0.000000000000000E+00   0.000000000000000E+00   0.000000000000000E+00
   0.000000000000000E+00   0.000000000000000E+00   0.000000000000000E+00
   0.000000000000000E+00   0.000000000000000E+00   0.000000000000000E+00
   0.000000000000000E+00   0.000000000000000E+00   0.000000000000000E+00
   0.000000000000000E+00   0.000000000000000E+00   0.000000000000000E+00
   0.000000000000000E+00   0.000000000000000E+00   0.000000000000000E+00
   0.000000000000000E+00   0.000000000000000E+00   0.000000000000000E+00
   0.000000000000000E+00   0.000000000000000E+00   0.000000000000000E+00
   0.000000000000000E+00   0.000000000000000E+00   0.000000000000000E+00
   0.000000000000000E+00   0.000000000000000E+00   0.000000000000000E+00
   0.000000000000000E+00   0.000000000000000E+00   0.000000000000000E+00
   0.000000000000000E+00   0.000000000000000E+00   0.000000000000000E+00
   0.000000000000000E+00   0.000000000000000E+00   0.000000000000000E+00
   0.000000000000000E+00   0.000000000000000E+00   0.000000000000000E+00
   0.000000000000000E+00   0.000000000000000E+00   0.000000000000000E+00
   0.000000000000000E+00   0.000000000000000E+00   0.000000000000000E+00
   0.000000000000000E+00   0.000000000000000E+00   0.000000000000000E+00
   0.000000000000000E+00   0.000000000000000E+00   0.000000000000000E+00
   0.000000000000000E+00   0.000000000000000E+00   0.000000000000000E+00
   0.000000000000000E+00   0.000000000000000E+00   0.000000000000000E+00
   0.000000000000000E+00   0.000000000000000E+00   0.000000000000000E+00
   0.000000000000000E+00   0.000000000000000E+00   0.000000000000000E+00
   0.000000000000000E+00   0.000000000000000E+00   0.000000000000000E+00
   0.000000000000000E+00   0.000000000000000E+00   0.000000000000000E+00
   0.000000000000000E+00   0.000000000000000E+00   0.000000000000000E+00
   0.000000000000000E+00   0.000000000000000E+00   0.000000000000000E+00
   0.000000000000000E+00   0.000000000000000E+00   0.000000000000000E+00
   0.000000000000000E+00   0.000000000000000E+00   0.000000000000000E+00
   0.000000000000000E+00   0.000000000000000E+00   0.000000000000000E+00
   0.000000000000000E+00   0.000000000000000E+00   0.000000000000000E+00
   0.000000000000000E+00   0.000000000000000E+00   0.000000000000000E+00
   0.000000000000000E+00   0.000000000000000E+00   0.000000000000000E+00
   0.000000000000000E+00   0.000000000000000E+00   0.000000000000000E+00
   0.000000000000000E+00   0.000000000000000E+00   0.000000000000000E+00
   0.000000000000000E+00   0.000000000000000E+00   0.000000000000000E+00
   0.000000000000000E+00   0.000000000000000E+00
      </PP_QIJL.3.3.2>
      <PP_QIJL.3.4.0 first_index="3" second_index="4" composite_index="9" angular_momentum="0" size="1073">
   5.322591033225980E-09   5.457333097446262E-09   5.595486174836629E-09
   5.737136615687308E-09   5.882372956260708E-09   6.031285974129717E-09
   6.183968744916996E-09   6.340516700470632E-09   6.501027688512481E-09
   6.665602033796621E-09   6.834342600815946E-09   7.007354858096237E-09
   7.184746944117914E-09   7.366629734906535E-09   7.553116913334467E-09
   7.744325040176845E-09   7.940373626966409E-09   8.141385210692693E-09
   8.347485430392210E-09   8.558803105677633E-09   8.775470317254817E-09
   8.997622489478320E-09   9.225398474996714E-09   9.458940641540815E-09
   9.698394960909001E-09   9.943911100205072E-09   1.019564251538609E-08
   1.045374654717820E-08   1.071838451942076E-08   1.098972183990002E-08
   1.126792810373543E-08   1.155317719938334E-08   1.184564741732407E-08
   1.214552156150059E-08   1.245298706357833E-08   1.276823610009735E-08
   1.309146571259052E-08   1.342287793074241E-08   1.376267989866601E-08
   1.411108400437646E-08   1.446830801254199E-08   1.483457520059605E-08
   1.521011449829490E-08   1.559516063080821E-08   1.598995426543230E-08
   1.639474216201719E-08   1.680977732720201E-08   1.723531917255507E-08
   1.767163367671705E-08   1.811899355164940E-08   1.857767841309092E-08
   1.904797495532993E-08   1.953017713040089E-08   2.002458633181734E-08
   2.053151158295651E-08   2.105126973021255E-08   2.158418564104002E-08
   2.213059240701085E-08   2.269083155201181E-08   2.326525324571291E-08
   2.385421652243948E-08   2.445808950558566E-08   2.507724963770897E-08
   2.571208391644973E-08   2.636298913642346E-08   2.703037213723651E-08
   2.771465005778078E-08   2.841625059696608E-08   2.913561228105323E-08
   2.987318473775501E-08   3.062942897727607E-08   3.140481768046801E-08
   3.219983549427912E-08   3.301497933468397E-08   3.385075869728216E-08
   3.470769597575973E-08   3.558632678841333E-08   3.648720031294072E-08
   3.741087962970654E-08   3.835794207369891E-08   3.932897959539568E-08
   4.032459913076687E-08   4.134542298064433E-08   4.239208919969526E-08
   4.346525199524394E-08   4.456558213618926E-08   4.569376737227550E-08
   4.685051286397709E-08   4.803654162326690E-08   4.925259496554346E-08
   5.049943297299867E-08   5.177783496971763E-08   5.308860000880563E-08
   5.443254737184809E-08   5.581051708101527E-08   5.722337042413135E-08
   5.867199049303756E-08   6.015728273558437E-08   6.168017552159858E-08
   6.324162072318008E-08   6.484259430968813E-08   6.648409695779283E-08
   6.816715467697059E-08   6.989281945083578E-08   7.166216989470928E-08
   7.347631192983434E-08   7.533637947466280E-08   7.724353515364248E-08
   7.919897102394948E-08   8.120390932062012E-08   8.325960322054686E-08
   8.536733762581808E-08   8.752842996688981E-08   8.974423102609221E-08
   9.201612578198619E-08   9.434553427509622E-08   9.673391249556307E-08
   9.918275329327051E-08   1.016935873110136E-07   1.042679839412955E-07
   1.069075523073463E-07   1.096139422689820E-07   1.123888454539296E-07
   1.152339963152645E-07   1.181511732156208E-07   1.211421995388519E-07
   1.242089448298391E-07   1.273533259631579E-07   1.305773083413338E-07
   1.338829071234391E-07   1.372721884847940E-07   1.407472709085666E-07
   1.443103265100719E-07   1.479635823946050E-07   1.517093220496540E-07
   1.555498867723613E-07   1.594876771331314E-07   1.635251544762970E-07
   1.676648424587814E-07   1.719093286277227E-07   1.762612660380429E-07
   1.807233749109756E-07   1.852984443345902E-07   1.899893340073743E-07
   1.947989760259670E-07   1.997303767181584E-07   2.047866185223060E-07
   2.099708619143391E-07   2.152863473835598E-07   2.207363974584770E-07
   2.263244187839353E-07   2.320539042508458E-07   2.379284351798449E-07
   2.439516835602522E-07   2.501274143457230E-07   2.564594878080347E-07
   2.629518619504815E-07   2.696085949823825E-07   2.764338478562546E-07
   2.834318868692403E-07   2.906070863304085E-07   2.979639312956093E-07
   3.055070203715878E-07   3.132410685911071E-07   3.211709103608948E-07
   3.293015024842345E-07   3.376379272601219E-07   3.461853956608966E-07
   3.549492505903619E-07   3.639349702244190E-07   3.731481714363039E-07
   3.825946133085874E-07   3.922802007341144E-07   4.022109881081532E-07
   4.123931831140638E-07   4.228331506048379E-07   4.335374165829747E-07
   4.445126722811442E-07   4.557657783462243E-07   4.673037691293165E-07
   4.791338570844234E-07   4.912634372785604E-07   5.037000920160995E-07
   5.164515955802645E-07   5.295259190947364E-07   5.429312355084034E-07
   5.566759247064127E-07   5.707685787506743E-07   5.852180072531439E-07
   6.000332428852323E-07   6.152235470267796E-07   6.307984155581717E-07
   6.467675847991776E-07   6.631410375982712E-07   6.799290095762369E-07
   6.971419955279526E-07   7.147907559864084E-07   7.328863239530218E-07
   7.514400117985020E-07   7.704634183385919E-07   7.899684360890760E-07
   8.099672587046845E-07   8.304723886064641E-07   8.514966448024728E-07
   8.730531709066679E-07   8.951554433610001E-07   9.178172798659295E-07
   9.410528480245742E-07   9.648766742059732E-07   9.893036526330031E-07
   1.014349054700628E-06   1.040028538530385E-06   1.066358158767024E-06
   1.093354376623529E-06   1.121034070180768E-06   1.149414544948247E-06
   1.178513544692630E-06   1.208349262540785E-06   1.238940352364336E-06
   1.270305940452892E-06   1.302465637483243E-06   1.335439550792102E-06
   1.369248296960025E-06   1.403913014714475E-06   1.439455378160136E-06
   1.475897610344719E-06   1.513262497168912E-06   1.551573401649081E-06
   1.590854278541789E-06   1.631129689339295E-06   1.672424817645418E-06
   1.714765484941559E-06   1.758178166752627E-06   1.802690009223195E-06
   1.848328846114255E-06   1.895123216231204E-06   1.943102381294194E-06
   1.992296344261907E-06   2.042735868120440E-06   2.094452495149084E-06
   2.147478566675058E-06   2.201847243329834E-06   2.257592525819582E-06
   2.314749276223019E-06   2.373353239829997E-06   2.433441067534602E-06
   2.495050338796951E-06   2.558219585188064E-06   2.622988314532798E-06
   2.689397035665978E-06   2.757487283817403E-06   2.827301646641756E-06
   2.898883790909836E-06   2.972278489878005E-06   3.047531651353136E-06
   3.124690346470785E-06   3.203802839204834E-06   3.284918616627196E-06
   3.368088419936808E-06   3.453364276277517E-06   3.540799531364945E-06
   3.630448882943134E-06   3.722368415092013E-06   3.816615633407540E-06
   3.913249501076781E-06   4.012330475870778E-06   4.113920548078746E-06
   4.218083279407580E-06   4.324883842871462E-06   4.434389063696846E-06
   4.546667461268818E-06   4.661789292145526E-06   4.779826594167971E-06
   4.900853231693312E-06   5.024944941980389E-06   5.152179382757047E-06
   5.282636180999556E-06   5.416396982955216E-06   5.553545505440002E-06
   5.694167588444122E-06   5.838351249078829E-06   5.986186736899154E-06
   6.137766590637820E-06   6.293185696386589E-06   6.452541347262337E-06
   6.615933304595912E-06   6.783463860683158E-06   6.955237903138116E-06
   7.131362980889784E-06   7.311949371864813E-06   7.497110152399394E-06
   7.686961268425255E-06   7.881621608475167E-06   8.081213078555217E-06
   8.285860678931946E-06   8.495692582883712E-06   8.710840217467302E-06
   8.931438346351599E-06   9.157625154772110E-06   9.389542336661021E-06
   9.627335184009167E-06   9.871152678517953E-06   1.012114758560028E-05
   1.037747655079177E-05   1.064030019863460E-05   1.090978323409831E-05
   1.118609454660360E-05   1.146940731671655E-05   1.175989912558306E-05
   1.205775206717482E-05   1.236315286341990E-05   1.267629298229350E-05
   1.299736875894577E-05   1.332658151994629E-05   1.366413771072674E-05
   1.401024902630503E-05   1.436513254537725E-05   1.472901086786528E-05
   1.510211225601109E-05   1.548467077911046E-05   1.587692646198174E-05
   1.627912543726829E-05   1.669152010167462E-05   1.711436927624083E-05
   1.754793837076095E-05   1.799249955245518E-05   1.844833191900775E-05
   1.891572167608647E-05   1.939496231946208E-05   1.988635482184950E-05
   2.039020782459628E-05   2.090683783434647E-05   2.143656942481286E-05
   2.197973544379300E-05   2.253667722556874E-05   2.310774480883332E-05
   2.369329716029270E-05   2.429370240409398E-05   2.490933805723589E-05
   2.554059127112234E-05   2.618785907942369E-05   2.685154865241490E-05
   2.753207755796559E-05   2.822987402936053E-05   2.894537724013541E-05
   2.967903758611722E-05   3.043131697486404E-05   3.120268912270522E-05
   3.199363985958801E-05   3.280466744194288E-05   3.363628287378606E-05
   3.448901023628337E-05   3.536338702600747E-05   3.625996450212549E-05
   3.717930804276254E-05   3.812199751079248E-05   3.908862762931555E-05
   4.007980836708982E-05   4.109616533419125E-05   4.213834018818496E-05
   4.320699105109978E-05   4.430279293750448E-05   4.542643819399638E-05
   4.657863695041928E-05   4.776011758313818E-05   4.897162719070940E-05
   5.021393208229193E-05   5.148781827916002E-05   5.279409202968457E-05
   5.413358033816429E-05   5.550713150789854E-05   5.691561569890433E-05
   5.835992550069599E-05   5.984097652055413E-05   6.135970798772821E-05
   6.291708337402757E-05   6.451409103127083E-05   6.615174484608008E-05
   6.783108491251850E-05   6.955317822308782E-05   7.131911937861813E-05
   7.313003131759747E-05   7.498706606550966E-05   7.689140550476340E-05
   7.884426216581571E-05   8.084688004011358E-05   8.290053541549492E-05
   8.500653773471183E-05   8.716623047776370E-05   8.938099206874386E-05
   9.165223680793235E-05   9.398141582988870E-05   9.637001808832213E-05
   9.881957136854658E-05   1.013316433283498E-04   1.039078425681361E-04
   1.065498197312330E-04   1.092592686352735E-04   1.120379274356098E-04
   1.148875798217324E-04   1.178100562477130E-04   1.208072351977157E-04
   1.238810444876617E-04   1.270334626041699E-04   1.302665200819300E-04
   1.335823009207089E-04   1.369829440432329E-04   1.404706447952244E-04
   1.440476564889288E-04   1.477162919915005E-04   1.514789253596751E-04
   1.553379935222003E-04   1.592959980115472E-04   1.633555067464885E-04
   1.675191558671719E-04   1.717896516243872E-04   1.761697723247798E-04
   1.806623703338255E-04   1.852703741384534E-04   1.899967904712645E-04
   1.948447064983681E-04   1.998172920729302E-04   2.049178020566030E-04
   2.101495787110886E-04   2.155160541621665E-04   2.210207529386034E-04
   2.266672945884540E-04   2.324593963753452E-04   2.384008760574502E-04
   2.444956547519374E-04   2.507477598877984E-04   2.571613282500637E-04
   2.637406091185178E-04   2.704899675041584E-04   2.774138874867548E-04
   2.845169756569820E-04   2.918039646667581E-04   2.992797168915183E-04
   3.069492282083364E-04   3.148176318939179E-04   3.228902026466655E-04
   3.311723607371672E-04   3.396696762916165E-04   3.483878737128656E-04
   3.573328362439643E-04   3.665106106792480E-04   3.759274122282110E-04
   3.855896295376114E-04   3.955038298774618E-04   4.056767644967739E-04
   4.161153741551408E-04   4.268267948364977E-04   4.378183636516033E-04
   4.490976249360825E-04   4.606723365510909E-04   4.725504763939533E-04
   4.847402491264043E-04   4.972500931283415E-04   5.100886876853155E-04
   5.232649604182889E-04   5.367880949645059E-04   5.506675389186830E-04
   5.649130120440288E-04   5.795345147630209E-04   5.945423369381868E-04
   6.099470669535486E-04   6.257596011077980E-04   6.419911533306385E-04
   6.586532652342280E-04   6.757578165120171E-04   6.933170356977970E-04
   7.113435112982102E-04   7.298502033124559E-04   7.488504551534581E-04
   7.683580059852353E-04   7.883870034917779E-04   8.089520170932744E-04
   8.300680516260685E-04   8.517505615033594E-04   8.740154653742002E-04
   8.968791612989889E-04   9.203585424602749E-04   9.444710134283139E-04
   9.692345070015148E-04   9.946675016425412E-04   1.020789039531556E-03
   1.047618745258773E-03   1.075176845179203E-03   1.103484187453218E-03
   1.132562262797275E-03   1.162433225969913E-03   1.193119918018872E-03
   1.224645889315952E-03   1.257035423407035E-03   1.290313561705422E-03
   1.324506129057433E-03   1.359639760210038E-03   1.395741927210963E-03
   1.432840967772612E-03   1.470966114631809E-03   1.510147525938161E-03
   1.550416316704558E-03   1.591804591354042E-03   1.634345477397975E-03
   1.678073160281083E-03   1.723022919429543E-03   1.769231165538940E-03
   1.816735479139286E-03   1.865574650474990E-03   1.915788720737819E-03
   1.967419024691399E-03   2.020508234725961E-03   2.075100406382140E-03
   2.131241025382796E-03   2.188977056211581E-03   2.248356992276840E-03
   2.309430907699059E-03   2.372250510759430E-03   2.436869199046517E-03
   2.503342116336931E-03   2.571726211244844E-03   2.642080297673729E-03
   2.714465117101985E-03   2.788943402732256E-03   2.865579945531759E-03
   2.944441662188420E-03   3.025597665004503E-03   3.109119333745884E-03
   3.195080389461321E-03   3.283556970281488E-03   3.374627709202648E-03
   3.468373813854255E-03   3.564879148243482E-03   3.664230316462991E-03
   3.766516748340366E-03   3.871830786999387E-03   3.980267778293965E-03
   4.091926162065234E-03   4.206907565161312E-03   4.325316896146644E-03
   4.447262441614672E-03   4.572855964002677E-03   4.702212800791741E-03
   4.835451964957426E-03   4.972696246517650E-03   5.114072315003946E-03
   5.259710822659856E-03   5.409746508146141E-03   5.564318300506675E-03
   5.723569423120497E-03   5.887647497335433E-03   6.056704645446052E-03
   6.230897592643479E-03   6.410387767527194E-03   6.595341400728368E-03
   6.785929621150894E-03   6.982328549290170E-03   7.184719387039731E-03
   7.393288503343405E-03   7.608227514993749E-03   7.829733361817637E-03
   8.058008375425984E-03   8.293260340636214E-03   8.535702548604569E-03
   8.785553840628376E-03   9.043038641497810E-03   9.308386981191226E-03
   9.581834503617598E-03   9.863622461015320E-03   1.015399769251588E-02
   1.045321258527653E-02   1.076152501647606E-02   1.107919827435217E-02
   1.140650095633981E-02   1.174370684224356E-02   1.209109474024791E-02
   1.244894830343361E-02   1.281755581432915E-02   1.319720993488229E-02
   1.358820741908833E-02   1.399084878536018E-02   1.440543794557038E-02
   1.483228178753708E-02   1.527168970756748E-02   1.572397308951029E-02
   1.618944472660869E-02   1.666841818228509E-02   1.716120708583046E-02
   1.766812435881771E-02   1.818948136790834E-02   1.872558699957962E-02
   1.927674665216666E-02   1.984326114049048E-02   2.042542550823691E-02
   2.102352774315722E-02   2.163784739009151E-02   2.226865405676614E-02
   2.291620580729493E-02   2.358074743832397E-02   2.426250863280457E-02
   2.496170198646471E-02   2.567852090218146E-02   2.641313734764000E-02
   2.716569947190721E-02   2.793632907685326E-02   2.872511893973365E-02
   2.953212998370169E-02   3.035738829356627E-02   3.120088197475359E-02
   3.206255785417607E-02   3.294231802257569E-02   3.384001621889508E-02
   3.475545405835015E-02   3.568837710714794E-02   3.663847080821322E-02
   3.760535626388037E-02   3.858858588327427E-02   3.958763890406083E-02
   4.060191680040555E-02   4.163073859134284E-02   4.267333606634483E-02
   4.372884894769055E-02   4.479632001228231E-02   4.587469019884629E-02
   4.696279372998464E-02   4.805935328232748E-02   4.916297524205723E-02
   5.027214508734384E-02   5.138522294373199E-02   5.250043936323995E-02
   5.361589138285878E-02   5.472953892324607E-02   5.583920159366734E-02
   5.694255597461381E-02   5.803713345496680E-02   5.912031870603874E-02
   6.018934888023143E-02   6.124131362733540E-02   6.227315602657049E-02
   6.328167453722407E-02   6.426352607507729E-02   6.521523032558228E-02
   6.613317540781871E-02   6.701362500546332E-02   6.785272708215025E-02
   6.864652429850858E-02   6.939096624660036E-02   7.008192361421813E-02
   7.071520438629103E-02   7.128657218320383E-02   7.179176682588981E-02
   7.222652720479920E-02   7.258661651396595E-02   7.286784989208475E-02
   7.306612448943216E-02   7.317745195231684E-02   7.319799328520477E-02
   7.312409601444637E-02   7.295233353637141E-02   7.267954648618001E-02
   7.230288591237505E-02   7.181985798432983E-02   7.122836989794853E-02
   7.052677657630564E-02   6.971392768885519E-02   6.878921443459127E-02
   6.775261545192678E-02   6.660474113172990E-02   6.534687552080269E-02
   6.398101491228823E-02   6.250990212844512E-02   6.093705541168170E-02
   5.926679075375099E-02   5.750423641295993E-02   5.565533829796519E-02
   5.372685483734584E-02   5.172633991025759E-02   4.966211238906849E-02
   4.754321084427413E-02   4.537933198999132E-02   4.318075150992428E-02
   4.095822600427336E-02   3.872287494311281E-02   3.648604170688799E-02
   3.425913304546925E-02   3.205343659893405E-02   2.987991650086666E-02
   2.774898753272651E-02   2.567026881900033E-02   2.365231864953686E-02
   2.170235268802264E-02   1.982594857244871E-02   1.802674073058600E-02
   1.630611011395113E-02   1.466287448720824E-02   1.309298588214248E-02
   1.159172549702420E-02   1.016193419110495E-02   8.808235200128134E-03
   7.534746409997406E-03   6.345024633042096E-03   5.242012871995216E-03
   4.227991457235791E-03   3.304533995043990E-03   2.472469109197073E-03
   1.731848993264562E-03   1.081925814820417E-03   5.211370238289437E-04
   4.710061423524037E-05  -3.433786309124942E-04  -6.542909157616350E-04
  -8.903902869272784E-04  -1.057149695816828E-03  -1.160701484863857E-03
  -1.207762621696973E-03  -1.205544130816250E-03  -1.161644316241051E-03
  -1.083925530767915E-03  -9.803744281247639E-04  -8.589458339389178E-04
  -7.273905911568401E-04  -5.930679772039871E-04  -4.627435567390870E-04
  -3.423736295236623E-04  -2.368777634997876E-04  -1.499012762381513E-04
  -8.356995289865443E-05  -3.823977731132189E-05  -1.224501796531774E-05
  -1.648667633080692E-06   1.110223024625157E-16   0.000000000000000E+00
   0.000000000000000E+00   0.000000000000000E+00   0.000000000000000E+00
   0.000000000000000E+00   0.000000000000000E+00   0.000000000000000E+00
   0.000000000000000E+00   0.000000000000000E+00   0.000000000000000E+00
   0.000000000000000E+00   0.000000000000000E+00   0.000000000000000E+00
   0.000000000000000E+00   0.000000000000000E+00   0.000000000000000E+00
   0.000000000000000E+00   0.000000000000000E+00   0.000000000000000E+00
   0.000000000000000E+00   0.000000000000000E+00   0.000000000000000E+00
   0.000000000000000E+00   0.000000000000000E+00   0.000000000000000E+00
   0.000000000000000E+00   0.000000000000000E+00   0.000000000000000E+00
   0.000000000000000E+00   0.000000000000000E+00   0.000000000000000E+00
   0.000000000000000E+00   0.000000000000000E+00   0.000000000000000E+00
   0.000000000000000E+00   0.000000000000000E+00   0.000000000000000E+00
   0.000000000000000E+00   0.000000000000000E+00   0.000000000000000E+00
   0.000000000000000E+00   0.000000000000000E+00   0.000000000000000E+00
   0.000000000000000E+00   0.000000000000000E+00   0.000000000000000E+00
   0.000000000000000E+00   0.000000000000000E+00   0.000000000000000E+00
   0.000000000000000E+00   0.000000000000000E+00   0.000000000000000E+00
   0.000000000000000E+00   0.000000000000000E+00   0.000000000000000E+00
   0.000000000000000E+00   0.000000000000000E+00   0.000000000000000E+00
   0.000000000000000E+00   0.000000000000000E+00   0.000000000000000E+00
   0.000000000000000E+00   0.000000000000000E+00   0.000000000000000E+00
   0.000000000000000E+00   0.000000000000000E+00   0.000000000000000E+00
   0.000000000000000E+00   0.000000000000000E+00   0.000000000000000E+00
   0.000000000000000E+00   0.000000000000000E+00   0.000000000000000E+00
   0.000000000000000E+00   0.000000000000000E+00   0.000000000000000E+00
   0.000000000000000E+00   0.000000000000000E+00   0.000000000000000E+00
   0.000000000000000E+00   0.000000000000000E+00   0.000000000000000E+00
   0.000000000000000E+00   0.000000000000000E+00   0.000000000000000E+00
   0.000000000000000E+00   0.000000000000000E+00   0.000000000000000E+00
   0.000000000000000E+00   0.000000000000000E+00   0.000000000000000E+00
   0.000000000000000E+00   0.000000000000000E+00   0.000000000000000E+00
   0.000000000000000E+00   0.000000000000000E+00   0.000000000000000E+00
   0.000000000000000E+00   0.000000000000000E+00   0.000000000000000E+00
   0.000000000000000E+00   0.000000000000000E+00   0.000000000000000E+00
   0.000000000000000E+00   0.000000000000000E+00   0.000000000000000E+00
   0.000000000000000E+00   0.000000000000000E+00   0.000000000000000E+00
   0.000000000000000E+00   0.000000000000000E+00   0.000000000000000E+00
   0.000000000000000E+00   0.000000000000000E+00   0.000000000000000E+00
   0.000000000000000E+00   0.000000000000000E+00   0.000000000000000E+00
   0.000000000000000E+00   0.000000000000000E+00   0.000000000000000E+00
   0.000000000000000E+00   0.000000000000000E+00   0.000000000000000E+00
   0.000000000000000E+00   0.000000000000000E+00   0.000000000000000E+00
   0.000000000000000E+00   0.000000000000000E+00   0.000000000000000E+00
   0.000000000000000E+00   0.000000000000000E+00   0.000000000000000E+00
   0.000000000000000E+00   0.000000000000000E+00   0.000000000000000E+00
   0.000000000000000E+00   0.000000000000000E+00   0.000000000000000E+00
   0.000000000000000E+00   0.000000000000000E+00   0.000000000000000E+00
   0.000000000000000E+00   0.000000000000000E+00   0.000000000000000E+00
   0.000000000000000E+00   0.000000000000000E+00   0.000000000000000E+00
   0.000000000000000E+00   0.000000000000000E+00   0.000000000000000E+00
   0.000000000000000E+00   0.000000000000000E+00   0.000000000000000E+00
   0.000000000000000E+00   0.000000000000000E+00   0.000000000000000E+00
   0.000000000000000E+00   0.000000000000000E+00   0.000000000000000E+00
   0.000000000000000E+00   0.000000000000000E+00   0.000000000000000E+00
   0.000000000000000E+00   0.000000000000000E+00   0.000000000000000E+00
   0.000000000000000E+00   0.000000000000000E+00   0.000000000000000E+00
   0.000000000000000E+00   0.000000000000000E+00   0.000000000000000E+00
   0.000000000000000E+00   0.000000000000000E+00   0.000000000000000E+00
   0.000000000000000E+00   0.000000000000000E+00   0.000000000000000E+00
   0.000000000000000E+00   0.000000000000000E+00   0.000000000000000E+00
   0.000000000000000E+00   0.000000000000000E+00   0.000000000000000E+00
   0.000000000000000E+00   0.000000000000000E+00   0.000000000000000E+00
   0.000000000000000E+00   0.000000000000000E+00   0.000000000000000E+00
   0.000000000000000E+00   0.000000000000000E+00   0.000000000000000E+00
   0.000000000000000E+00   0.000000000000000E+00   0.000000000000000E+00
   0.000000000000000E+00   0.000000000000000E+00   0.000000000000000E+00
   0.000000000000000E+00   0.000000000000000E+00   0.000000000000000E+00
   0.000000000000000E+00   0.000000000000000E+00   0.000000000000000E+00
   0.000000000000000E+00   0.000000000000000E+00   0.000000000000000E+00
   0.000000000000000E+00   0.000000000000000E+00   0.000000000000000E+00
   0.000000000000000E+00   0.000000000000000E+00   0.000000000000000E+00
   0.000000000000000E+00   0.000000000000000E+00   0.000000000000000E+00
   0.000000000000000E+00   0.000000000000000E+00   0.000000000000000E+00
   0.000000000000000E+00   0.000000000000000E+00   0.000000000000000E+00
   0.000000000000000E+00   0.000000000000000E+00   0.000000000000000E+00
   0.000000000000000E+00   0.000000000000000E+00   0.000000000000000E+00
   0.000000000000000E+00   0.000000000000000E+00   0.000000000000000E+00
   0.000000000000000E+00   0.000000000000000E+00   0.000000000000000E+00
   0.000000000000000E+00   0.000000000000000E+00   0.000000000000000E+00
   0.000000000000000E+00   0.000000000000000E+00   0.000000000000000E+00
   0.000000000000000E+00   0.000000000000000E+00   0.000000000000000E+00
   0.000000000000000E+00   0.000000000000000E+00   0.000000000000000E+00
   0.000000000000000E+00   0.000000000000000E+00   0.000000000000000E+00
   0.000000000000000E+00   0.000000000000000E+00   0.000000000000000E+00
   0.000000000000000E+00   0.000000000000000E+00   0.000000000000000E+00
   0.000000000000000E+00   0.000000000000000E+00   0.000000000000000E+00
   0.000000000000000E+00   0.000000000000000E+00   0.000000000000000E+00
   0.000000000000000E+00   0.000000000000000E+00   0.000000000000000E+00
   0.000000000000000E+00   0.000000000000000E+00   0.000000000000000E+00
   0.000000000000000E+00   0.000000000000000E+00   0.000000000000000E+00
   0.000000000000000E+00   0.000000000000000E+00   0.000000000000000E+00
   0.000000000000000E+00   0.000000000000000E+00   0.000000000000000E+00
   0.000000000000000E+00   0.000000000000000E+00   0.000000000000000E+00
   0.000000000000000E+00   0.000000000000000E+00   0.000000000000000E+00
   0.000000000000000E+00   0.000000000000000E+00   0.000000000000000E+00
   0.000000000000000E+00   0.000000000000000E+00   0.000000000000000E+00
   0.000000000000000E+00   0.000000000000000E+00   0.000000000000000E+00
   0.000000000000000E+00   0.000000000000000E+00   0.000000000000000E+00
   0.000000000000000E+00   0.000000000000000E+00   0.000000000000000E+00
   0.000000000000000E+00   0.000000000000000E+00   0.000000000000000E+00
   0.000000000000000E+00   0.000000000000000E+00   0.000000000000000E+00
   0.000000000000000E+00   0.000000000000000E+00   0.000000000000000E+00
   0.000000000000000E+00   0.000000000000000E+00   0.000000000000000E+00
   0.000000000000000E+00   0.000000000000000E+00   0.000000000000000E+00
   0.000000000000000E+00   0.000000000000000E+00   0.000000000000000E+00
   0.000000000000000E+00   0.000000000000000E+00   0.000000000000000E+00
   0.000000000000000E+00   0.000000000000000E+00   0.000000000000000E+00
   0.000000000000000E+00   0.000000000000000E+00   0.000000000000000E+00
   0.000000000000000E+00   0.000000000000000E+00   0.000000000000000E+00
   0.000000000000000E+00   0.000000000000000E+00   0.000000000000000E+00
   0.000000000000000E+00   0.000000000000000E+00   0.000000000000000E+00
   0.000000000000000E+00   0.000000000000000E+00   0.000000000000000E+00
   0.000000000000000E+00   0.000000000000000E+00   0.000000000000000E+00
   0.000000000000000E+00   0.000000000000000E+00
      </PP_QIJL.3.4.0>
      <PP_QIJL.3.4.2 first_index="3" second_index="4" composite_index="9" angular_momentum="2" size="1073">
   2.344625383371679E-15   2.464836889658326E-15   2.591211771068829E-15
   2.724066030556384E-15   2.863731872888444E-15   3.010558535331159E-15
   3.164913160923984E-15   3.327181716527978E-15   3.497769957943392E-15
   3.677104444509963E-15   3.865633605726696E-15   4.063828862558507E-15
   4.272185806233403E-15   4.491225437477831E-15   4.721495469289043E-15
   4.963571696501797E-15   5.218059435574364E-15   5.485595038193841E-15
   5.766847482485564E-15   6.062520045805648E-15   6.373352063299169E-15
   6.700120776621663E-15   7.043643277446424E-15   7.404778550617531E-15
   7.784429622057539E-15   8.183545816800407E-15   8.603125132796504E-15
   9.044216736424821E-15   9.507923585952824E-15   9.995405189503949E-15
   1.050788050442869E-14   1.104663098532976E-14   1.161300378836257E-14
   1.220841513982351E-14   1.283435387744946E-14   1.349238517328303E-14
   1.418415444741335E-14   1.491139148237825E-14   1.567591474851605E-14
   1.647963595108296E-14   1.732456481050522E-14   1.821281408772038E-14
   1.914660486717268E-14   2.012827211067298E-14   2.116027049601128E-14
   2.224518055492003E-14   2.338571512573790E-14   2.458472613690783E-14
   2.584521173827205E-14   2.717032379799604E-14   2.856337578386678E-14
   3.002785104867390E-14   3.156741154039034E-14   3.318590695893262E-14
   3.488738438239825E-14   3.667609838684857E-14   3.855652168494435E-14
   4.053335631003432E-14   4.261154537366303E-14   4.479628542589846E-14
   4.709303944938458E-14   4.950755051961340E-14   5.204585616557169E-14
   5.471430346667248E-14   5.751956492372164E-14   6.046865514360311E-14
   6.356894837940552E-14   6.682819696984782E-14   7.025455072411162E-14
   7.385657730055413E-14   7.764328363025515E-14   8.162413843897171E-14
   8.580909592381443E-14   9.020862064384875E-14   9.483371368686372E-14
   9.969594017773114E-14   1.048074581971488E-13   1.101810491830723E-13
   1.158301498908572E-13   1.217688859920290E-13   1.280121073956897E-13
   1.345754253808889E-13   1.414752516328043E-13   1.487288392803422E-13
   1.563543260377757E-13   1.643707795582891E-13   1.727982451128442E-13
   1.816577957135817E-13   1.909715848070944E-13   2.007629016693345E-13
   2.110562296406595E-13   2.218773073466466E-13   2.332531930577477E-13
   2.452123323487203E-13   2.577846292270183E-13   2.710015209079878E-13
   2.848960564238596E-13   2.995029792630851E-13   3.148588142466606E-13
   3.310019588586763E-13   3.479727792594480E-13   3.658137112213300E-13
   3.845693662395816E-13   4.042866430836242E-13   4.250148450676247E-13
   4.468058033336198E-13   4.697140064554741E-13   4.937967366877267E-13
   5.191142132000197E-13   5.457297426552665E-13   5.737098775080641E-13
   6.031245824191921E-13   6.340474092022942E-13   6.665556807402052E-13
   7.007306843308013E-13   7.366578749458096E-13   7.744270889108498E-13
   8.141327685409924E-13   8.558741982935241E-13   8.997557530284311E-13
   9.458871589973327E-13   9.943837682135053E-13   1.045366846889008E-12
   1.098963878660165E-12   1.155308883359596E-12   1.214542752131852E-12
   1.276813599730647E-12   1.342277134878546E-12   1.411097049615191E-12
   1.483445428607626E-12   1.559503179446155E-12   1.639460485001680E-12
   1.723517278975628E-12   1.811883745831528E-12   1.904780846358332E-12
   2.002440870179528E-12   2.105108016589685E-12   2.213039005170697E-12
   2.326503717714525E-12   2.445785873057611E-12   2.571183736514184E-12
   2.703010865682531E-12   2.841596894488926E-12   2.987288357429723E-12
   3.140449556072581E-12   3.301463469983341E-12   3.470732714356396E-12
   3.648680546742930E-12   3.835751925394249E-12   4.032414621866624E-12
   4.239160390669393E-12   4.456506198881122E-12   4.684995518808268E-12
   4.925199686918492E-12   5.177719332446559E-12   5.443185879244726E-12
   5.722263124633113E-12   6.015648899197528E-12   6.324076811684967E-12
   6.648318083359832E-12   6.989183476407061E-12   7.347525321204354E-12
   7.724239647532128E-12   8.120268425049977E-12   8.536601918642024E-12
   8.974281164519498E-12   9.434400573273000E-12   9.918110666381481E-12
   1.042662095302128E-11   1.096120295436790E-11   1.152319338295159E-11
   1.211399748501771E-11   1.273509255424694E-11   1.338803162562235E-11
   1.407444735867846E-11   1.479605611984108E-11   1.555466227406673E-11
   1.635216269650965E-11   1.719055151549884E-11   1.807192509868329E-11
   1.899848729481117E-11   1.997255494425109E-11   2.099656367203049E-11
   2.207307397787756E-11   2.320477763849230E-11   2.439450443805298E-11
   2.564522924378911E-11   2.696007944430705E-11   2.834234276926954E-11
   2.979547550997848E-11   3.132311116141283E-11   3.292906950733239E-11
   3.461736617115673E-11   3.639222265650283E-11   3.825807690248253E-11
   4.021959438014825E-11   4.228167975783468E-11   4.444948916455534E-11
   4.672844308211900E-11   4.912423989819718E-11   5.164287015422260E-11
   5.429063152374885E-11   5.707414455870807E-11   6.000036924294217E-11
   6.307662239438960E-11   6.631059595943073E-11   6.971037624513805E-11
   7.328446413750142E-11   7.704179635618303E-11   8.099176779893720E-11
   8.514425503155120E-11   8.950964098204265E-11   9.409884090083600E-11
   9.892332965182700E-11   1.039951704025592E-10   1.093270447852299E-10
   1.149322846039403E-10   1.208249051674363E-10   1.270196403306850E-10
   1.335319793328781E-10   1.403782055239488E-10   1.475754370764273E-10
   1.551416697843875E-10   1.630958220564897E-10   1.714577822155899E-10
   1.802484582231404E-10   1.894898299527086E-10   1.992050041432505E-10
   2.094182721695325E-10   2.201551707741021E-10   2.314425459126040E-10
   2.433086198720645E-10   2.557830618298760E-10   2.688970620298831E-10
   2.826834097609706E-10   2.971765753330453E-10   3.124127962553598E-10
   3.284301678325260E-10   3.452687384047080E-10   3.629706094700253E-10
   3.815800409393968E-10   4.011435617869538E-10   4.217100863725118E-10
   4.433310367268844E-10   4.660604711056494E-10   4.899552191326527E-10
   5.150750238710301E-10   5.414826911767887E-10   5.692442467082355E-10
   5.984291009836355E-10   6.291102228995873E-10   6.613643221437828E-10
   6.952720409579768E-10   7.309181557304167E-10   7.683917889214878E-10
   8.077866318521682E-10   8.492011789120319E-10   8.927389737720242E-10
   9.385088682172889E-10   9.866252942467881E-10   1.037208550119610E-09
   1.090385101038363E-09   1.146287895401630E-09   1.205056696683803E-09
   1.266838433856030E-09   1.331787567009161E-09   1.400066474953094E-09
   1.471845860317668E-09   1.547305176432710E-09   1.626633075586626E-09
   1.710027881380625E-09   1.797698083222774E-09   1.889862858281219E-09
   1.986752619376853E-09   2.088609590169169E-09   2.195688411099273E-09
   2.308256775790791E-09   2.426596099598673E-09   2.551002223861435E-09
   2.681786154254826E-09   2.819274838564807E-09   2.963811983921213E-09
   3.115758915287725E-09   3.275495479082892E-09   3.443420991694241E-09
   3.619955237994519E-09   3.805539517178490E-09   4.000637758659389E-09
   4.205737656583447E-09   4.421351910674480E-09   4.648019507719180E-09
   4.886307040084884E-09   5.136810162226492E-09   5.400155044669773E-09
   5.676999964486439E-09   5.968036923138251E-09   6.273993409533039E-09
   6.595634176204944E-09   6.933763192075204E-09   7.289225617974892E-09
   7.662909937766130E-09   8.055750174298055E-09   8.468728210880769E-09
   8.902876255914239E-09   9.359279428100900E-09   9.839078450379936E-09
   1.034347249461715E-08   1.087372222918122E-08   1.143115286948363E-08
   1.201715759971617E-08   1.263320096998616E-08   1.328082258866397E-08
   1.396164096996561E-08   1.467735756153145E-08   1.542976099763944E-08
   1.622073157799209E-08   1.705224594634004E-08   1.792638204522260E-08
   1.884532427949418E-08   1.981136899082792E-08   2.082693019545825E-08
   2.189454558325902E-08   2.301688288426282E-08   2.419674650819950E-08
   2.543708456237050E-08   2.674099620360202E-08   2.811173936598776E-08
   2.955273890470487E-08   3.106759512532910E-08   3.266009282144265E-08
   3.433421064917587E-08   3.609413110243658E-08   3.794425097833646E-08
   3.988919224570672E-08   4.193381367060389E-08   4.408322294868862E-08
   4.634278937204601E-08   4.871815727158321E-08   5.121526013482135E-08
   5.384033530641661E-08   5.659993963744662E-08   5.950096583149535E-08
   6.255065959036203E-08   6.575663771169085E-08   6.912690708409915E-08
   7.266988466939471E-08   7.639441846078485E-08   8.030980953830948E-08
   8.442583531239539E-08   8.875277384384544E-08   9.330142949936300E-08
   9.808315983793252E-08   1.031099039583077E-07   1.083942122791067E-07
   1.139492777179834E-07   1.197889686453594E-07   1.259278634485359E-07
   1.323812867917885E-07   1.391653478081606E-07   1.462969802675901E-07
   1.537939846727703E-07   1.616750727084473E-07   1.699599136620045E-07
   1.786691835897172E-07   1.878246166292797E-07   1.974490592372178E-07
   2.075665268941966E-07   2.182022640365790E-07   2.293828067559688E-07
   2.411360489048783E-07   2.534913114240149E-07   2.664794153207257E-07
   2.801327582862935E-07   2.944853953275011E-07   3.095731233339345E-07
   3.254335701682184E-07   3.421062881688379E-07   3.596328524431134E-07
   3.780569641408665E-07   3.974245591218304E-07   4.177839219960520E-07
   4.391858060778429E-07   4.616835593513341E-07   4.853332570616061E-07
   5.101938408126825E-07   5.363272648525104E-07   5.637986498954669E-07
   5.926764445789287E-07   6.230325953485348E-07   6.549427248131562E-07
   6.884863192686856E-07   7.237469257917833E-07   7.608123591839640E-07
   7.997749196853103E-07   8.407316215638406E-07   8.837844333714022E-07
   9.290405304779326E-07   9.766125603167208E-07   1.026618921235717E-06
   1.079184055346305E-06   1.134438756368400E-06   1.192520493095016E-06
   1.253573749160512E-06   1.317750380155837E-06   1.385209988788792E-06
   1.456120319095825E-06   1.530657670584874E-06   1.609007333420943E-06
   1.691364045626714E-06   1.777932473405776E-06   1.868927715854364E-06
   1.964575835089029E-06   2.065114413281940E-06   2.170793137909810E-06
   2.281874416382118E-06   2.398634022014722E-06   2.521361772329533E-06
   2.650362241799402E-06   2.785955510553502E-06   2.928477950762774E-06
   3.078283052702968E-06   3.235742292570367E-06   3.401246043814845E-06
   3.575204534571468E-06   3.758048853157512E-06   3.950232004191991E-06
   4.152230017880291E-06   4.364543114944431E-06   4.587696930176953E-06
   4.822243797378800E-06   5.068764098744173E-06   5.327867682085743E-06
   5.600195348822098E-06   5.886420416796556E-06   6.187250361169269E-06
   6.503428537366846E-06   6.835735990397976E-06   7.184993354387348E-06
   7.552062846947152E-06   7.937850363288027E-06   8.343307674511175E-06
   8.769434735555996E-06   9.217282108050206E-06   9.687953503684075E-06
   1.018260845410850E-05   1.070246511320171E-05   1.124880319886145E-05
   1.182296708015485E-05   1.242636901781737E-05   1.306049256496403E-05
   1.372689613599825E-05   1.442721675191253E-05   1.516317397032977E-05
   1.593657400942780E-05   1.674931407489202E-05   1.760338689984924E-05
   1.850088550781302E-05   1.944400820956593E-05   2.043506384494228E-05
   2.147647728143023E-05   2.257079518166247E-05   2.372069205258623E-05
   2.492897658998113E-05   2.619859833177204E-05   2.753265463534668E-05
   2.893439799366515E-05   3.040724370635335E-05   3.195477792237800E-05
   3.358076607166962E-05   3.528916170386466E-05   3.708411575315798E-05
   3.896998624902640E-05   4.095134849324696E-05   4.303300572522817E-05
   4.522000029758814E-05   4.751762538561912E-05   4.993143725505408E-05
   5.246726811355058E-05   5.513123957215073E-05   5.792977674468050E-05
   6.086962301357637E-05   6.395785549184968E-05   6.720190121275665E-05
   7.060955407913944E-05   7.418899260614058E-05   7.794879849245097E-05
   8.189797605612040E-05   8.604597257295667E-05   9.040269955651525E-05
   9.497855502022623E-05   9.978444676418376E-05   1.048318167300087E-04
   1.101326664690891E-04   1.156995837714191E-04   1.215457705032604E-04
   1.276850717041967E-04   1.341320059953261E-04   1.409017973524770E-04
   1.480104082998543E-04   1.554745745813053E-04   1.633118413684075E-04
   1.715406010660545E-04   1.801801327783200E-04   1.892506434990238E-04
   1.987733110931211E-04   2.087703291372555E-04   2.192649536889358E-04
   2.302815520560585E-04   2.418456536399841E-04   2.539840029269531E-04
   2.667246147042278E-04   2.800968315790947E-04   2.941313838796288E-04
   3.088604520182270E-04   3.243177313995396E-04   3.405384999554142E-04
   3.575596883908829E-04   3.754199532250839E-04   3.941597527122659E-04
   4.138214257277663E-04   4.344492737038305E-04   4.560896457000228E-04
   4.787910266923304E-04   5.026041291634299E-04   5.275819880762634E-04
   5.537800593099979E-04   5.812563216358800E-04   6.100713823071566E-04
   6.402885863340427E-04   6.719741295101956E-04   7.051971752526356E-04
   7.400299753111115E-04   7.765479943967255E-04   8.148300387720751E-04
   8.549583888365947E-04   8.970189357319013E-04   9.411013219806402E-04
   9.872990861610215E-04   1.035709811605659E-03   1.086435279098687E-03
   1.139581623529214E-03   1.195259494440596E-03   1.253584220395952E-03
   1.314675977058018E-03   1.378659958858206E-03   1.445666554103245E-03
   1.515831523339768E-03   1.589296180766114E-03   1.666207578446918E-03
   1.746718693049856E-03   1.830988614784078E-03   1.919182738177284E-03
   2.011472954281941E-03   2.108037843851801E-03   2.209062870975544E-03
   2.314740576597307E-03   2.425270771291518E-03   2.540860726593051E-03
   2.661725364113009E-03   2.788087441593856E-03   2.920177734976990E-03
   3.058235215469067E-03   3.202507220501522E-03   3.353249617379883E-03
   3.510726958315762E-03   3.675212625424434E-03   3.846988964154673E-03
   4.026347403494802E-03   4.213588561169716E-03   4.409022331907024E-03
   4.612967956708207E-03   4.825754070910304E-03   5.047718728667008E-03
   5.279209401315001E-03   5.520582946920254E-03   5.772205548122784E-03
   6.034452615214710E-03   6.307708651196926E-03   6.592367075365284E-03
   6.888830001776194E-03   7.197507968736968E-03   7.518819615257916E-03
   7.853191300190373E-03   8.201056659562625E-03   8.562856097409451E-03
   8.939036205178382E-03   9.330049104582808E-03   9.736351708564198E-03
   1.015840489482380E-02   1.059667258618939E-02   1.105162073189932E-02
   1.152371618371635E-02   1.201342546062916E-02   1.252121339576770E-02
   1.304754165904702E-02   1.359286714897425E-02   1.415764024700410E-02
   1.474230292781653E-02   1.534728671892416E-02   1.597301050309649E-02
   1.661987815722599E-02   1.728827602146006E-02   1.797857019269175E-02
   1.869110363684948E-02   1.942619311485813E-02   2.018412591767204E-02
   2.096515640641244E-02   2.176950235438730E-02   2.259734108864355E-02
   2.344880542970539E-02   2.432397942930460E-02   2.522289390721812E-02
   2.614552178980342E-02   2.709177325448265E-02   2.806149068627294E-02
   2.905444345451455E-02   3.007032252021397E-02   3.110873488690984E-02
   3.216919791069604E-02   3.325113348800273E-02   3.435386214295609E-02
   3.547659703961248E-02   3.661843794809716E-02   3.777836519767663E-02
   3.895523365404993E-02   4.014776676265984E-02   4.135455070458637E-02
   4.257402871658186E-02   4.380449563202497E-02   4.504409270497801E-02
   4.629080278510993E-02   4.754244591695050E-02   4.879667544272959E-02
   5.005097469387787E-02   5.130265436205263E-02   5.254885064624058E-02
   5.378652427798942E-02   5.501246053203574E-02   5.622327033442834E-02
   5.741539258455772E-02   5.858509781117480E-02   5.972849328535362E-02
   6.084152971526209E-02   6.192000964837853E-02   6.295959770621894E-02
   6.395583277453100E-02   6.490414226802470E-02   6.579985858281229E-02
   6.663823784158171E-02   6.741448102584718E-02   6.812375757615996E-02
   6.876123152463195E-02   6.932209020425105E-02   6.980157555598411E-02
   7.019501802728915E-02   7.049787302415281E-02   7.070575984289115E-02
   7.081450296749316E-02   7.082017557308913E-02   7.071914502605223E-02
   7.050812011624237E-02   7.018419969697114E-02   6.974492234350327E-02
   6.918831657149808E-02   6.851295108303994E-02   6.771798443024306E-02
   6.680321340542818E-02   6.576911938331373E-02   6.461691175547346E-02
   6.334856751165098E-02   6.196686593775322E-02   6.047541731810112E-02
   5.887868445170806E-02   5.718199572113349E-02   5.539154839036053E-02
   5.351440075793341E-02   5.155845175643902E-02   4.953240657281713E-02
   4.744572686972678E-02   4.530856422052930E-02   4.313167543380888E-02
   4.092631854261938E-02   3.870412837392347E-02   3.647697080029473E-02
   3.425677501448341E-02   3.205534346346725E-02   2.988413943779158E-02
   2.775405273983148E-02   2.567514435623984E-02   2.365637164000877E-02
   2.170529617014264E-02   1.982777720480666E-02   1.802765447843636E-02
   1.630642501423452E-02   1.466291962805055E-02   1.309298588214247E-02
   1.159172549702420E-02   1.016193419110495E-02   8.808235200128134E-03
   7.534746409997406E-03   6.345024633042096E-03   5.242012871995216E-03
   4.227991457235791E-03   3.304533995043990E-03   2.472469109197073E-03
   1.731848993264562E-03   1.081925814820417E-03   5.211370238289437E-04
   4.710061423524037E-05  -3.433786309124942E-04  -6.542909157616350E-04
  -8.903902869272784E-04  -1.057149695816828E-03  -1.160701484863857E-03
  -1.207762621696973E-03  -1.205544130816250E-03  -1.161644316241051E-03
  -1.083925530767915E-03  -9.803744281247639E-04  -8.589458339389178E-04
  -7.273905911568401E-04  -5.930679772039871E-04  -4.627435567390870E-04
  -3.423736295236623E-04  -2.368777634997876E-04  -1.499012762381513E-04
  -8.356995289865443E-05  -3.823977731132189E-05  -1.224501796531774E-05
  -1.648667633080692E-06   1.110223024625157E-16   0.000000000000000E+00
   0.000000000000000E+00   0.000000000000000E+00   0.000000000000000E+00
   0.000000000000000E+00   0.000000000000000E+00   0.000000000000000E+00
   0.000000000000000E+00   0.000000000000000E+00   0.000000000000000E+00
   0.000000000000000E+00   0.000000000000000E+00   0.000000000000000E+00
   0.000000000000000E+00   0.000000000000000E+00   0.000000000000000E+00
   0.000000000000000E+00   0.000000000000000E+00   0.000000000000000E+00
   0.000000000000000E+00   0.000000000000000E+00   0.000000000000000E+00
   0.000000000000000E+00   0.000000000000000E+00   0.000000000000000E+00
   0.000000000000000E+00   0.000000000000000E+00   0.000000000000000E+00
   0.000000000000000E+00   0.000000000000000E+00   0.000000000000000E+00
   0.000000000000000E+00   0.000000000000000E+00   0.000000000000000E+00
   0.000000000000000E+00   0.000000000000000E+00   0.000000000000000E+00
   0.000000000000000E+00   0.000000000000000E+00   0.000000000000000E+00
   0.000000000000000E+00   0.000000000000000E+00   0.000000000000000E+00
   0.000000000000000E+00   0.000000000000000E+00   0.000000000000000E+00
   0.000000000000000E+00   0.000000000000000E+00   0.000000000000000E+00
   0.000000000000000E+00   0.000000000000000E+00   0.000000000000000E+00
   0.000000000000000E+00   0.000000000000000E+00   0.000000000000000E+00
   0.000000000000000E+00   0.000000000000000E+00   0.000000000000000E+00
   0.000000000000000E+00   0.000000000000000E+00   0.000000000000000E+00
   0.000000000000000E+00   0.000000000000000E+00   0.000000000000000E+00
   0.000000000000000E+00   0.000000000000000E+00   0.000000000000000E+00
   0.000000000000000E+00   0.000000000000000E+00   0.000000000000000E+00
   0.000000000000000E+00   0.000000000000000E+00   0.000000000000000E+00
   0.000000000000000E+00   0.000000000000000E+00   0.000000000000000E+00
   0.000000000000000E+00   0.000000000000000E+00   0.000000000000000E+00
   0.000000000000000E+00   0.000000000000000E+00   0.000000000000000E+00
   0.000000000000000E+00   0.000000000000000E+00   0.000000000000000E+00
   0.000000000000000E+00   0.000000000000000E+00   0.000000000000000E+00
   0.000000000000000E+00   0.000000000000000E+00   0.000000000000000E+00
   0.000000000000000E+00   0.000000000000000E+00   0.000000000000000E+00
   0.000000000000000E+00   0.000000000000000E+00   0.000000000000000E+00
   0.000000000000000E+00   0.000000000000000E+00   0.000000000000000E+00
   0.000000000000000E+00   0.000000000000000E+00   0.000000000000000E+00
   0.000000000000000E+00   0.000000000000000E+00   0.000000000000000E+00
   0.000000000000000E+00   0.000000000000000E+00   0.000000000000000E+00
   0.000000000000000E+00   0.000000000000000E+00   0.000000000000000E+00
   0.000000000000000E+00   0.000000000000000E+00   0.000000000000000E+00
   0.000000000000000E+00   0.000000000000000E+00   0.000000000000000E+00
   0.000000000000000E+00   0.000000000000000E+00   0.000000000000000E+00
   0.000000000000000E+00   0.000000000000000E+00   0.000000000000000E+00
   0.000000000000000E+00   0.000000000000000E+00   0.000000000000000E+00
   0.000000000000000E+00   0.000000000000000E+00   0.000000000000000E+00
   0.000000000000000E+00   0.000000000000000E+00   0.000000000000000E+00
   0.000000000000000E+00   0.000000000000000E+00   0.000000000000000E+00
   0.000000000000000E+00   0.000000000000000E+00   0.000000000000000E+00
   0.000000000000000E+00   0.000000000000000E+00   0.000000000000000E+00
   0.000000000000000E+00   0.000000000000000E+00   0.000000000000000E+00
   0.000000000000000E+00   0.000000000000000E+00   0.000000000000000E+00
   0.000000000000000E+00   0.000000000000000E+00   0.000000000000000E+00
   0.000000000000000E+00   0.000000000000000E+00   0.000000000000000E+00
   0.000000000000000E+00   0.000000000000000E+00   0.000000000000000E+00
   0.000000000000000E+00   0.000000000000000E+00   0.000000000000000E+00
   0.000000000000000E+00   0.000000000000000E+00   0.000000000000000E+00
   0.000000000000000E+00   0.000000000000000E+00   0.000000000000000E+00
   0.000000000000000E+00   0.000000000000000E+00   0.000000000000000E+00
   0.000000000000000E+00   0.000000000000000E+00   0.000000000000000E+00
   0.000000000000000E+00   0.000000000000000E+00   0.000000000000000E+00
   0.000000000000000E+00   0.000000000000000E+00   0.000000000000000E+00
   0.000000000000000E+00   0.000000000000000E+00   0.000000000000000E+00
   0.000000000000000E+00   0.000000000000000E+00   0.000000000000000E+00
   0.000000000000000E+00   0.000000000000000E+00   0.000000000000000E+00
   0.000000000000000E+00   0.000000000000000E+00   0.000000000000000E+00
   0.000000000000000E+00   0.000000000000000E+00   0.000000000000000E+00
   0.000000000000000E+00   0.000000000000000E+00   0.000000000000000E+00
   0.000000000000000E+00   0.000000000000000E+00   0.000000000000000E+00
   0.000000000000000E+00   0.000000000000000E+00   0.000000000000000E+00
   0.000000000000000E+00   0.000000000000000E+00   0.000000000000000E+00
   0.000000000000000E+00   0.000000000000000E+00   0.000000000000000E+00
   0.000000000000000E+00   0.000000000000000E+00   0.000000000000000E+00
   0.000000000000000E+00   0.000000000000000E+00   0.000000000000000E+00
   0.000000000000000E+00   0.000000000000000E+00   0.000000000000000E+00
   0.000000000000000E+00   0.000000000000000E+00   0.000000000000000E+00
   0.000000000000000E+00   0.000000000000000E+00   0.000000000000000E+00
   0.000000000000000E+00   0.000000000000000E+00   0.000000000000000E+00
   0.000000000000000E+00   0.000000000000000E+00   0.000000000000000E+00
   0.000000000000000E+00   0.000000000000000E+00   0.000000000000000E+00
   0.000000000000000E+00   0.000000000000000E+00   0.000000000000000E+00
   0.000000000000000E+00   0.000000000000000E+00   0.000000000000000E+00
   0.000000000000000E+00   0.000000000000000E+00   0.000000000000000E+00
   0.000000000000000E+00   0.000000000000000E+00   0.000000000000000E+00
   0.000000000000000E+00   0.000000000000000E+00   0.000000000000000E+00
   0.000000000000000E+00   0.000000000000000E+00   0.000000000000000E+00
   0.000000000000000E+00   0.000000000000000E+00   0.000000000000000E+00
   0.000000000000000E+00   0.000000000000000E+00   0.000000000000000E+00
   0.000000000000000E+00   0.000000000000000E+00   0.000000000000000E+00
   0.000000000000000E+00   0.000000000000000E+00   0.000000000000000E+00
   0.000000000000000E+00   0.000000000000000E+00   0.000000000000000E+00
   0.000000000000000E+00   0.000000000000000E+00   0.000000000000000E+00
   0.000000000000000E+00   0.000000000000000E+00   0.000000000000000E+00
   0.000000000000000E+00   0.000000000000000E+00   0.000000000000000E+00
   0.000000000000000E+00   0.000000000000000E+00   0.000000000000000E+00
   0.000000000000000E+00   0.000000000000000E+00   0.000000000000000E+00
   0.000000000000000E+00   0.000000000000000E+00   0.000000000000000E+00
   0.000000000000000E+00   0.000000000000000E+00   0.000000000000000E+00
   0.000000000000000E+00   0.000000000000000E+00   0.000000000000000E+00
   0.000000000000000E+00   0.000000000000000E+00   0.000000000000000E+00
   0.000000000000000E+00   0.000000000000000E+00   0.000000000000000E+00
   0.000000000000000E+00   0.000000000000000E+00   0.000000000000000E+00
   0.000000000000000E+00   0.000000000000000E+00   0.000000000000000E+00
   0.000000000000000E+00   0.000000000000000E+00   0.000000000000000E+00
   0.000000000000000E+00   0.000000000000000E+00   0.000000000000000E+00
   0.000000000000000E+00   0.000000000000000E+00   0.000000000000000E+00
   0.000000000000000E+00   0.000000000000000E+00   0.000000000000000E+00
   0.000000000000000E+00   0.000000000000000E+00   0.000000000000000E+00
   0.000000000000000E+00   0.000000000000000E+00   0.000000000000000E+00
   0.000000000000000E+00   0.000000000000000E+00   0.000000000000000E+00
   0.000000000000000E+00   0.000000000000000E+00   0.000000000000000E+00
   0.000000000000000E+00   0.000000000000000E+00   0.000000000000000E+00
   0.000000000000000E+00   0.000000000000000E+00   0.000000000000000E+00
   0.000000000000000E+00   0.000000000000000E+00   0.000000000000000E+00
   0.000000000000000E+00   0.000000000000000E+00   0.000000000000000E+00
   0.000000000000000E+00   0.000000000000000E+00   0.000000000000000E+00
   0.000000000000000E+00   0.000000000000000E+00
      </PP_QIJL.3.4.2>
      <PP_QIJL.4.4.0 first_index="4" second_index="4" composite_index="10" angular_momentum="0" size="1073">
   4.992001620653348E-09   5.118374765943447E-09   5.247947063796606E-09
   5.380799501204945E-09   5.517015115359132E-09   5.656679045549493E-09
   5.799878586381128E-09   5.946703242336134E-09   6.097244783717054E-09
   6.251597304006660E-09   6.409857278679660E-09   6.572123625503352E-09
   6.738497766364798E-09   6.909083690663104E-09   7.083988020306616E-09
   7.263320076355394E-09   7.447191947350854E-09   7.635718559375197E-09
   7.829017747884362E-09   8.027210331359544E-09   8.230420186823102E-09
   8.438774327266285E-09   8.652402981036998E-09   8.871439673237357E-09
   9.096021309181860E-09   9.326288259968172E-09   9.562384450214411E-09
   9.804457448017358E-09   1.005265855718806E-08   1.030714291182243E-08
   1.056806957326589E-08   1.083560162953271E-08   1.110990629724231E-08
   1.139115502613592E-08   1.167952360623932E-08   1.197519227773834E-08
   1.227834584363588E-08   1.258917378526105E-08   1.290787038070226E-08
   1.323463482623878E-08   1.356967136084602E-08   1.391318939385309E-08
   1.426540363583188E-08   1.462653423279964E-08   1.499680690381924E-08
   1.537645308208234E-08   1.576571005956469E-08   1.616482113534314E-08
   1.657403576766749E-08   1.699360972988217E-08   1.742380527029494E-08
   1.786489127609307E-08   1.831714344140899E-08   1.878084443964055E-08
   1.925628410013397E-08   1.974375958933923E-08   2.024357559655185E-08
   2.075604452435669E-08   2.128148668389304E-08   2.182023049506302E-08
   2.237261269180816E-08   2.293897853258301E-08   2.351968201615685E-08
   2.411508610287870E-08   2.472556294154380E-08   2.535149410200327E-08
   2.599327081366264E-08   2.665129421001811E-08   2.732597557938334E-08
   2.801773662196397E-08   2.872700971343960E-08   2.945423817521920E-08
   3.019987655153790E-08   3.096439089356882E-08   3.174825905072781E-08
   3.255197096935216E-08   3.337602899894124E-08   3.422094820614984E-08
   3.508725669673027E-08   3.597549594562542E-08   3.688622113541762E-08
   3.782000150334635E-08   3.877742069711101E-08   3.975907713968093E-08
   4.076558440334167E-08   4.179757159320976E-08   4.285568374045743E-08
   4.394058220549218E-08   4.505294509134286E-08   4.619346766751219E-08
   4.736286280455836E-08   4.856186141967980E-08   4.979121293358008E-08
   5.105168573889902E-08   5.234406768050317E-08   5.366916654793487E-08
   5.502781058032938E-08   5.642084898411404E-08   5.784915246381408E-08
   5.931361376629724E-08   6.081514823879570E-08   6.235469440105640E-08
   6.393321453197590E-08   6.555169527108705E-08   6.721114823527386E-08
   6.891261065109869E-08   7.065714600313921E-08   7.244584469873852E-08
   7.427982474958538E-08   7.616023247055000E-08   7.808824319621178E-08
   8.006506201552839E-08   8.209192452510420E-08   8.417009760152946E-08
   8.630088019327411E-08   8.848560413262827E-08   9.072563496820102E-08
   9.302237281849533E-08   9.537725324709305E-08   9.779174815999888E-08
   1.002673667257012E-07   1.028056563185288E-07   1.054082034858898E-07
   1.080766349400005E-07   1.108126185747227E-07   1.136178645081436E-07
   1.164941261515546E-07   1.194432013054931E-07   1.224669332835351E-07
   1.255672120645403E-07   1.287459754740698E-07   1.320052103957168E-07
   1.353469540131053E-07   1.387732950833358E-07   1.422863752426737E-07
   1.458883903452943E-07   1.495815918359253E-07   1.533682881572441E-07
   1.572508461929068E-07   1.612316927471176E-07   1.653133160616560E-07
   1.694982673713183E-07   1.737891624987397E-07   1.781886834895986E-07
   1.826995802892248E-07   1.873246724616572E-07   1.920668509522301E-07
   1.969290798947897E-07   2.019143984646678E-07   2.070259227785767E-07
   2.122668478426079E-07   2.176404495495584E-07   2.231500867268303E-07
   2.287992032361854E-07   2.345913301266702E-07   2.405300878420534E-07
   2.466191884841616E-07   2.528624381335263E-07   2.592637392287937E-07
   2.658270930063888E-07   2.725566020019526E-07   2.794564726151274E-07
   2.865310177392870E-07   2.937846594578579E-07   3.012219318089261E-07
   3.088474836198411E-07   3.166660814136167E-07   3.246826123889214E-07
   3.329020874755382E-07   3.413296444672043E-07   3.499705512337799E-07
   3.588302090147764E-07   3.679141557962791E-07   3.772280697734015E-07
   3.867777729004262E-07   3.965692345308444E-07   4.066085751496038E-07
   4.169020701998577E-07   4.274561540066467E-07   4.382774237999535E-07
   4.493726438396382E-07   4.607487496448660E-07   4.724128523306386E-07
   4.843722430541736E-07   4.966343975738981E-07   5.092069809239113E-07
   5.220978522068604E-07   5.353150695082004E-07   5.488668949349399E-07
   5.627617997820214E-07   5.770084698295549E-07   5.916158107742559E-07
   6.065929537984465E-07   6.219492612801420E-07   6.376943326477885E-07
   6.538380103832953E-07   6.703903861771732E-07   6.873618072395738E-07
   7.047628827712262E-07   7.226044905983181E-07   7.408977839754410E-07
   7.596541985609334E-07   7.788854595689074E-07   7.986035891025089E-07
   8.188209136729762E-07   8.395500719091901E-07   8.608040224626078E-07
   8.825960521124594E-07   9.049397840763402E-07   9.278491865314011E-07
   9.513385813514364E-07   9.754226530654256E-07   1.000116458043054E-06
   1.025435433913046E-06   1.051395409220179E-06   1.078012613327029E-06
   1.105303686566704E-06   1.133285690652861E-06   1.161976119353599E-06
   1.191392909435908E-06   1.221554451887493E-06   1.252479603423115E-06
   1.284187698282547E-06   1.316698560327647E-06   1.350032515446102E-06
   1.384210404269594E-06   1.419253595214473E-06   1.455183997852989E-06
   1.492024076623591E-06   1.529796864888862E-06   1.568525979349879E-06
   1.608235634826149E-06   1.648950659410286E-06   1.690696510007050E-06
   1.733499288266479E-06   1.777385756921068E-06   1.822383356537394E-06
   1.868520222692571E-06   1.915825203586441E-06   1.964327878100539E-06
   2.014058574315139E-06   2.065048388496168E-06   2.117329204563738E-06
   2.170933714054717E-06   2.225895436591814E-06   2.282248740872070E-06
   2.340028866187992E-06   2.399271944494857E-06   2.460015023038087E-06
   2.522296087554972E-06   2.586154086065317E-06   2.651628953266023E-06
   2.718761635545005E-06   2.787594116630141E-06   2.858169443889526E-06
   2.930531755299507E-06   3.004726307097609E-06   3.080799502137713E-06
   3.158798918965453E-06   3.238773341632151E-06   3.320772790266087E-06
   3.404848552420479E-06   3.491053215217902E-06   3.579440698311517E-06
   3.670066287683916E-06   3.762986670304935E-06   3.858259969670393E-06
   3.955945782244202E-06   4.056105214826920E-06   4.158800922874437E-06
   4.264097149790965E-06   4.372059767221335E-06   4.482756316368016E-06
   4.596256050359141E-06   4.712629977694350E-06   4.831950906795991E-06
   4.954293491694008E-06   5.079734278873436E-06   5.208351755314309E-06
   5.340226397754492E-06   5.475440723206670E-06   5.614079340761736E-06
   5.756229004711396E-06   5.901978669023867E-06   6.051419543207351E-06
   6.204645149596776E-06   6.361751382100453E-06   6.522836566443890E-06
   6.688001521949420E-06   6.857349624890866E-06   7.030986873463774E-06
   7.209021954412760E-06   7.391566311358405E-06   7.578734214867542E-06
   7.770642834311710E-06   7.967412311559691E-06   8.169165836551505E-06
   8.376029724802100E-06   8.588133496884636E-06   8.805609959944225E-06
   9.028595291294498E-06   9.257229124150831E-06   9.491654635555129E-06
   9.732018636548997E-06   9.978471664653205E-06   1.023116807871301E-05
   1.049026615617069E-05   1.075592819282779E-05   1.102832060516178E-05
   1.130761403526307E-05   1.159398345846036E-05   1.188760829370402E-05
   1.218867251677888E-05   1.249736477642006E-05   1.281387851340717E-05
   1.313841208271404E-05   1.347116887879382E-05   1.381235746408063E-05
   1.416219170079168E-05   1.452089088611593E-05   1.488867989087732E-05
   1.526578930176335E-05   1.565245556721213E-05   1.604892114705332E-05
   1.645543466600128E-05   1.687225107110114E-05   1.729963179323096E-05
   1.773784491276707E-05   1.818716532952090E-05   1.864787493705989E-05
   1.912026280152779E-05   1.960462534508193E-05   2.010126653406996E-05
   2.061049807207010E-05   2.113263959792349E-05   2.166801888889049E-05
   2.221697206906568E-05   2.277984382319153E-05   2.335698761601283E-05
   2.394876591731915E-05   2.455555043282616E-05   2.517772234105035E-05
   2.581567253633739E-05   2.646980187820703E-05   2.714052144718329E-05
   2.782825280728303E-05   2.853342827533994E-05   2.925649119734788E-05
   2.999789623201073E-05   3.075810964169180E-05   3.153760959096237E-05
   3.233688645295214E-05   3.315644312371287E-05   3.399679534481069E-05
   3.485847203436882E-05   3.574201562678964E-05   3.664798242139044E-05
   3.757694294019510E-05   3.852948229512985E-05   3.950620056487854E-05
   4.050771318166147E-05   4.153465132820689E-05   4.258766234519512E-05
   4.366741014946101E-05   4.477457566324972E-05   4.590985725482995E-05
   4.707397119077559E-05   4.826765210023907E-05   4.949165345154617E-05
   5.074674804145337E-05   5.203372849741916E-05   5.335340779324918E-05
   5.470661977848886E-05   5.609421972194520E-05   5.751708486973326E-05
   5.897611501825371E-05   6.047223310251838E-05   6.200638580025774E-05
   6.357954415225290E-05   6.519270419934972E-05   6.684688763662878E-05
   6.854314248521415E-05   7.028254378222558E-05   7.206619428938800E-05
   7.389522522083217E-05   7.577079699063464E-05   7.769409998066393E-05
   7.966635532931468E-05   8.168881574173425E-05   8.376276632216001E-05
   8.588952542900931E-05   8.807044555338203E-05   9.030691422165582E-05
   9.260035492287955E-05   9.495222806168860E-05   9.736403193749067E-05
   9.983730375069675E-05   1.023736206367911E-04   1.049746007290676E-04
   1.076419042508803E-04   1.103772346382859E-04   1.131823396939862E-04
   1.160590127735028E-04   1.190090940045566E-04   1.220344715406447E-04
   1.251370828498511E-04   1.283189160399551E-04   1.315820112209385E-04
   1.349284619060301E-04   1.383604164524667E-04   1.418800795431817E-04
   1.454897137106833E-04   1.491916409044173E-04   1.529882441029626E-04
   1.568819689724459E-04   1.608753255726142E-04   1.649708901120516E-04
   1.691713067540751E-04   1.734792894749045E-04   1.778976239757484E-04
   1.824291696505091E-04   1.870768616108727E-04   1.918437127705989E-04
   1.967328159909088E-04   2.017473462889149E-04   2.068905631111211E-04
   2.121658126740861E-04   2.175765303744119E-04   2.231262432703124E-04
   2.288185726370776E-04   2.346572365988449E-04   2.406460528391725E-04
   2.467889413929924E-04   2.530899275226239E-04   2.595531446806176E-04
   2.661828375622997E-04   2.729833652509980E-04   2.799592044590219E-04
   2.871149528676048E-04   2.944553325691108E-04   3.019851936149389E-04
   3.097095176726858E-04   3.176334217962450E-04   3.257621623126728E-04
   3.341011388297752E-04   3.426558983685243E-04   3.514321396245619E-04
   3.604357173631950E-04   3.696726469524695E-04   3.791491090390543E-04
   3.888714543718557E-04   3.988462087784639E-04   4.090800782997035E-04
   4.195799544877804E-04   4.303529198736988E-04   4.414062536098326E-04
   4.527474372937676E-04   4.643841609797240E-04   4.763243293841408E-04
   4.885760682922056E-04   5.011477311723871E-04   5.140479060062767E-04
   5.272854223412988E-04   5.408693585741560E-04   5.548090494731264E-04
   5.691140939476426E-04   5.837943630738888E-04   5.988600083854391E-04
   6.143214704383330E-04   6.301894876602671E-04   6.464751054939562E-04
   6.631896858450761E-04   6.803449168455303E-04   6.979528229432204E-04
   7.160257753298254E-04   7.345765027185396E-04   7.536181024841112E-04
   7.731640521779334E-04   7.932282214314066E-04   8.138248842612043E-04
   8.349687317905337E-04   8.566748854009730E-04   8.789589103298939E-04
   9.018368297290275E-04   9.253251392001732E-04   9.494408218245847E-04
   9.742013637030829E-04   9.996247700244359E-04   1.025729581680134E-03
   1.052534892444167E-03   1.080060366736994E-03   1.108326257993427E-03
   1.137353427654687E-03   1.167163364805488E-03   1.197778206477509E-03
   1.229220758641204E-03   1.261514517908422E-03   1.294683693968863E-03
   1.328753232783954E-03   1.363748840562208E-03   1.399697008540681E-03
   1.436625038597635E-03   1.474561069721932E-03   1.513534105365230E-03
   1.553574041703402E-03   1.594711696833976E-03   1.636978840936835E-03
   1.680408227425560E-03   1.725033625117247E-03   1.770889851448641E-03
   1.818012806766666E-03   1.866439509721469E-03   1.916208133790001E-03
   1.967358044958148E-03   2.019929840589092E-03   2.073965389505317E-03
   2.129507873311194E-03   2.186601828982412E-03   2.245293192747893E-03
   2.305629345288787E-03   2.367659158278065E-03   2.431433042282947E-03
   2.497002996050802E-03   2.564422657197423E-03   2.633747354314523E-03
   2.705034160510922E-03   2.778341948399308E-03   2.853731446537349E-03
   2.931265297328723E-03   3.011008116385689E-03   3.093026553350765E-03
   3.177389354170248E-03   3.264167424807236E-03   3.353433896376030E-03
   3.445264191673412E-03   3.539736093075356E-03   3.636929811760075E-03
   3.736928058209769E-03   3.839816113934447E-03   3.945681904350879E-03
   4.054616072738957E-03   4.166712055185637E-03   4.282066156413680E-03
   4.400777626378279E-03   4.522948737499279E-03   4.648684862380128E-03
   4.778094551846685E-03   4.911289613119552E-03   5.048385187912744E-03
   5.189499830228783E-03   5.334755583596031E-03   5.484278057467902E-03
   5.638196502475386E-03   5.796643884194307E-03   5.959756955056274E-03
   6.127676323997631E-03   6.300546523403904E-03   6.478516072867293E-03
   6.661737539233093E-03   6.850367592365491E-03   7.044567056015595E-03
   7.244500953123676E-03   7.450338544833344E-03   7.662253362438561E-03
   7.880423231423270E-03   8.105030286689623E-03   8.336260978002982E-03
   8.574306064610210E-03   8.819360597913170E-03   9.071623890999681E-03
   9.331299473751647E-03   9.598595032163213E-03   9.873722330410586E-03
   1.015689711412109E-02   1.044833899318962E-02   1.074827130238861E-02
   1.105692093791129E-02   1.137451816787790E-02   1.170129641472180E-02
   1.203749200725574E-02   1.238334390009939E-02   1.273909335802800E-02
   1.310498360267793E-02   1.348125941892083E-02   1.386816671809133E-02
   1.426595205512857E-02   1.467486209656626E-02   1.509514303618293E-02
   1.552703995500474E-02   1.597079612223643E-02   1.642665223358626E-02
   1.689484558334827E-02   1.737560916651039E-02   1.786917070707587E-02
   1.837575160871472E-02   1.889556582380933E-02   1.942881863692359E-02
   1.997570535871073E-02   2.053640992628821E-02   2.111110340614662E-02
   2.169994239573290E-02   2.230306731995714E-02   2.292060061902193E-02
   2.355264482417092E-02   2.419928051819991E-02   2.486056417787965E-02
   2.553652589580773E-02   2.622716697964416E-02   2.693245742720137E-02
   2.765233327645529E-02   2.838669383023483E-02   2.913539875613498E-02
   2.989826506309281E-02   3.067506395707844E-02   3.146551757948538E-02
   3.226929563307283E-02   3.308601190172136E-02   3.391522067181960E-02
   3.475641306481873E-02   3.560901329237145E-02   3.647237484753010E-02
   3.734577664771504E-02   3.822841914758759E-02   3.911942044257750E-02
   4.001781238662358E-02   4.092253675069186E-02   4.183244145183744E-02
   4.274627688596822E-02   4.366269240105156E-02   4.458023295125894E-02
   4.549733597646664E-02   4.641232855559541E-02   4.732342488646069E-02
   4.822872414908792E-02   4.912620881378686E-02   5.001374345963477E-02
   5.088907417333891E-02   5.174982860267386E-02   5.259351674275255E-02
   5.341753253720640E-02   5.421915637983574E-02   5.499555860533905E-02
   5.574380406022177E-02   5.646085784680295E-02   5.714359233422055E-02
   5.778879553034589E-02   5.839318090736866E-02   5.895339877132186E-02
   5.946604926178770E-02   5.992769706223253E-02   6.033488789364787E-02
   6.068416685417573E-02   6.097209865492513E-02   6.119528978699321E-02
   6.135041263652085E-02   6.143423154319315E-02   6.144363077268170E-02
   6.137564434488554E-02   6.122748762724144E-02   6.099659056565338E-02
   6.068063238458866E-02   6.027757754249750E-02   5.978571267890814E-02
   5.920368423535838E-02   5.853053637389449E-02   5.776574875443336E-02
   5.690927366622447E-02   5.596157193949380E-02   5.492364699178377E-02
   5.379707629043524E-02   5.258403943917110E-02   5.128734202419925E-02
   4.991043428525817E-02   4.845742361145169E-02   4.693307980277498E-02
   4.534283198838382E-02   4.369275605474285E-02   4.198955141394993E-02
   4.024050593819857E-02   3.845344790431945E-02   3.663668383661128E-02
   3.479892121102933E-02   3.294917509366706E-02   3.109665793582678E-02
   2.925065194137873E-02   2.742036366384971E-02   2.561476078484379E-02
   2.384239137553751E-02   2.211118635192840E-02   2.042824630419440E-02
   1.879961441154574E-02   1.723003774545540E-02   1.572271991333527E-02
   1.427906869650895E-02   1.289844308304812E-02   1.157790487691890E-02
   1.031393898675892E-02   9.108947978146931E-03   7.966714246487039E-03
   6.890597647867536E-03   5.883490684044423E-03   4.947776422810135E-03
   4.085289892387434E-03   3.297283725809563E-03   2.584398860842607E-03
   1.946641121144843E-03   1.383364513547758E-03   8.932620730772722E-04
   4.743650702844215E-04   1.240513634704898E-04  -1.609363695176946E-04
  -3.844618498166641E-04  -5.509552780960658E-04  -6.653617881139939E-04
  -7.330779012167943E-04  -7.598757441590331E-04  -7.518149444309397E-04
  -7.151422861323975E-04  -6.561793950893846E-04  -5.811989243276749E-04
  -4.962899303365131E-04  -4.072133674358214E-04  -3.192488832380880E-04
  -2.370343746526116E-04  -1.644000640345089E-04  -1.041991828976685E-04
  -5.813771108870158E-05  -2.660601865175916E-05  -8.515702741074271E-06
  -1.145410645775335E-06   8.326672684688674E-17   0.000000000000000E+00
   0.000000000000000E+00   0.000000000000000E+00   0.000000000000000E+00
   0.000000000000000E+00   0.000000000000000E+00   0.000000000000000E+00
   0.000000000000000E+00   0.000000000000000E+00   0.000000000000000E+00
   0.000000000000000E+00   0.000000000000000E+00   0.000000000000000E+00
   0.000000000000000E+00   0.000000000000000E+00   0.000000000000000E+00
   0.000000000000000E+00   0.000000000000000E+00   0.000000000000000E+00
   0.000000000000000E+00   0.000000000000000E+00   0.000000000000000E+00
   0.000000000000000E+00   0.000000000000000E+00   0.000000000000000E+00
   0.000000000000000E+00   0.000000000000000E+00   0.000000000000000E+00
   0.000000000000000E+00   0.000000000000000E+00   0.000000000000000E+00
   0.000000000000000E+00   0.000000000000000E+00   0.000000000000000E+00
   0.000000000000000E+00   0.000000000000000E+00   0.000000000000000E+00
   0.000000000000000E+00   0.000000000000000E+00   0.000000000000000E+00
   0.000000000000000E+00   0.000000000000000E+00   0.000000000000000E+00
   0.000000000000000E+00   0.000000000000000E+00   0.000000000000000E+00
   0.000000000000000E+00   0.000000000000000E+00   0.000000000000000E+00
   0.000000000000000E+00   0.000000000000000E+00   0.000000000000000E+00
   0.000000000000000E+00   0.000000000000000E+00   0.000000000000000E+00
   0.000000000000000E+00   0.000000000000000E+00   0.000000000000000E+00
   0.000000000000000E+00   0.000000000000000E+00   0.000000000000000E+00
   0.000000000000000E+00   0.000000000000000E+00   0.000000000000000E+00
   0.000000000000000E+00   0.000000000000000E+00   0.000000000000000E+00
   0.000000000000000E+00   0.000000000000000E+00   0.000000000000000E+00
   0.000000000000000E+00   0.000000000000000E+00   0.000000000000000E+00
   0.000000000000000E+00   0.000000000000000E+00   0.000000000000000E+00
   0.000000000000000E+00   0.000000000000000E+00   0.000000000000000E+00
   0.000000000000000E+00   0.000000000000000E+00   0.000000000000000E+00
   0.000000000000000E+00   0.000000000000000E+00   0.000000000000000E+00
   0.000000000000000E+00   0.000000000000000E+00   0.000000000000000E+00
   0.000000000000000E+00   0.000000000000000E+00   0.000000000000000E+00
   0.000000000000000E+00   0.000000000000000E+00   0.000000000000000E+00
   0.000000000000000E+00   0.000000000000000E+00   0.000000000000000E+00
   0.000000000000000E+00   0.000000000000000E+00   0.000000000000000E+00
   0.000000000000000E+00   0.000000000000000E+00   0.000000000000000E+00
   0.000000000000000E+00   0.000000000000000E+00   0.000000000000000E+00
   0.000000000000000E+00   0.000000000000000E+00   0.000000000000000E+00
   0.000000000000000E+00   0.000000000000000E+00   0.000000000000000E+00
   0.000000000000000E+00   0.000000000000000E+00   0.000000000000000E+00
   0.000000000000000E+00   0.000000000000000E+00   0.000000000000000E+00
   0.000000000000000E+00   0.000000000000000E+00   0.000000000000000E+00
   0.000000000000000E+00   0.000000000000000E+00   0.000000000000000E+00
   0.000000000000000E+00   0.000000000000000E+00   0.000000000000000E+00
   0.000000000000000E+00   0.000000000000000E+00   0.000000000000000E+00
   0.000000000000000E+00   0.000000000000000E+00   0.000000000000000E+00
   0.000000000000000E+00   0.000000000000000E+00   0.000000000000000E+00
   0.000000000000000E+00   0.000000000000000E+00   0.000000000000000E+00
   0.000000000000000E+00   0.000000000000000E+00   0.000000000000000E+00
   0.000000000000000E+00   0.000000000000000E+00   0.000000000000000E+00
   0.000000000000000E+00   0.000000000000000E+00   0.000000000000000E+00
   0.000000000000000E+00   0.000000000000000E+00   0.000000000000000E+00
   0.000000000000000E+00   0.000000000000000E+00   0.000000000000000E+00
   0.000000000000000E+00   0.000000000000000E+00   0.000000000000000E+00
   0.000000000000000E+00   0.000000000000000E+00   0.000000000000000E+00
   0.000000000000000E+00   0.000000000000000E+00   0.000000000000000E+00
   0.000000000000000E+00   0.000000000000000E+00   0.000000000000000E+00
   0.000000000000000E+00   0.000000000000000E+00   0.000000000000000E+00
   0.000000000000000E+00   0.000000000000000E+00   0.000000000000000E+00
   0.000000000000000E+00   0.000000000000000E+00   0.000000000000000E+00
   0.000000000000000E+00   0.000000000000000E+00   0.000000000000000E+00
   0.000000000000000E+00   0.000000000000000E+00   0.000000000000000E+00
   0.000000000000000E+00   0.000000000000000E+00   0.000000000000000E+00
   0.000000000000000E+00   0.000000000000000E+00   0.000000000000000E+00
   0.000000000000000E+00   0.000000000000000E+00   0.000000000000000E+00
   0.000000000000000E+00   0.000000000000000E+00   0.000000000000000E+00
   0.000000000000000E+00   0.000000000000000E+00   0.000000000000000E+00
   0.000000000000000E+00   0.000000000000000E+00   0.000000000000000E+00
   0.000000000000000E+00   0.000000000000000E+00   0.000000000000000E+00
   0.000000000000000E+00   0.000000000000000E+00   0.000000000000000E+00
   0.000000000000000E+00   0.000000000000000E+00   0.000000000000000E+00
   0.000000000000000E+00   0.000000000000000E+00   0.000000000000000E+00
   0.000000000000000E+00   0.000000000000000E+00   0.000000000000000E+00
   0.000000000000000E+00   0.000000000000000E+00   0.000000000000000E+00
   0.000000000000000E+00   0.000000000000000E+00   0.000000000000000E+00
   0.000000000000000E+00   0.000000000000000E+00   0.000000000000000E+00
   0.000000000000000E+00   0.000000000000000E+00   0.000000000000000E+00
   0.000000000000000E+00   0.000000000000000E+00   0.000000000000000E+00
   0.000000000000000E+00   0.000000000000000E+00   0.000000000000000E+00
   0.000000000000000E+00   0.000000000000000E+00   0.000000000000000E+00
   0.000000000000000E+00   0.000000000000000E+00   0.000000000000000E+00
   0.000000000000000E+00   0.000000000000000E+00   0.000000000000000E+00
   0.000000000000000E+00   0.000000000000000E+00   0.000000000000000E+00
   0.000000000000000E+00   0.000000000000000E+00   0.000000000000000E+00
   0.000000000000000E+00   0.000000000000000E+00   0.000000000000000E+00
   0.000000000000000E+00   0.000000000000000E+00   0.000000000000000E+00
   0.000000000000000E+00   0.000000000000000E+00   0.000000000000000E+00
   0.000000000000000E+00   0.000000000000000E+00   0.000000000000000E+00
   0.000000000000000E+00   0.000000000000000E+00   0.000000000000000E+00
   0.000000000000000E+00   0.000000000000000E+00   0.000000000000000E+00
   0.000000000000000E+00   0.000000000000000E+00   0.000000000000000E+00
   0.000000000000000E+00   0.000000000000000E+00   0.000000000000000E+00
   0.000000000000000E+00   0.000000000000000E+00   0.000000000000000E+00
   0.000000000000000E+00   0.000000000000000E+00   0.000000000000000E+00
   0.000000000000000E+00   0.000000000000000E+00   0.000000000000000E+00
   0.000000000000000E+00   0.000000000000000E+00   0.000000000000000E+00
   0.000000000000000E+00   0.000000000000000E+00   0.000000000000000E+00
   0.000000000000000E+00   0.000000000000000E+00   0.000000000000000E+00
   0.000000000000000E+00   0.000000000000000E+00   0.000000000000000E+00
   0.000000000000000E+00   0.000000000000000E+00   0.000000000000000E+00
   0.000000000000000E+00   0.000000000000000E+00   0.000000000000000E+00
   0.000000000000000E+00   0.000000000000000E+00   0.000000000000000E+00
   0.000000000000000E+00   0.000000000000000E+00   0.000000000000000E+00
   0.000000000000000E+00   0.000000000000000E+00   0.000000000000000E+00
   0.000000000000000E+00   0.000000000000000E+00   0.000000000000000E+00
   0.000000000000000E+00   0.000000000000000E+00   0.000000000000000E+00
   0.000000000000000E+00   0.000000000000000E+00   0.000000000000000E+00
   0.000000000000000E+00   0.000000000000000E+00   0.000000000000000E+00
   0.000000000000000E+00   0.000000000000000E+00   0.000000000000000E+00
   0.000000000000000E+00   0.000000000000000E+00   0.000000000000000E+00
   0.000000000000000E+00   0.000000000000000E+00   0.000000000000000E+00
   0.000000000000000E+00   0.000000000000000E+00   0.000000000000000E+00
   0.000000000000000E+00   0.000000000000000E+00   0.000000000000000E+00
   0.000000000000000E+00   0.000000000000000E+00   0.000000000000000E+00
   0.000000000000000E+00   0.000000000000000E+00   0.000000000000000E+00
   0.000000000000000E+00   0.000000000000000E+00
      </PP_QIJL.4.4.0>
      <PP_QIJL.4.4.2 first_index="4" second_index="4" composite_index="10" angular_momentum="2" size="1073">
   2.044180115995148E-15   2.148987464845244E-15   2.259168400842759E-15
   2.374998433650427E-15   2.496767198610224E-15   2.624779180982129E-15
   2.759354477315458E-15   2.900829595856480E-15   3.049558297993787E-15
   3.205912482845518E-15   3.370283117200214E-15   3.543081213136803E-15
   3.724738855768213E-15   3.915710283678419E-15   4.116473024754781E-15
   4.327529090255523E-15   4.549406230098476E-15   4.782659252509758E-15
   5.027871411332181E-15   5.285655864462595E-15   5.556657207064608E-15
   5.841553083390966E-15   6.141055881245638E-15   6.455914513322818E-15
   6.786916289877100E-15   7.134888887407213E-15   7.500702418276532E-15
   7.885271606444999E-15   8.289558074753143E-15   8.714572749477703E-15
   9.161378388171024E-15   9.631092237105729E-15   1.012488882496918E-14
   1.064400289979358E-14   1.118973251646576E-14   1.176344228253634E-14
   1.236656677044537E-14   1.300061410469608E-14   1.366716973294669E-14
   1.436790039045041E-14   1.510455826775561E-14   1.587898539208904E-14
   1.669311823337668E-14   1.754899254641998E-14   1.844874846133589E-14
   1.939463583498819E-14   2.038901987679291E-14   2.143438706296410E-14
   2.253335135398920E-14   2.368866073088084E-14   2.490320406654823E-14
   2.618001834947157E-14   2.752229627774101E-14   2.893339424244975E-14
   3.041684072040415E-14   3.197634509713551E-14   3.361580694227761E-14
   3.533932576050143E-14   3.715121124239021E-14   3.905599404088750E-14
   4.105843710026316E-14   4.316354756592803E-14   4.537658930487579E-14
   4.770309606806016E-14   5.014888532762088E-14   5.272007282355635E-14
   5.542308785621963E-14   5.826468936287510E-14   6.125198281851532E-14
   6.439243800320054E-14   6.769390768034449E-14   7.116464723265562E-14
   7.481333530483139E-14   7.864909550462214E-14   8.268151921653161E-14
   8.692068958519336E-14   9.137720672840123E-14   9.606221424283351E-14
   1.009874270687505E-13   1.061651607833425E-13   1.116083623959713E-13
   1.173306427223157E-13   1.233463104183673E-13   1.296704077593794E-13
   1.363187482532386E-13   1.433079561823021E-13   1.506555081725851E-13
   1.583797768942363E-13   1.665000770025731E-13   1.750367134345596E-13
   1.840110321814792E-13   1.934454736647734E-13   2.033636288485023E-13
   2.137902982287390E-13   2.247515538474046E-13   2.362748044855965E-13
   2.483888641994415E-13   2.611240243698349E-13   2.745121294462296E-13
   2.885866565738747E-13   3.033827993035991E-13   3.189375555934716E-13
   3.352898203223704E-13   3.524804825467995E-13   3.705525277441398E-13
   3.895511452979814E-13   4.095238414943216E-13   4.305205583111583E-13
   4.525937982985149E-13   4.757987558611604E-13   5.001934552722812E-13
   5.258388957632226E-13   5.527992040520789E-13   5.811417946925336E-13
   6.109375386438999E-13   6.422609404838480E-13   6.751903247069602E-13
   7.098080315749350E-13   7.462006230081503E-13   7.844590990334315E-13
   8.246791253292126E-13   8.669612724370959E-13   9.114112672379193E-13
   9.581402573211582E-13   1.007265088908703E-12   1.058908599027919E-12
   1.113199922664613E-12   1.170274815663875E-12   1.230275994186223E-12
   1.293353491567841E-12   1.359665033477198E-12   1.429376432306142E-12
   1.502662001781606E-12   1.579704992834628E-12   1.660698051816595E-12
   1.745843702208366E-12   1.835354851026857E-12   1.929455321195279E-12
   2.028380411208154E-12   2.132377483490608E-12   2.241706582922949E-12
   2.356641087077260E-12   2.477468389791770E-12   2.604490619792256E-12
   2.738025396157374E-12   2.878406622516793E-12   3.025985321968074E-12
   3.181130514799885E-12   3.344230141216158E-12   3.515692031368520E-12
   3.695944925122281E-12   3.885439544105955E-12   4.084649718724813E-12
   4.294073572956428E-12   4.514234769890727E-12   4.745683821128721E-12
   4.988999463314168E-12   5.244790105239799E-12   5.513695349146524E-12
   5.796387590019483E-12   6.093573696879557E-12   6.405996780274471E-12
   6.734438050388693E-12   7.079718770418003E-12   7.442702310093224E-12
   7.824296304486872E-12   8.225454923501676E-12   8.647181257714135E-12
   9.090529826539537E-12   9.556609214989401E-12   1.004658484561347E-11
   1.056168189255842E-11   1.110318834502761E-11   1.167245822780299E-11
   1.227091498688063E-11   1.290005504868485E-11   1.356145156176120E-11
   1.425675833030182E-11   1.498771394933973E-11   1.575614615195051E-11
   1.656397637932991E-11   1.741322458517568E-11   1.830601428638337E-11
   1.924457787268620E-11   2.023126218851355E-11   2.126853440102309E-11
   2.235898816898087E-11   2.350535012790908E-11   2.471048670771900E-11
   2.597741129987342E-11   2.730929179199668E-11   2.870945848877358E-11
   3.018141243893661E-11   3.172883418916419E-11   3.335559298677447E-11
   3.506575645422151E-11   3.686360075958588E-11   3.875362130848161E-11
   4.074054398411530E-11   4.282933696359749E-11   4.502522314004568E-11
   4.733369318154191E-11   4.976051925958525E-11   5.231176948136875E-11
   5.499382306195881E-11   5.781338627430652E-11   6.077750921697397E-11
   6.389360344148568E-11   6.716946048338148E-11   7.061327134329665E-11
   7.423364696676734E-11   7.803963977397008E-11   8.204076629320810E-11
   8.624703095473506E-11   9.066895110439737E-11   9.531758329962208E-11
   1.002045509535001E-10   1.053420733960561E-10   1.107429964253691E-10
   1.164208244249099E-10   1.223897541273817E-10   1.286647101094781E-10
   1.352613821062754E-10   1.421962642385465E-10   1.494866962510567E-10
   1.571509068649142E-10   1.652080593523678E-10   1.736782994479504E-10
   1.825828057157491E-10   1.919438424987015E-10   2.017848155822591E-10
   2.121303307115836E-10   2.230062551085138E-10   2.344397821420964E-10
   2.464594993143203E-10   2.590954597309725E-10   2.723792572362934E-10
   2.863441053991853E-10   3.010249205484345E-10   3.164584090644740E-10
   3.326831591458455E-10   3.497397372797715E-10   3.676707896578847E-10
   3.865211487906396E-10   4.063379455868444E-10   4.271707271784215E-10
   4.490715807848904E-10   4.720952639271091E-10   4.962993413157193E-10
   5.217443287563918E-10   5.484938444314924E-10   5.766147679362525E-10
   6.061774074668535E-10   6.372556755782478E-10   6.699272739509142E-10
   7.042738876282520E-10   7.403813892100161E-10   7.783400535119943E-10
   8.182447832283518E-10   8.601953461604965E-10   9.042966246052108E-10
   9.506588775775682E-10   9.993980161163522E-10   1.050635893743059E-09
   1.104500610063964E-09   1.161126831855305E-09   1.220656129155533E-09
   1.283237329020442E-09   1.349026888140440E-09   1.418189283483247E-09
   1.490897422862391E-09   1.567333078378305E-09   1.647687339648388E-09
   1.732161091949860E-09   1.820965517835282E-09   1.914322625607594E-09
   2.012465803637920E-09   2.115640404034358E-09   2.224104355234288E-09
   2.338128807316551E-09   2.457998809439123E-09   2.584014021731119E-09
   2.716489464817057E-09   2.855756307003663E-09   3.002162690786612E-09
   3.156074604659404E-09   3.317876796111647E-09   3.487973733007717E-09
   3.666790619476778E-09   3.854774446727518E-09   4.052395127702044E-09
   4.260146640982119E-09   4.478548308181939E-09   4.708146054910960E-09
   4.949513790415273E-09   5.203254835441987E-09   5.470003446554906E-09
   5.750426369448771E-09   6.045224537483441E-09   6.355134799834181E-09
   6.680931770547146E-09   7.023429769362615E-09   7.383484844190920E-09
   7.761996926336406E-09   8.159912056080008E-09   8.578224758384354E-09
   9.017980532806880E-09   9.480278458507370E-09   9.966273938129239E-09
   1.047718157691291E-08   1.101427823392524E-08   1.157890620511691E-08
   1.217247656659204E-08   1.279647268865223E-08   1.345245399007314E-08
   1.414205976513458E-08   1.486701332949305E-08   1.562912629874639E-08
   1.643030311295959E-08   1.727254579838429E-08   1.815795896738527E-08
   1.908875506682122E-08   2.006725989824911E-08   2.109591843402871E-08
   2.217730092848093E-08   2.331410930048611E-08   2.450918391713345E-08
   2.576551065364113E-08   2.708622838253017E-08   2.847463673364303E-08
   2.993420443286742E-08   3.146857788315616E-08   3.308159028176110E-08
   3.477727119761556E-08   3.655985660443766E-08   3.843379946932180E-08
   4.040378087197651E-08   4.247472163434058E-08   4.465179467819807E-08
   4.694043781053849E-08   4.934636743954239E-08   5.187559267316814E-08
   5.453443042786866E-08   5.732952115148565E-08   6.026784528997660E-08
   6.335674085613099E-08   6.660392161884804E-08   7.001749632397705E-08
   7.360598898264206E-08   7.737836002514072E-08   8.134402876503784E-08
   8.551289674573765E-08   8.989537248748723E-08   9.450239741136183E-08
   9.934547309090825E-08   1.044366899547426E-07   1.097887572973441E-07
   1.154150351024657E-07   1.213295671615458E-07   1.275471161734525E-07
   1.340832003900322E-07   1.409541323912537E-07   1.481770595919786E-07
   1.557700070032891E-07   1.637519220115135E-07   1.721427216689880E-07
   1.809633421655792E-07   1.902357909172365E-07   1.999832013976331E-07
   2.102298906062018E-07   2.210014196329578E-07   2.323246571657792E-07
   2.442278463480016E-07   2.567406750196960E-07   2.698943494233436E-07
   2.837216718869612E-07   2.982571223354341E-07   3.135369438607652E-07
   3.295992329402022E-07   3.464840339201095E-07   3.642334385430331E-07
   3.828916905249667E-07   4.025052952603735E-07   4.231231354594077E-07
   4.447965922933873E-07   4.675796730004607E-07   4.915291448703719E-07
   5.167046759989537E-07   5.431689833537881E-07   5.709879881904310E-07
   6.002309795389588E-07   6.309707858599802E-07   6.632839555802976E-07
   6.972509466691044E-07   7.329563259316165E-07   7.704889783629456E-07
   8.099423272417451E-07   8.514145653039917E-07   8.950088976406387E-07
   9.408337970827797E-07   9.890032723600923E-07   1.039637149893829E-06
   1.092861370072708E-06   1.148808298306394E-06   1.207617051967270E-06
   1.269433843908663E-06   1.334412343325787E-06   1.402714055019707E-06
   1.474508717677593E-06   1.549974722453193E-06   1.629299552706559E-06
   1.712680245937346E-06   1.800323879121142E-06   1.892448078553707E-06
   1.989281555494303E-06   2.091064668780043E-06   2.198050015957638E-06
   2.310503054142300E-06   2.428702752312502E-06   2.552942276371300E-06
   2.683529708820218E-06   2.820788804718054E-06   2.965059785613208E-06
   3.116700173515035E-06   3.276085666792017E-06   3.443611060193734E-06
   3.619691210951004E-06   3.804762053596247E-06   3.999281665625661E-06
   4.203731386667708E-06   4.418616993808845E-06   4.644469935731420E-06
   4.881848628903273E-06   5.131339818395494E-06   5.393560006957022E-06
   5.669156955485153E-06   5.958811258553842E-06   6.263237998433191E-06
   6.583188481940782E-06   6.919452063583964E-06   7.272858059783544E-06
   7.644277758329761E-06   8.034626527770129E-06   8.444866031789743E-06
   8.876006553422157E-06   9.329109434770279E-06   9.805289637627662E-06
   1.030571843101925E-05   1.083162621170830E-05   1.138430546422033E-05
   1.196511386717843E-05   1.257547755289149E-05   1.321689452765131E-05
   1.389093826051989E-05   1.459926144881129E-05   1.534359996838987E-05
   1.612577701817703E-05   1.694770746770153E-05   1.781140241768411E-05
   1.871897398363171E-05   1.967264031315751E-05   2.067473084812509E-05
   2.172769184320030E-05   2.283409215281543E-05   2.399662929941887E-05
   2.521813583605352E-05   2.650158601722632E-05   2.785010279236374E-05
   2.926696513699779E-05   3.075561573736696E-05   3.231966904498527E-05
   3.396291971793058E-05   3.568935146718042E-05   3.750314632631668E-05
   3.940869436397442E-05   4.141060385966552E-05   4.351371196349154E-05
   4.572309586230042E-05   4.804408447470290E-05   5.048227069899524E-05
   5.304352423898805E-05   5.573400503299151E-05   5.856017731346938E-05
   6.152882432470753E-05   6.464706372789860E-05   6.792236372364744E-05
   7.136255992313426E-05   7.497587300066863E-05   7.877092716112398E-05
   8.275676945743521E-05   8.694288999448679E-05   9.133924305673648E-05
   9.595626919890811E-05   1.008049183397865E-04   1.058966739010559E-04
   1.112435780342263E-04   1.168582579802702E-04   1.227539536081355E-04
   1.289445461795436E-04   1.354445883893059E-04   1.422693357314145E-04
   1.494347792433422E-04   1.569576796817651E-04   1.648556031849034E-04
   1.731469584781297E-04   1.818510356806383E-04   1.909880467728451E-04
   2.005791677852389E-04   2.106465827710367E-04   2.212135296261083E-04
   2.323043478211113E-04   2.439445281116545E-04   2.561607642937472E-04
   2.689810070725363E-04   2.824345201132187E-04   2.965519383440030E-04
   3.113653285811860E-04   3.269082525471394E-04   3.432158323521768E-04
   3.603248185110188E-04   3.782736605648215E-04   3.971025803786290E-04
   4.168536481838145E-04   4.375708614336302E-04   4.593002265386597E-04
   4.820898435468243E-04   5.059899938305669E-04   5.310532308406986E-04
   5.573344739831825E-04   5.848911056712218E-04   6.137830716002407E-04
   6.440729842883290E-04   6.758262299185030E-04   7.091110785124738E-04
   7.439987974576396E-04   7.805637684009436E-04   8.188836075125502E-04
   8.590392891126893E-04   9.011152726421694E-04   9.451996329440008E-04
   9.913841938090761E-04   1.039764664722702E-03   1.090440780730663E-03
   1.143516445324621E-03   1.199099876225046E-03   1.257303753916545E-03
   1.318245372765872E-03   1.382046794524275E-03   1.448835003987332E-03
   1.518742066551891E-03   1.591905287375767E-03   1.668467371807204E-03
   1.748576586711073E-03   1.832386922274552E-03   1.920058253827888E-03
   2.011756503165401E-03   2.107653798797430E-03   2.207928634505851E-03
   2.312766025513828E-03   2.422357661514135E-03   2.536902055729540E-03
   2.656604689104137E-03   2.781678148643826E-03   2.912342258840429E-03
   3.048824205023405E-03   3.191358647388671E-03   3.340187824353877E-03
   3.495561643783755E-03   3.657737760518488E-03   3.826981638521206E-03
   4.003566595838706E-03   4.187773830442058E-03   4.379892424879832E-03
   4.580219327538982E-03   4.789059308163376E-03   5.006724885131605E-03
   5.233536221841084E-03   5.469820989387023E-03   5.715914192562189E-03
   5.972157956036548E-03   6.238901267406639E-03   6.516499673632507E-03
   6.805314927206114E-03   7.105714578222055E-03   7.418071508346627E-03
   7.742763402510448E-03   8.080172153980722E-03   8.430683198305479E-03
   8.794684771465465E-03   9.172567087420499E-03   9.564721430099715E-03
   9.971539154761734E-03   1.039341059354225E-02   1.083072385991966E-02
   1.128386354676261E-02   1.175320931258529E-02   1.223913435062782E-02
   1.274200373540458E-02   1.326217264143116E-02   1.379998442894964E-02
   1.435576859163387E-02   1.492983856147353E-02   1.552248936631411E-02
   1.613399513587991E-02   1.676460645252950E-02   1.741454754350238E-02
   1.808401331201296E-02   1.877316620524576E-02   1.948213291811219E-02
   2.021100093254816E-02   2.095981489317927E-02   2.172857282135899E-02
   2.251722217090661E-02   2.332565573034611E-02   2.415370737807857E-02
   2.500114769872327E-02   2.586767947083970E-02   2.675293303840277E-02
   2.765646158075624E-02   2.857773629831242E-02   2.951614153401360E-02
   3.047096985351569E-02   3.144141711020323E-02   3.242657752449555E-02
   3.342543881044722E-02   3.443687738638195E-02   3.545965371021086E-02
   3.649240778416191E-02   3.753365487787078E-02   3.858178152312308E-02
   3.963504183797409E-02   4.069155424246302E-02   4.174929863264427E-02
   4.280611408413334E-02   4.385969716074634E-02   4.490760090804210E-02
   4.594723461557784E-02   4.697586443537861E-02   4.799061494741393E-02
   4.898847176565509E-02   4.996628528045881E-02   5.092077563444847E-02
   5.184853902961856E-02   5.274605546292932E-02   5.360969798601906E-02
   5.443574358169806E-02   5.522038574541339E-02   5.595974885370975E-02
   5.664990439368468E-02   5.728688911733840E-02   5.786672517237374E-02
   5.838544224621025E-02   5.883910174254878E-02   5.922382298958926E-02
   5.953581145578047E-02   5.977138892263015E-02   5.992702553448162E-02
   5.999937361217483E-02   5.998530308108232E-02   5.988193832411345E-02
   5.968669622693912E-02   5.939732513597303E-02   5.901194439970556E-02
   5.852908411103082E-02   5.794772461254826E-02   5.726733526884252E-02
   5.648791194995768E-02   5.561001260930006E-02   5.463479027775658E-02
   5.356402273480034E-02   5.240013805776957E-02   5.114623519354555E-02
   4.980609864386017E-02   4.838420630793513E-02   4.688572948582392E-02
   4.531652401455082E-02   4.368311148903025E-02   4.199264951309831E-02
   4.025288993526977E-02   3.847212405180907E-02   3.665911380924863E-02
   3.482300811278241E-02   3.297324344934487E-02   3.111942816818954E-02
   2.927120993118602E-02   2.743812605372301E-02   2.562943670910875E-02
   2.385394126882869E-02   2.211977840208437E-02   2.043421096484408E-02
   1.880339717505765E-02   1.723215010035275E-02   1.572368808049235E-02
   1.427937937139081E-02   1.289848503174199E-02   1.157790487691890E-02
   1.031393898675892E-02   9.108947978146931E-03   7.966714246487039E-03
   6.890597647867536E-03   5.883490684044423E-03   4.947776422810135E-03
   4.085289892387434E-03   3.297283725809563E-03   2.584398860842607E-03
   1.946641121144843E-03   1.383364513547758E-03   8.932620730772722E-04
   4.743650702844215E-04   1.240513634704898E-04  -1.609363695176946E-04
  -3.844618498166641E-04  -5.509552780960658E-04  -6.653617881139939E-04
  -7.330779012167943E-04  -7.598757441590331E-04  -7.518149444309397E-04
  -7.151422861323975E-04  -6.561793950893846E-04  -5.811989243276749E-04
  -4.962899303365131E-04  -4.072133674358214E-04  -3.192488832380880E-04
  -2.370343746526116E-04  -1.644000640345089E-04  -1.041991828976685E-04
  -5.813771108870158E-05  -2.660601865175916E-05  -8.515702741074271E-06
  -1.145410645775335E-06   8.326672684688674E-17   0.000000000000000E+00
   0.000000000000000E+00   0.000000000000000E+00   0.000000000000000E+00
   0.000000000000000E+00   0.000000000000000E+00   0.000000000000000E+00
   0.000000000000000E+00   0.000000000000000E+00   0.000000000000000E+00
   0.000000000000000E+00   0.000000000000000E+00   0.000000000000000E+00
   0.000000000000000E+00   0.000000000000000E+00   0.000000000000000E+00
   0.000000000000000E+00   0.000000000000000E+00   0.000000000000000E+00
   0.000000000000000E+00   0.000000000000000E+00   0.000000000000000E+00
   0.000000000000000E+00   0.000000000000000E+00   0.000000000000000E+00
   0.000000000000000E+00   0.000000000000000E+00   0.000000000000000E+00
   0.000000000000000E+00   0.000000000000000E+00   0.000000000000000E+00
   0.000000000000000E+00   0.000000000000000E+00   0.000000000000000E+00
   0.000000000000000E+00   0.000000000000000E+00   0.000000000000000E+00
   0.000000000000000E+00   0.000000000000000E+00   0.000000000000000E+00
   0.000000000000000E+00   0.000000000000000E+00   0.000000000000000E+00
   0.000000000000000E+00   0.000000000000000E+00   0.000000000000000E+00
   0.000000000000000E+00   0.000000000000000E+00   0.000000000000000E+00
   0.000000000000000E+00   0.000000000000000E+00   0.000000000000000E+00
   0.000000000000000E+00   0.000000000000000E+00   0.000000000000000E+00
   0.000000000000000E+00   0.000000000000000E+00   0.000000000000000E+00
   0.000000000000000E+00   0.000000000000000E+00   0.000000000000000E+00
   0.000000000000000E+00   0.000000000000000E+00   0.000000000000000E+00
   0.000000000000000E+00   0.000000000000000E+00   0.000000000000000E+00
   0.000000000000000E+00   0.000000000000000E+00   0.000000000000000E+00
   0.000000000000000E+00   0.000000000000000E+00   0.000000000000000E+00
   0.000000000000000E+00   0.000000000000000E+00   0.000000000000000E+00
   0.000000000000000E+00   0.000000000000000E+00   0.000000000000000E+00
   0.000000000000000E+00   0.000000000000000E+00   0.000000000000000E+00
   0.000000000000000E+00   0.000000000000000E+00   0.000000000000000E+00
   0.000000000000000E+00   0.000000000000000E+00   0.000000000000000E+00
   0.000000000000000E+00   0.000000000000000E+00   0.000000000000000E+00
   0.000000000000000E+00   0.000000000000000E+00   0.000000000000000E+00
   0.000000000000000E+00   0.000000000000000E+00   0.000000000000000E+00
   0.000000000000000E+00   0.000000000000000E+00   0.000000000000000E+00
   0.000000000000000E+00   0.000000000000000E+00   0.000000000000000E+00
   0.000000000000000E+00   0.000000000000000E+00   0.000000000000000E+00
   0.000000000000000E+00   0.000000000000000E+00   0.000000000000000E+00
   0.000000000000000E+00   0.000000000000000E+00   0.000000000000000E+00
   0.000000000000000E+00   0.000000000000000E+00   0.000000000000000E+00
   0.000000000000000E+00   0.000000000000000E+00   0.000000000000000E+00
   0.000000000000000E+00   0.000000000000000E+00   0.000000000000000E+00
   0.000000000000000E+00   0.000000000000000E+00   0.000000000000000E+00
   0.000000000000000E+00   0.000000000000000E+00   0.000000000000000E+00
   0.000000000000000E+00   0.000000000000000E+00   0.000000000000000E+00
   0.000000000000000E+00   0.000000000000000E+00   0.000000000000000E+00
   0.000000000000000E+00   0.000000000000000E+00   0.000000000000000E+00
   0.000000000000000E+00   0.000000000000000E+00   0.000000000000000E+00
   0.000000000000000E+00   0.000000000000000E+00   0.000000000000000E+00
   0.000000000000000E+00   0.000000000000000E+00   0.000000000000000E+00
   0.000000000000000E+00   0.000000000000000E+00   0.000000000000000E+00
   0.000000000000000E+00   0.000000000000000E+00   0.000000000000000E+00
   0.000000000000000E+00   0.000000000000000E+00   0.000000000000000E+00
   0.000000000000000E+00   0.000000000000000E+00   0.000000000000000E+00
   0.000000000000000E+00   0.000000000000000E+00   0.000000000000000E+00
   0.000000000000000E+00   0.000000000000000E+00   0.000000000000000E+00
   0.000000000000000E+00   0.000000000000000E+00   0.000000000000000E+00
   0.000000000000000E+00   0.000000000000000E+00   0.000000000000000E+00
   0.000000000000000E+00   0.000000000000000E+00   0.000000000000000E+00
   0.000000000000000E+00   0.000000000000000E+00   0.000000000000000E+00
   0.000000000000000E+00   0.000000000000000E+00   0.000000000000000E+00
   0.000000000000000E+00   0.000000000000000E+00   0.000000000000000E+00
   0.000000000000000E+00   0.000000000000000E+00   0.000000000000000E+00
   0.000000000000000E+00   0.000000000000000E+00   0.000000000000000E+00
   0.000000000000000E+00   0.000000000000000E+00   0.000000000000000E+00
   0.000000000000000E+00   0.000000000000000E+00   0.000000000000000E+00
   0.000000000000000E+00   0.000000000000000E+00   0.000000000000000E+00
   0.000000000000000E+00   0.000000000000000E+00   0.000000000000000E+00
   0.000000000000000E+00   0.000000000000000E+00   0.000000000000000E+00
   0.000000000000000E+00   0.000000000000000E+00   0.000000000000000E+00
   0.000000000000000E+00   0.000000000000000E+00   0.000000000000000E+00
   0.000000000000000E+00   0.000000000000000E+00   0.000000000000000E+00
   0.000000000000000E+00   0.000000000000000E+00   0.000000000000000E+00
   0.000000000000000E+00   0.000000000000000E+00   0.000000000000000E+00
   0.000000000000000E+00   0.000000000000000E+00   0.000000000000000E+00
   0.000000000000000E+00   0.000000000000000E+00   0.000000000000000E+00
   0.000000000000000E+00   0.000000000000000E+00   0.000000000000000E+00
   0.000000000000000E+00   0.000000000000000E+00   0.000000000000000E+00
   0.000000000000000E+00   0.000000000000000E+00   0.000000000000000E+00
   0.000000000000000E+00   0.000000000000000E+00   0.000000000000000E+00
   0.000000000000000E+00   0.000000000000000E+00   0.000000000000000E+00
   0.000000000000000E+00   0.000000000000000E+00   0.000000000000000E+00
   0.000000000000000E+00   0.000000000000000E+00   0.000000000000000E+00
   0.000000000000000E+00   0.000000000000000E+00   0.000000000000000E+00
   0.000000000000000E+00   0.000000000000000E+00   0.000000000000000E+00
   0.000000000000000E+00   0.000000000000000E+00   0.000000000000000E+00
   0.000000000000000E+00   0.000000000000000E+00   0.000000000000000E+00
   0.000000000000000E+00   0.000000000000000E+00   0.000000000000000E+00
   0.000000000000000E+00   0.000000000000000E+00   0.000000000000000E+00
   0.000000000000000E+00   0.000000000000000E+00   0.000000000000000E+00
   0.000000000000000E+00   0.000000000000000E+00   0.000000000000000E+00
   0.000000000000000E+00   0.000000000000000E+00   0.000000000000000E+00
   0.000000000000000E+00   0.000000000000000E+00   0.000000000000000E+00
   0.000000000000000E+00   0.000000000000000E+00   0.000000000000000E+00
   0.000000000000000E+00   0.000000000000000E+00   0.000000000000000E+00
   0.000000000000000E+00   0.000000000000000E+00   0.000000000000000E+00
   0.000000000000000E+00   0.000000000000000E+00   0.000000000000000E+00
   0.000000000000000E+00   0.000000000000000E+00   0.000000000000000E+00
   0.000000000000000E+00   0.000000000000000E+00   0.000000000000000E+00
   0.000000000000000E+00   0.000000000000000E+00   0.000000000000000E+00
   0.000000000000000E+00   0.000000000000000E+00   0.000000000000000E+00
   0.000000000000000E+00   0.000000000000000E+00   0.000000000000000E+00
   0.000000000000000E+00   0.000000000000000E+00   0.000000000000000E+00
   0.000000000000000E+00   0.000000000000000E+00   0.000000000000000E+00
   0.000000000000000E+00   0.000000000000000E+00   0.000000000000000E+00
   0.000000000000000E+00   0.000000000000000E+00   0.000000000000000E+00
   0.000000000000000E+00   0.000000000000000E+00   0.000000000000000E+00
   0.000000000000000E+00   0.000000000000000E+00   0.000000000000000E+00
   0.000000000000000E+00   0.000000000000000E+00   0.000000000000000E+00
   0.000000000000000E+00   0.000000000000000E+00   0.000000000000000E+00
   0.000000000000000E+00   0.000000000000000E+00   0.000000000000000E+00
   0.000000000000000E+00   0.000000000000000E+00   0.000000000000000E+00
   0.000000000000000E+00   0.000000000000000E+00   0.000000000000000E+00
   0.000000000000000E+00   0.000000000000000E+00   0.000000000000000E+00
   0.000000000000000E+00   0.000000000000000E+00   0.000000000000000E+00
   0.000000000000000E+00   0.000000000000000E+00
      </PP_QIJL.4.4.2>
    </PP_AUGMENTATION>
  </PP_NONLOCAL>
  <PP_PSWFC>
    <PP_CHI.1 size="1073" index="1" label="2S" l="0" occupation="2.00000000000000" n="1" cutoff_radius="1.00000000000000" ultrasoft_cutoff_radius="1.20000000000000">
   1.579963854178734E-04   1.599837352728801E-04   1.619960829108699E-04
   1.640337427652119E-04   1.660970332243588E-04   1.681862766815954E-04
   1.703017995854134E-04   1.724439324905200E-04   1.746130101094870E-04
   1.768093713650510E-04   1.790333594430698E-04   1.812853218461465E-04
   1.835656104479267E-04   1.858745815480804E-04   1.882125959279738E-04
   1.905800189070419E-04   1.929772203998706E-04   1.954045749739965E-04
   1.978624619084336E-04   2.003512652529366E-04   2.028713738880090E-04
   2.054231815856665E-04   2.080070870709642E-04   2.106234940842990E-04
   2.132728114444941E-04   2.159554531126771E-04   2.186718382569632E-04
   2.214223913179504E-04   2.242075420750387E-04   2.270277257135850E-04
   2.298833828929000E-04   2.327749598151034E-04   2.357029082948425E-04
   2.386676858298896E-04   2.416697556726271E-04   2.447095869024307E-04
   2.477876544989637E-04   2.509044394163946E-04   2.540604286585454E-04
   2.572561153549881E-04   2.604919988380954E-04   2.637685847210636E-04
   2.670863849769148E-04   2.704459180184931E-04   2.738477087794684E-04
   2.772922887963570E-04   2.807801962915756E-04   2.843119762575390E-04
   2.878881805418165E-04   2.915093679333583E-04   2.951761042498075E-04
   2.988889624259092E-04   3.026485226030330E-04   3.064553722198201E-04
   3.103101061039736E-04   3.142133265651982E-04   3.181656434893135E-04
   3.221676744335490E-04   3.262200447230381E-04   3.303233875485275E-04
   3.344783440653114E-04   3.386855634934143E-04   3.429457032190329E-04
   3.472594288972517E-04   3.516274145560555E-04   3.560503427016428E-04
   3.605289044250713E-04   3.650637995102406E-04   3.696557365432339E-04
   3.743054330230371E-04   3.790136154736459E-04   3.837810195575877E-04
   3.886083901908698E-04   3.934964816593714E-04   3.984460577367047E-04
   4.034578918035517E-04   4.085327669685072E-04   4.136714761904404E-04
   4.188748224023956E-04   4.241436186370497E-04   4.294786881537497E-04
   4.348808645671480E-04   4.403509919774554E-04   4.458899251023314E-04
   4.514985294104359E-04   4.571776812566574E-04   4.629282680190448E-04
   4.687511882374603E-04   4.746473517539763E-04   4.806176798550411E-04
   4.866631054154259E-04   4.927845730439909E-04   4.989830392312777E-04
   5.052594724989621E-04   5.116148535511884E-04   5.180501754277997E-04
   5.245664436595044E-04   5.311646764249885E-04   5.378459047100074E-04
   5.446111724684754E-04   5.514615367855850E-04   5.583980680429747E-04
   5.654218500859775E-04   5.725339803929707E-04   5.797355702468574E-04
   5.870277449087028E-04   5.944116437935553E-04   6.018884206484821E-04
   6.094592437328380E-04   6.171252960008087E-04   6.248877752862442E-04
   6.327478944898189E-04   6.407068817685473E-04   6.487659807276829E-04
   6.569264506150308E-04   6.651895665177022E-04   6.735566195613440E-04
   6.820289171118789E-04   6.906077829797765E-04   6.992945576269006E-04
   7.080905983759513E-04   7.169972796225440E-04   7.260159930499582E-04
   7.351481478465852E-04   7.443951709261112E-04   7.537585071504689E-04
   7.632396195555946E-04   7.728399895800241E-04   7.825611172963648E-04
   7.924045216456783E-04   8.023717406748119E-04   8.124643317767092E-04
   8.226838719337572E-04   8.330319579641759E-04   8.435102067715255E-04
   8.541202555973345E-04   8.648637622769191E-04   8.757424054984103E-04
   8.867578850650462E-04   8.979119221607593E-04   9.092062596191022E-04
   9.206426621955641E-04   9.322229168432986E-04   9.439488329923327E-04
   9.558222428322837E-04   9.678450015986257E-04   9.800189878625665E-04
   9.923461038245593E-04   1.004828275611516E-03   1.017467453577755E-03
   1.030265612609728E-03   1.043224752434590E-03   1.056346897932643E-03
   1.069634099453710E-03   1.083088433137491E-03   1.096712001237949E-03
   1.110506932451770E-03   1.124475382250955E-03   1.138619533219602E-03
   1.152941595394911E-03   1.167443806612498E-03   1.182128432856027E-03
   1.196997768611257E-03   1.212054137224535E-03   1.227299891265805E-03
   1.242737412896161E-03   1.258369114240056E-03   1.274197437762161E-03
   1.290224856648980E-03   1.306453875195265E-03   1.322887029195275E-03
   1.339526886338978E-03   1.356376046613222E-03   1.373437142707945E-03
   1.390712840427518E-03   1.408205839107229E-03   1.425918872035031E-03
   1.443854706878578E-03   1.462016146117638E-03   1.480406027481946E-03
   1.499027224394552E-03   1.517882646420762E-03   1.536975239722714E-03
   1.556307987519661E-03   1.575883910554069E-03   1.595706067563532E-03
   1.615777555758685E-03   1.636101511307067E-03   1.656681109823096E-03
   1.677519566864214E-03   1.698620138433237E-03   1.719986121487071E-03
   1.741620854451770E-03   1.763527717744115E-03   1.785710134299739E-03
   1.808171570107865E-03   1.830915534752822E-03   1.853945581962316E-03
   1.877265310162631E-03   1.900878363040798E-03   1.924788430113816E-03
   1.948999247305073E-03   1.973514597527967E-03   1.998338311276899E-03
   2.023474267225685E-03   2.048926392833481E-03   2.074698664958357E-03
   2.100795110478542E-03   2.127219806921517E-03   2.153976883100990E-03
   2.181070519761903E-03   2.208504950233547E-03   2.236284461090861E-03
   2.264413392824062E-03   2.292896140516711E-03   2.321737154532256E-03
   2.350940941209288E-03   2.380512063565424E-03   2.410455142010139E-03
   2.440774855066513E-03   2.471475940102048E-03   2.502563194068693E-03
   2.534041474252146E-03   2.565915699030594E-03   2.598190848643000E-03
   2.630871965967002E-03   2.663964157306636E-03   2.697472593189953E-03
   2.731402509176630E-03   2.765759206675775E-03   2.800548053773964E-03
   2.835774486073744E-03   2.871444007542600E-03   2.907562191372652E-03
   2.944134680851155E-03   2.981167190241868E-03   3.018665505677608E-03
   3.056635486063926E-03   3.095083063994176E-03   3.134014246676109E-03
   3.173435116870046E-03   3.213351833838914E-03   3.253770634310157E-03
   3.294697833449765E-03   3.336139825848542E-03   3.378103086520729E-03
   3.420594171915245E-03   3.463619720939553E-03   3.507186455996441E-03
   3.551301184033805E-03   3.595970797607631E-03   3.641202275958326E-03
   3.687002686100552E-03   3.733379183926776E-03   3.780339015324666E-03
   3.827889517308523E-03   3.876038119164930E-03   3.924792343612768E-03
   3.974159807977831E-03   4.024148225382180E-03   4.074765405948398E-03
   4.126019258019029E-03   4.177917789391281E-03   4.230469108567232E-03
   4.283681426019771E-03   4.337563055474396E-03   4.392122415207115E-03
   4.447368029358635E-03   4.503308529265062E-03   4.559952654805301E-03
   4.617309255765324E-03   4.675387293219669E-03   4.734195840930109E-03
   4.793744086762045E-03   4.854041334118559E-03   4.915097003392517E-03
   4.976920633436866E-03   5.039521883053378E-03   5.102910532500075E-03
   5.167096485017578E-03   5.232089768374582E-03   5.297900536432712E-03
   5.364539070731048E-03   5.432015782090455E-03   5.500341212238068E-03
   5.569526035452151E-03   5.639581060227591E-03   5.710517230962221E-03
   5.782345629664320E-03   5.855077477681525E-03   5.928724137451356E-03
   6.003297114273778E-03   6.078808058105874E-03   6.155268765379068E-03
   6.232691180839097E-03   6.311087399409013E-03   6.390469668075573E-03
   6.470850387799198E-03   6.552242115447888E-03   6.634657565755355E-03
   6.718109613303619E-03   6.802611294530550E-03   6.888175809762366E-03
   6.974816525271734E-03   7.062546975361501E-03   7.151380864474602E-03
   7.241332069330300E-03   7.332414641087162E-03   7.424642807533093E-03
   7.518030975302779E-03   7.612593732122812E-03   7.708345849084972E-03
   7.805302282947783E-03   7.903478178466964E-03   8.002888870754982E-03
   8.103549887670033E-03   8.205476952234888E-03   8.308685985085995E-03
   8.413193106953073E-03   8.519014641169794E-03   8.626167116215678E-03
   8.734667268289798E-03   8.844532043916591E-03   8.955778602584090E-03
   9.068424319415196E-03   9.182486787872191E-03   9.297983822494957E-03
   9.414933461673337E-03   9.533353970454126E-03   9.653263843382892E-03
   9.774681807381299E-03   9.897626824660216E-03   1.002211809566916E-02
   1.014817506208231E-02   1.027581740982184E-02   1.040506507211879E-02
   1.053593823261191E-02   1.066845732848522E-02   1.080264305364441E-02
   1.093851636193275E-02   1.107609847038705E-02   1.121541086253381E-02
   1.135647529172654E-02   1.149931378452437E-02   1.164394864411258E-02
   1.179040245376554E-02   1.193869808035255E-02   1.208885867788723E-02
   1.224090769112072E-02   1.239486885917950E-02   1.255076621924819E-02
   1.270862411029783E-02   1.286846717686035E-02   1.303032037284975E-02
   1.319420896543030E-02   1.336015853893273E-02   1.352819499881851E-02
   1.369834457569332E-02   1.387063382936976E-02   1.404508965298025E-02
   1.422173927714069E-02   1.440061027416511E-02   1.458173056233244E-02
   1.476512841020561E-02   1.495083244100381E-02   1.513887163702837E-02
   1.532927534414302E-02   1.552207327630916E-02   1.571729552017660E-02
   1.591497253973065E-02   1.611513518099615E-02   1.631781467679891E-02
   1.652304265158538E-02   1.673085112630139E-02   1.694127252333018E-02
   1.715433967149085E-02   1.737008581109766E-02   1.758854459908090E-02
   1.780975011417024E-02   1.803373686214086E-02   1.826053978112350E-02
   1.849019424697879E-02   1.872273607873683E-02   1.895820154410263E-02
   1.919662736502823E-02   1.943805072335203E-02   1.968250926650638E-02
   1.993004111329386E-02   2.018068485973323E-02   2.043447958497578E-02
   2.069146485729270E-02   2.095168074013441E-02   2.121516779826251E-02
   2.148196710395522E-02   2.175212024328694E-02   2.202566932248291E-02
   2.230265697434972E-02   2.258312636478218E-02   2.286712119934782E-02
   2.315468572994956E-02   2.344586476156725E-02   2.374070365907917E-02
   2.403924835416395E-02   2.434154535228427E-02   2.464764173975249E-02
   2.495758519087953E-02   2.527142397520771E-02   2.558920696482807E-02
   2.591098364178357E-02   2.623680410555848E-02   2.656671908065510E-02
   2.690077992425843E-02   2.723903863398965E-02   2.758154785574962E-02
   2.792836089165263E-02   2.827953170805151E-02   2.863511494365509E-02
   2.899516591773871E-02   2.935974063844836E-02   2.972889581119960E-02
   3.010268884717201E-02   3.048117787189992E-02   3.086442173396008E-02
   3.125248001375738E-02   3.164541303240926E-02   3.204328186072951E-02
   3.244614832831249E-02   3.285407503271822E-02   3.326712534875938E-02
   3.368536343789086E-02   3.410885425770271E-02   3.453766357151691E-02
   3.497185795808912E-02   3.541150482141572E-02   3.585667240064721E-02
   3.630742978010826E-02   3.676384689942541E-02   3.722599456376278E-02
   3.769394445416680E-02   3.816776913802001E-02   3.864754207960494E-02
   3.913333765077879E-02   3.962523114175844E-02   4.012329877201784E-02
   4.062761770129700E-02   4.113826604072357E-02   4.165532286404729E-02
   4.217886821898788E-02   4.270898313869628E-02   4.324574965333038E-02
   4.378925080174440E-02   4.433957064329347E-02   4.489679426975198E-02
   4.546100781734767E-02   4.603229847891038E-02   4.661075451613532E-02
   4.719646527196211E-02   4.778952118306795E-02   4.839001379247638E-02
   4.899803576228014E-02   4.961368088647874E-02   5.023704410392999E-02
   5.086822151141523E-02   5.150731037681799E-02   5.215440915241537E-02
   5.280961748828141E-02   5.347303624580189E-02   5.414476751129992E-02
   5.482491460977133E-02   5.551358211872879E-02   5.621087588215336E-02
   5.691690302455325E-02   5.763177196512713E-02   5.835559243203152E-02
   5.908847547675063E-02   5.983053348856636E-02   6.058188020912748E-02
   6.134263074711555E-02   6.211290159300576E-02   6.289281063391977E-02
   6.368247716856910E-02   6.448202192228632E-02   6.529156706214026E-02
   6.611123621213409E-02   6.694115446848099E-02   6.778144841495617E-02
   6.863224613832097E-02   6.949367724381394E-02   7.036587287070763E-02
   7.124896570792427E-02   7.214309000970751E-02   7.304838161134518E-02
   7.396497794493766E-02   7.489301805520730E-02   7.583264261534270E-02
   7.678399394287209E-02   7.774721601556094E-02   7.872245448732454E-02
   7.970985670415225E-02   8.070957172003343E-02   8.172175031287877E-02
   8.274654500042890E-02   8.378411005614171E-02   8.483460152505064E-02
   8.589817723958311E-02   8.697499683533019E-02   8.806522176675891E-02
   8.916901532285319E-02   9.028654264267602E-02   9.141797073083850E-02
   9.256346847286533E-02   9.372320665044241E-02   9.489735795653473E-02
   9.608609701035901E-02   9.728960037219800E-02   9.850804655803930E-02
   9.974161605402500E-02   1.009904913306925E-01   1.022548568569914E-01
   1.035348991140574E-01   1.048308066087225E-01   1.061427698867447E-01
   1.074709815457324E-01   1.088156362477451E-01   1.101769307315456E-01
   1.115550638244799E-01   1.129502364539612E-01   1.143626516585302E-01
   1.157925145984661E-01   1.172400325659195E-01   1.187054149945373E-01
   1.201888734685507E-01   1.216906217312890E-01   1.232108756930928E-01
   1.247498534385868E-01   1.263077752332771E-01   1.278848635294346E-01
   1.294813429712257E-01   1.310974403990497E-01   1.327333848530357E-01
   1.343894075756598E-01   1.360657420134334E-01   1.377626238176108E-01
   1.394802908438722E-01   1.412189831509214E-01   1.429789429979503E-01
   1.447604148409070E-01   1.465636453275122E-01   1.483888832909575E-01
   1.502363797422257E-01   1.521063878609602E-01   1.539991629848179E-01
   1.559149625972301E-01   1.578540463134936E-01   1.598166758651176E-01
   1.618031150823385E-01   1.638136298747213E-01   1.658484882097532E-01
   1.679079600893410E-01   1.699923175241133E-01   1.721018345054270E-01
   1.742367869749717E-01   1.763974527918649E-01   1.785841116971246E-01
   1.807970452753994E-01   1.830365369138338E-01   1.853028717579430E-01
   1.875963366643590E-01   1.899172201503162E-01   1.922658123397273E-01
   1.946424049057028E-01   1.970472910093578E-01   1.994807652347418E-01
   2.019431235197285E-01   2.044346630826856E-01   2.069556823447442E-01
   2.095064808474791E-01   2.120873591658038E-01   2.146986188158745E-01
   2.173405621577903E-01   2.200134922928699E-01   2.227177129552754E-01
   2.254535283977428E-01   2.282212432711702E-01   2.310211624978120E-01
   2.338535911378039E-01   2.367188342487440E-01   2.396171967380396E-01
   2.425489832077237E-01   2.455144977914198E-01   2.485140439831414E-01
   2.515479244575838E-01   2.546164408815560E-01   2.577198937161988E-01
   2.608585820096022E-01   2.640328031794348E-01   2.672428527851843E-01
   2.704890242895744E-01   2.737716088087344E-01   2.770908948506568E-01
   2.804471680414791E-01   2.838407108390928E-01   2.872718022335794E-01
   2.907407174339457E-01   2.942477275406047E-01   2.977930992030515E-01
   3.013770942621305E-01   3.049999693762975E-01   3.086619756312426E-01
   3.123633581322189E-01   3.161043555784029E-01   3.198851998185850E-01
   3.237061153874609E-01   3.275673190217808E-01   3.314690191555675E-01
   3.354114153936077E-01   3.393946979623775E-01   3.434190471375442E-01
   3.474846326471528E-01   3.515916130495773E-01   3.557401350852836E-01
   3.599303330014260E-01   3.641623278482562E-01   3.684362267463029E-01
   3.727521221232435E-01   3.771100909193486E-01   3.815101937603519E-01
   3.859524740965657E-01   3.904369573070209E-01   3.949636497673811E-01
   3.995325378803330E-01   4.041435870671423E-01   4.087967407189960E-01
   4.134919191067453E-01   4.182290182476063E-01   4.230079087273597E-01
   4.278284344765306E-01   4.326904114990178E-01   4.375936265515969E-01
   4.425378357726836E-01   4.475227632587227E-01   4.525480995865331E-01
   4.576135002798986E-01   4.627185842186972E-01   4.678629319887918E-01
   4.730460841709279E-01   4.782675395668370E-01   4.835267533607275E-01
   4.888231352143604E-01   4.941560472938575E-01   4.995248022264155E-01
   5.049286609851047E-01   5.103668306999067E-01   5.158384623932043E-01
   5.213426486379156E-01   5.268784211365225E-01   5.324447482192824E-01
   5.380405322599306E-01   5.436646070072870E-01   5.493157348311990E-01
   5.549926038813725E-01   5.606938251577365E-01   5.664179294910591E-01
   5.721633644327224E-01   5.779284910526266E-01   5.837115806444247E-01
   5.895108113374301E-01   5.953242646147221E-01   6.011499217372522E-01
   6.069856600739455E-01   6.128292493380997E-01   6.186783477307231E-01
   6.245304979917303E-01   6.303831233604008E-01   6.362335234468650E-01
   6.420788700168788E-01   6.479162026927269E-01   6.537424245734913E-01
   6.595542977783720E-01   6.653484389173330E-01   6.711213144941330E-01
   6.768692362474836E-01   6.825883564367947E-01   6.882746630798022E-01
   6.939239751502423E-01   6.995319377446424E-01   7.050940172283564E-01
   7.106054963719397E-01   7.160614694901505E-01   7.214568375970006E-01
   7.267863035915091E-01   7.320443674901588E-01   7.372253217233711E-01
   7.423232465147730E-01   7.473320053635241E-01   7.522452406514830E-01
   7.570563693986422E-01   7.617585791919091E-01   7.663448243141436E-01
   7.708078221019926E-01   7.751400495628622E-01   7.793337402832610E-01
   7.833808816625598E-01   7.872732125081674E-01   7.910022210299440E-01
   7.945591432736798E-01   7.979349620350391E-01   8.011204062970766E-01
   8.041059512365147E-01   8.068818188456778E-01   8.094379792183564E-01
   8.117641525492842E-01   8.138498118982773E-01   8.156841867711493E-01
   8.172562675704649E-01   8.185548109698488E-01   8.195683462659742E-01
   8.202851827624749E-01   8.206934182397795E-01   8.207829944191875E-01
   8.205520090420892E-01   8.200008720748048E-01   8.191303021519053E-01
   8.179413268670442E-01   8.164352825508022E-01   8.146138135403325E-01
   8.124788709463820E-01   8.100327109236793E-01   8.072778924473234E-01
   8.042172741330488E-01   8.008540073710197E-01   7.971915407236824E-01
   7.932336124548209E-01   7.889842455396143E-01   7.844477426902330E-01
   7.796286809642889E-01   7.745319059637077E-01   7.691625256361113E-01
   7.635259036915856E-01   7.576276526479804E-01   7.514736265170965E-01
   7.450699131415961E-01   7.384228262085807E-01   7.315388969597276E-01
   7.244248655893254E-01   7.170876723464445E-01   7.095344483680757E-01
   7.017725062538265E-01   6.938093303948943E-01   6.856525670707836E-01
   6.773100143270551E-01   6.687896116471009E-01   6.600994294305691E-01
   6.512476582907897E-01   6.422425981831730E-01   6.330926473762805E-01
   6.238062912770094E-01   6.143920911210471E-01   6.048586725398606E-01
   5.952147140151827E-01   5.854689352322926E-01   5.756300853435763E-01
   5.657069311542844E-01   5.557082452430798E-01   5.456427940307295E-01
   5.355193258113937E-01   5.253465587621872E-01   5.151331689481707E-01
   5.048877783416041E-01   4.946189428761395E-01   4.843351405586618E-01
   4.740447596635958E-01   4.637560870366987E-01   4.534772965375800E-01
   4.432164376523184E-01   4.329814243096235E-01   4.227800239357907E-01
   4.126198467852976E-01   4.025083355851088E-01   3.924527555315678E-01
   3.824601846791105E-01   3.725375047598369E-01   3.626913924722475E-01
   3.529283112761206E-01   3.432545037285760E-01   3.336759843938871E-01
   3.241985333565385E-01   3.148276903634729E-01   3.055687496174684E-01
   2.964267552391984E-01   2.874064974108694E-01   2.785125092094496E-01
   2.697490641325364E-01   2.611201743149215E-01   2.526295894290175E-01
   2.442807962575891E-01   2.360770189227519E-01   2.280212197510748E-01
   2.201161007508612E-01   2.123641056743643E-01   2.047674226348595E-01
   1.973279872461401E-01   1.900474862501738E-01   1.829273615973251E-01
   1.759688149427264E-01   1.691728125219899E-01   1.625400903696425E-01
   1.560711598441630E-01   1.497663134242682E-01   1.436256307425079E-01
   1.376489848237536E-01   1.318360484978461E-01   1.261863009577258E-01
   1.206990344365008E-01   1.153733609791535E-01   1.102082192869170E-01
   1.052023816146839E-01   1.003544607041518E-01   9.566291673768158E-02
   9.112606430003203E-02   8.674207933721217E-02   8.250900610360694E-02
   7.842476409028329E-02   7.448715492893078E-02   7.069386926722065E-02
   6.704249361247037E-02   6.353051714135170E-02   6.015533847398843E-02
   5.691427241114422E-02   5.380455663330565E-02   5.082335836033590E-02
   4.796778097001404E-02   4.523487057321473E-02   4.262162254273813E-02
   4.012498799190018E-02   3.774188019797611E-02   3.546918096448222E-02
   3.330374691512315E-02   3.124241571106290E-02   2.928201218202936E-02
   2.741935436067637E-02   2.565125940863259E-02   2.397454942179769E-02
   2.238605710172647E-02   2.088263127939512E-02   1.946114227728743E-02
   1.811848709558360E-02   1.685159440828796E-02   1.565742935539581E-02
   1.453299811766905E-02   1.347535226125944E-02   1.248159284027275E-02
   1.154887424639295E-02   1.067440779586346E-02   9.855465045431819E-03
   9.089380830283112E-03   8.373556018491740E-03   7.705459978088403E-03
   7.082632754444733E-03   6.502686957299035E-03   5.963309358362516E-03
   5.462262202033429E-03   4.997384233289911E-03   4.566591448312467E-03
   4.167877574789232E-03   3.799314290168952E-03   3.459051187335551E-03
   3.145315498276895E-03   2.856411587300794E-03   2.590720226208907E-03
   2.346697664571109E-03   2.122874508847145E-03   1.917854424579732E-03
   1.730312676235189E-03   1.558994519496991E-03   1.402713460929024E-03
   1.260349399923331E-03   1.130846667738414E-03   1.013211978225158E-03
   9.065123045356154E-04   8.098726957232761E-04   7.224740466799509E-04
   6.435508343227656E-04   5.723888323532913E-04   5.083228162682168E-04
   4.507342696157416E-04   3.990491017722318E-04   3.527353867679333E-04
   3.113011319266940E-04   2.742920843112055E-04   2.412895821734548E-04
   2.119084578634245E-04   1.857949978515241E-04   1.626249647825393E-04
   1.421016857442578E-04   1.239542102253261E-04   1.079355405570565E-04
   9.382093698599653E-05   8.140629891100273E-05   7.050662324275487E-05
   6.095454030700653E-05   5.259892721675687E-05   4.530359818394531E-05
   3.894607082885168E-05   3.341640717182595E-05   2.861612766888740E-05
   2.445719635781782E-05   2.086107493579737E-05   1.775784337890396E-05
   1.508538454020417E-05   1.278863002461055E-05   1.081886453305288E-05
   9.133085793637403E-06   7.693417151045908E-06   6.466569865066879E-06
   5.423352172395124E-06   4.538222188635000E-06   3.788897471856501E-06
   3.156111071770918E-06   2.622971526611000E-06   2.174824635114105E-06
   1.799002014222828E-06   1.484578080746147E-06   1.222153007188367E-06
   1.003659383575179E-06   8.221904517086009E-07   6.718479123840219E-07
   5.476074389432253E-07   4.452001611495434E-07   3.610085109156822E-07
   2.919749451784621E-07   2.355221806100061E-07   1.894836894173594E-07
   1.520433148686776E-07   1.216829691704701E-07   9.713747480334377E-08
   7.735570342348789E-08   6.146725409843821E-08   4.875399526575204E-08
   3.862587282785145E-08   3.060046087899115E-08   2.416974445291796E-08
   1.903242585432767E-08   1.494092864665897E-08   1.169245064097379E-08
   9.121388351191173E-09   7.092943831519322E-09   5.497747318465630E-09
   4.247349494322460E-09   3.270455583317254E-09   2.509790005143217E-09
   1.919495067732556E-09   1.462980308748667E-09   1.111150720521619E-09
   8.409523416697838E-10   6.341826929920131E-10   4.765213935720483E-10
   3.567431282402505E-10   2.660810562671831E-10   1.977138534367906E-10
   1.463539584277657E-10   1.079183354919116E-10   7.926624728964178E-11
   5.799122582610586E-11   4.225670019890816E-11   3.066664515026160E-11
   2.216420575075703E-11   1.595257656992128E-11   1.143350857981754E-11
   8.159718931164952E-12   5.798218191616027E-12   4.102173054488762E-12
   2.889412610073747E-12   2.026082411770114E-12   1.414269237367635E-12
   9.826745532619285E-13   6.796179184634237E-13   4.678126702545287E-13
   3.204833125732858E-13   2.184937669216940E-13   1.482335312471930E-13
   1.000693034386687E-13   6.721639724715683E-14   4.492024211792333E-14
   2.986576723512158E-14   1.975340058334749E-14   1.299625418928153E-14
   8.504990240095803E-15   5.535789170291112E-15   3.583486718570436E-15
   2.306867528496639E-15   1.476725585613444E-15   9.399538609365472E-16
   5.948559173571578E-16   3.742691913815282E-16   2.340946821458566E-16
   1.455465537196616E-16   8.994614226975129E-17   5.524593256080210E-17
   3.372265263627678E-17   2.045563099082356E-17   1.232932826902860E-17
   7.383572691844500E-18   4.392978528549047E-18   2.596458184602911E-18
   1.524393902183364E-18   8.889352499489922E-19   5.148290989654346E-19
   2.961001232524502E-19   1.691058668843219E-19   9.589255925887141E-20
   5.398565452693907E-20   3.017169089585580E-20   1.673820335145372E-20
   9.216489518841456E-21   5.036499733307819E-21   2.731223588660400E-21
   1.469633016294538E-21   7.845872975620060E-22   4.155385871431522E-22
   2.183109926214977E-22   1.137600847551368E-22   5.879083248787442E-23
   3.012933142401245E-23   1.531030258899487E-23   7.713404110114770E-24
   3.852383206616320E-24   1.907156909279403E-24   9.357692808087040E-25
   4.550172031844506E-25   2.192371612498087E-25   1.046593108145624E-25
   4.949579632325883E-26   2.318645036685565E-26   1.075780929817213E-26
   4.942930481292666E-27   2.248863283928456E-27   1.012991101246851E-27
   4.517079020910095E-28   1.993719232321744E-28   8.709006947300717E-29
   3.764566532257422E-29   1.610073413273664E-29   6.812439861365970E-30
   2.851196795932677E-30   1.180211078044470E-30   4.831031617251473E-31
   1.955269995227207E-31   7.823452495128054E-32   3.094228908675841E-32
   1.209498501662846E-32   4.671893878149111E-33   1.782996001324049E-33
   6.722204860794722E-34   2.503286019055485E-34   9.206172400954230E-35
   3.343099693707927E-35   1.198538481542659E-35   4.241476193700308E-36
   1.481404183092137E-36   5.105635121164318E-37   1.736092843209132E-37
   0.000000000000000E+00   0.000000000000000E+00   0.000000000000000E+00
   0.000000000000000E+00   0.000000000000000E+00   0.000000000000000E+00
   0.000000000000000E+00   0.000000000000000E+00   0.000000000000000E+00
   0.000000000000000E+00   0.000000000000000E+00
    </PP_CHI.1>
    <PP_CHI.2 size="1073" index="2" label="2P" l="1" occupation="2.00000000000000" n="2" cutoff_radius="0.900000000000000" ultrasoft_cutoff_radius="1.40000000000000">
  -4.134632791405636E-08  -4.239301516272636E-08  -4.346619942392931E-08
  -4.456655147267128E-08  -4.569475906469726E-08  -4.685152736636813E-08
  -4.803757939541238E-08  -4.925365647283543E-08  -5.050051868626904E-08
  -5.177894536505055E-08  -5.308973556732884E-08  -5.443370857950104E-08
  -5.581170442829309E-08  -5.722458440580321E-08  -5.867323160783733E-08
  -6.015855148587204E-08  -6.168147241299092E-08  -6.324294626414737E-08
  -6.484394901111698E-08  -6.648548133251125E-08  -6.816856923923366E-08
  -6.989426471576897E-08  -7.166364637770769E-08  -7.347782014591489E-08
  -7.533791993776642E-08  -7.724510837588313E-08  -7.920057751480727E-08
  -8.120554958607450E-08  -8.326127776214769E-08  -8.536904693968957E-08
  -8.753017454266390E-08  -8.974601134576768E-08  -9.201794231870803E-08
  -9.434738749185225E-08  -9.673580284379233E-08  -9.918468121137709E-08
  -1.016955532227831E-07  -1.042699882542057E-07  -1.069095954107689E-07
  -1.096160245322668E-07  -1.123909672243657E-07  -1.152361579159112E-07
  -1.181533749430012E-07  -1.211444416605016E-07  -1.242112275817011E-07
  -1.273556495468158E-07  -1.305796729210744E-07  -1.338853128231334E-07
  -1.372746353845899E-07  -1.407497590413786E-07  -1.443128558578605E-07
  -1.479661528844312E-07  -1.517119335494974E-07  -1.555525390866908E-07
  -1.594903699982134E-07  -1.635278875552243E-07  -1.676676153362123E-07
  -1.719121408043110E-07  -1.762641169245432E-07  -1.807262638220069E-07
  -1.853013704820378E-07  -1.899922964934119E-07  -1.948019738356760E-07
  -1.997334087117268E-07  -2.047896834267800E-07  -2.099739583149064E-07
  -2.152894737143375E-07  -2.207395519927765E-07  -2.263275996239809E-07
  -2.320571093169123E-07  -2.379316621987871E-07  -2.439549300533897E-07
  -2.501306776160499E-07  -2.564627649267161E-07  -2.629551497425997E-07
  -2.696118900118914E-07  -2.764371464101028E-07  -2.834351849406145E-07
  -2.906103796010563E-07  -2.979672151171879E-07  -3.055102897459877E-07
  -3.132443181497000E-07  -3.211741343426417E-07  -3.293046947126042E-07
  -3.376410811187437E-07  -3.461885040678952E-07  -3.549523059712927E-07
  -3.639379644837353E-07  -3.731510959272812E-07  -3.825974588016166E-07
  -3.922829573832848E-07  -4.022136454160275E-07  -4.123957298945019E-07
  -4.228355749439388E-07  -4.335397057978638E-07  -4.445148128765438E-07
  -4.557677559686981E-07  -4.673055685190615E-07  -4.791354620244876E-07
  -4.912648305413443E-07  -5.037012553070039E-07  -5.164525094783348E-07
  -5.295265629901422E-07  -5.429315875366016E-07  -5.566759616787999E-07
  -5.707682760815646E-07  -5.852173388828706E-07  -6.000321811991696E-07
  -6.152220627700856E-07  -6.307964777460093E-07  -6.467651606221958E-07
  -6.631380923230921E-07  -6.799255064406819E-07  -6.971378956307572E-07
  -7.147860181711099E-07  -7.328809046857365E-07  -7.514338650392731E-07
  -7.704564954059567E-07  -7.899606855175360E-07  -8.099586260946659E-07
  -8.304628164664163E-07  -8.514860723826764E-07  -8.730415340243218E-07
  -8.951426742161610E-07  -9.178033068477937E-07  -9.410375955076217E-07
  -9.648600623354520E-07  -9.892855970991864E-07  -1.014329466501286E-06
  -1.040007323720833E-06  -1.066335218197137E-06  -1.093329605661011E-06
  -1.121007358419991E-06  -1.149385775903916E-06  -1.178482595477483E-06
  -1.208316003526477E-06  -1.238904646824689E-06  -1.270267644188557E-06
  -1.302424598426843E-06  -1.335395608592822E-06  -1.369201282546605E-06
  -1.403862749835499E-06  -1.439401674900407E-06  -1.475840270616546E-06
  -1.513201312176953E-06  -1.551508151327420E-06  -1.590784730961795E-06
  -1.631055600086762E-06  -1.672345929165414E-06  -1.714681525849281E-06
  -1.758088851108568E-06  -1.802595035770732E-06  -1.848227897477730E-06
  -1.895015958072514E-06  -1.942988461425668E-06  -1.992175391713288E-06
  -2.042607492157583E-06  -2.094316284241848E-06  -2.147334087411878E-06
  -2.201694039276090E-06  -2.257430116316988E-06  -2.314577155126931E-06
  -2.373170874181473E-06  -2.433247896163836E-06  -2.494845770854574E-06
  -2.558002998600567E-06  -2.622759054378231E-06  -2.689154412465745E-06
  -2.757230571739894E-06  -2.827030081613288E-06  -2.898596568628063E-06
  -2.971974763722900E-06  -3.047210530190152E-06  -3.124350892340737E-06
  -3.203444064894661E-06  -3.284539483115430E-06  -3.367687833707417E-06
  -3.452941086495215E-06  -3.540352526904975E-06  -3.629976789267994E-06
  -3.721869890967212E-06  -3.816089267448231E-06  -3.912693808116447E-06
  -4.011743893142938E-06  -4.113301431202027E-06  -4.217429898164023E-06
  -4.324194376767546E-06  -4.433661597295924E-06  -4.545899979283354E-06
  -4.660979674276750E-06  -4.778972609679931E-06  -4.899952533707814E-06
  -5.023995061478324E-06  -5.151177722271170E-06  -5.281580007982855E-06
  -5.415283422808069E-06  -5.552371534178912E-06  -5.692930024993267E-06
  -5.837046747165329E-06  -5.984811776531693E-06  -6.136317469147018E-06
  -6.291658519005010E-06  -6.450932017220079E-06  -6.614237512707300E-06
  -6.781677074398229E-06  -6.953355355031382E-06  -7.129379656557690E-06
  -7.309859997201133E-06  -7.494909180217055E-06  -7.684642864390822E-06
  -7.879179636320760E-06  -8.078641084530969E-06  -8.283151875459754E-06
  -8.492839831371592E-06  -8.707836010241184E-06  -8.928274787659224E-06
  -9.154293940811684E-06  -9.386034734584315E-06  -9.623642009846714E-06
  -9.867264273971004E-06  -1.011705379364131E-05  -1.037316669001274E-05
  -1.063576303627839E-05  -1.090500695770613E-05  -1.118106673420732E-05
  -1.146411490550128E-05  -1.175432837894188E-05  -1.205188854007283E-05
  -1.235698136598123E-05  -1.266979754152018E-05  -1.299053257847258E-05
  -1.331938693773132E-05  -1.365656615457126E-05  -1.400228096709207E-05
  -1.435674744791178E-05  -1.472018713919290E-05  -1.509282719108657E-05
  -1.547490050367973E-05  -1.586664587253523E-05  -1.626830813791512E-05
  -1.668013833778019E-05  -1.710239386466211E-05  -1.753533862650498E-05
  -1.797924321157778E-05  -1.843438505756002E-05  -1.890104862490645E-05
  -1.937952557459919E-05  -1.987011495039776E-05  -2.037312336570160E-05
  -2.088886519514101E-05  -2.141766277101642E-05  -2.195984658470888E-05
  -2.251575549318702E-05  -2.308573693073978E-05  -2.367014712606707E-05
  -2.426935132486347E-05  -2.488372401803452E-05  -2.551364917568759E-05
  -2.615952048704374E-05  -2.682174160641994E-05  -2.750072640543537E-05
  -2.819689923159946E-05  -2.891069517344239E-05  -2.964256033235451E-05
  -3.039295210130330E-05  -3.116233945060236E-05  -3.195120322091073E-05
  -3.276003642364507E-05  -3.358934454899283E-05  -3.443964588171762E-05
  -3.531147182495439E-05  -3.620536723219688E-05  -3.712189074768298E-05
  -3.806161515539215E-05  -3.902512773687149E-05  -4.001303063811344E-05
  -4.102594124571506E-05  -4.206449257255238E-05  -4.312933365321104E-05
  -4.422112994941948E-05  -4.534056376573745E-05  -4.648833467575969E-05
  -4.766515995909934E-05  -4.887177504942479E-05  -5.010893399382885E-05
  -5.137740992381528E-05  -5.267799553819936E-05  -5.401150359821979E-05
  -5.537876743517336E-05  -5.678064147088767E-05  -5.821800175135567E-05
  -5.969174649386603E-05  -6.120279664796862E-05  -6.275209647062570E-05
  -6.434061411590729E-05  -6.596934223959619E-05  -6.763929861908186E-05
  -6.935152678892781E-05  -7.110709669250785E-05  -7.290710535011875E-05
  -7.475267754398249E-05  -7.664496652056808E-05  -7.858515471066693E-05
  -8.057445446767201E-05  -8.261410882452032E-05  -8.470539226976772E-05
  -8.684961154328130E-05  -8.904810645204373E-05  -9.130225070657589E-05
  -9.361345277850035E-05  -9.598315677977668E-05  -9.841284336415699E-05
  -1.009040306514217E-04  -1.034582751749702E-04  -1.060771728533561E-04
  -1.087623599863679E-04  -1.115155142762806E-04  -1.143383558749042E-04
  -1.172326484570878E-04  -1.202002003213410E-04  -1.232428655182575E-04
  -1.263625450074424E-04  -1.295611878436612E-04  -1.328407923929452E-04
  -1.362034075794118E-04  -1.396511341635697E-04  -1.431861260529036E-04
  -1.468105916455519E-04  -1.505267952079113E-04  -1.543370582870188E-04
  -1.582437611585938E-04  -1.622493443116281E-04  -1.663563099704551E-04
  -1.705672236552319E-04  -1.748847157818046E-04  -1.793114833019493E-04
  -1.838502913850012E-04  -1.885039751419152E-04  -1.932754413928219E-04
  -1.981676704791776E-04  -2.031837181216242E-04  -2.083267173247089E-04
  -2.135998803296436E-04  -2.190065006163111E-04  -2.245499549557479E-04
  -2.302337055143638E-04  -2.360613020113222E-04  -2.420363839300080E-04
  -2.481626827856666E-04  -2.544440244497967E-04  -2.608843315333705E-04
  -2.674876258299366E-04  -2.742580308204877E-04  -2.811997742411307E-04
  -2.883171907156615E-04  -2.956147244544777E-04  -3.030969320211144E-04
  -3.107684851688698E-04  -3.186341737485238E-04  -3.266989086893510E-04
  -3.349677250552647E-04  -3.434457851776280E-04  -3.521383818670591E-04
  -3.610509417060769E-04  -3.701890284242530E-04  -3.795583463586551E-04
  -3.891647440010348E-04  -3.990142176341446E-04  -4.091129150596729E-04
  -4.194671394196358E-04  -4.300833531140152E-04  -4.409681818164070E-04
  -4.521284185910717E-04  -4.635710281128196E-04  -4.753031509932701E-04
  -4.873321082153666E-04  -4.996654056793660E-04  -5.123107388628341E-04
  -5.252759975974496E-04  -5.385692709656785E-04  -5.521988523201007E-04
  -5.661732444287732E-04  -5.805011647491915E-04  -5.951915508345271E-04
  -6.102535658754548E-04  -6.256966043803168E-04  -6.415302979977467E-04
  -6.577645214849808E-04  -6.744093988253754E-04  -6.914753094988458E-04
  -7.089728949092647E-04  -7.269130649723756E-04  -7.453070048682319E-04
  -7.641661819623580E-04  -7.835023528997000E-04  -8.033275708755371E-04
  -8.236541930880002E-04  -8.444948883761455E-04  -8.658626450486032E-04
  -8.877707789073366E-04  -9.102329414712315E-04  -9.332631284043124E-04
  -9.568756881539532E-04  -9.810853308037566E-04  -1.005907137146606E-03
  -1.031356567983504E-03  -1.057449473652842E-03  -1.084202103796900E-03
  -1.111631117370125E-03  -1.139753592896383E-03  -1.168587038979767E-03
  -1.198149405076257E-03  -1.228459092531987E-03  -1.259534965894991E-03
  -1.291396364506348E-03  -1.324063114377560E-03  -1.357555540362964E-03
  -1.391894478630855E-03  -1.427101289442431E-03  -1.463197870248123E-03
  -1.500206669102778E-03  -1.538150698414717E-03  -1.577053549031719E-03
  -1.616939404672385E-03  -1.657833056713065E-03  -1.699759919338216E-03
  -1.742746045061710E-03  -1.786818140627638E-03  -1.832003583302958E-03
  -1.878330437565162E-03  -1.925827472202538E-03  -1.974524177826741E-03
  -2.024450784817052E-03  -2.075638281700143E-03  -2.128118433976104E-03
  -2.181923803405045E-03  -2.237087767760926E-03  -2.293644541064080E-03
  -2.351629194305954E-03  -2.411077676674719E-03  -2.472026837294333E-03
  -2.534514447488808E-03  -2.598579223584146E-03  -2.664260850258399E-03
  -2.731600004456030E-03  -2.800638379874483E-03  -2.871418712039575E-03
  -2.943984803981930E-03  -3.018381552527398E-03  -3.094654975215762E-03
  -3.172852237861645E-03  -3.253021682770667E-03  -3.335212857629428E-03
  -3.419476545077041E-03  -3.505864792981189E-03  -3.594430945427751E-03
  -3.685229674442480E-03  -3.778317012460524E-03  -3.873750385559909E-03
  -3.971588647473064E-03  -4.071892114396041E-03  -4.174722600612185E-03
  -4.280143454942590E-03  -4.388219598049531E-03  -4.499017560600533E-03
  -4.612605522318845E-03  -4.729053351935543E-03  -4.848432648059522E-03
  -4.970816780988796E-03  -5.096280935477114E-03  -5.224902154479432E-03
  -5.356759383891484E-03  -5.491933518306623E-03  -5.630507447807199E-03
  -5.772566105811385E-03  -5.918196517996512E-03  -6.067487852318277E-03
  -6.220531470144560E-03  -6.377420978529781E-03  -6.538252283644954E-03
  -6.703123645387862E-03  -6.872135733192785E-03  -7.045391683063324E-03
  -7.222997155844769E-03  -7.405060396764457E-03  -7.591692296253624E-03
  -7.783006452078765E-03  -7.979119232800043E-03  -8.180149842578272E-03
  -8.386220387354567E-03  -8.597455942419355E-03  -8.813984621396280E-03
  -9.035937646657825E-03  -9.263449421196788E-03  -9.496657601970342E-03
  -9.735703174740692E-03  -9.980730530428240E-03  -1.023188754299931E-02
  -1.048932564890542E-02  -1.075319992809481E-02  -1.102366918660965E-02
  -1.130089604079165E-02  -1.158504700310859E-02  -1.187629256961798E-02
  -1.217480730908324E-02  -1.248076995375757E-02  -1.279436349184599E-02
  -1.311577526165748E-02  -1.344519704746024E-02  -1.378282517704733E-02
  -1.412886062101958E-02  -1.448350909379402E-02  -1.484698115634387E-02
  -1.521949232066586E-02  -1.560126315598665E-02  -1.599251939669716E-02
  -1.639349205201808E-02  -1.680441751738755E-02  -1.722553768756398E-02
  -1.765710007143439E-02  -1.809935790851102E-02  -1.855257028710472E-02
  -1.901700226414797E-02  -1.949292498665257E-02  -1.998061581476604E-02
  -2.048035844640197E-02  -2.099244304340665E-02  -2.151716635922159E-02
  -2.205483186799630E-02  -2.260574989510727E-02  -2.317023774902041E-02
  -2.374861985444287E-02  -2.434122788669458E-02  -2.494840090722815E-02
  -2.557048550021647E-02  -2.620783591012326E-02  -2.686081418016239E-02
  -2.752979029154216E-02  -2.821514230338982E-02  -2.891725649322973E-02
  -2.963652749789789E-02  -3.037335845474476E-02  -3.112816114298744E-02
  -3.190135612504618E-02  -3.269337288770162E-02  -3.350464998288705E-02
  -3.433563516792288E-02  -3.518678554498973E-02  -3.605856769961248E-02
  -3.695145783792939E-02  -3.786594192248670E-02  -3.880251580630212E-02
  -3.976168536490650E-02  -4.074396662606846E-02  -4.174988589688443E-02
  -4.277997988789374E-02  -4.383479583386293E-02  -4.491489161086429E-02
  -4.602083584924464E-02  -4.715320804206583E-02  -4.831259864856802E-02
  -4.949960919218838E-02  -5.071485235263490E-02  -5.195895205149636E-02
  -5.323254353083316E-02  -5.453627342417172E-02  -5.587079981929000E-02
  -5.723679231215335E-02  -5.863493205132597E-02  -6.006591177214666E-02
  -6.153043581993037E-02  -6.302922016140904E-02  -6.456299238359807E-02
  -6.613249167923024E-02  -6.773846881785671E-02  -6.938168610168029E-02
  -7.106291730513328E-02  -7.278294759717664E-02  -7.454257344524498E-02
  -7.634260249971832E-02  -7.818385345775064E-02  -8.006715590523769E-02
  -8.199335013565215E-02  -8.396328694442567E-02  -8.597782739750141E-02
  -8.803784257262380E-02  -9.014421327188228E-02  -9.229782970396125E-02
  -9.449959113449681E-02  -9.675040550288140E-02  -9.905118900379001E-02
  -1.014028656316555E-01  -1.038063666862455E-01  -1.062626302374442E-01
  -1.087726005472722E-01  -1.113372274471238E-01  -1.139574656681367E-01
  -1.166342741225467E-01  -1.193686151338279E-01  -1.221614536133553E-01
  -1.250137561812700E-01  -1.279264902291746E-01  -1.309006229222340E-01
  -1.339371201382051E-01  -1.370369453408727E-01  -1.402010583853300E-01
  -1.434304142524939E-01  -1.467259617102230E-01  -1.500886418983680E-01
  -1.535193868350724E-01  -1.570191178416128E-01  -1.605887438830758E-01
  -1.642291598221587E-01  -1.679412445833982E-01  -1.717258592251528E-01
  -1.755838449166979E-01  -1.795160208178372E-01  -1.835231818584969E-01
  -1.876060964158526E-01  -1.917655038866161E-01  -1.960021121522406E-01
  -2.003165949349204E-01  -2.047095890424200E-01  -2.091816914999489E-01
  -2.137334565674934E-01  -2.183653926412533E-01  -2.230779590380834E-01
  -2.278715626621361E-01  -2.327465545532239E-01  -2.377032263167748E-01
  -2.427418064356598E-01  -2.478624564646059E-01  -2.530652671083841E-01
  -2.583502541854983E-01  -2.637173544796754E-01  -2.691664214820692E-01
  -2.746972210277944E-01  -2.803094268311174E-01  -2.860026159244469E-01
  -2.917762640071114E-01  -2.976297407108322E-01  -3.035623047898000E-01
  -3.095730992442939E-01  -3.156611463879470E-01  -3.218253428699219E-01
  -3.280644546645662E-01  -3.343771120424637E-01  -3.407618045382103E-01
  -3.472168759317847E-01  -3.537405192619276E-01  -3.603307718916493E-01
  -3.669855106477146E-01  -3.737024470577426E-01  -3.804791227105109E-01
  -3.873129047669435E-01  -3.942009816513364E-01  -4.011403589544520E-01
  -4.081278555822035E-01  -4.151601001859041E-01  -4.222335279121816E-01
  -4.293443775129573E-01  -4.364886888580825E-01  -4.436623008954569E-01
  -4.508608501056621E-01  -4.580797695002575E-01  -4.653142882149710E-01
  -4.725594317509866E-01  -4.798100229193071E-01  -4.870606835449098E-01
  -4.943058369887873E-01  -5.015397115472336E-01  -5.087563447886417E-01
  -5.159495888886407E-01  -5.231131170246375E-01  -5.302404308905214E-01
  -5.373248693915282E-01  -5.443596185779426E-01  -5.513377228741371E-01
  -5.582520976565282E-01  -5.650955432303736E-01  -5.718607602508231E-01
  -5.785403666280571E-01  -5.851269159495396E-01  -5.916129174445355E-01
  -5.979908575066959E-01  -6.042532227798346E-01  -6.103925247997378E-01
  -6.164013261708617E-01  -6.222722682410923E-01  -6.279981002200462E-01
  -6.335717096667689E-01  -6.389861542509551E-01  -6.442346946677993E-01
  -6.493108285603896E-01  -6.542083252749039E-01  -6.589212612428619E-01
  -6.634440557512113E-01  -6.677715068251329E-01  -6.718988269101985E-01
  -6.758216779997419E-01  -6.795362058103120E-01  -6.830390725631430E-01
  -6.863274878825955E-01  -6.893992372740756E-01  -6.922527075941005E-01
  -6.948869088746950E-01  -6.973014918131504E-01  -6.994967601874768E-01
  -7.014736774085913E-01  -7.032338663726430E-01  -7.047796017318404E-01
  -7.061137936613121E-01  -7.072399621638511E-01  -7.081622009254297E-01
  -7.088851297135332E-01  -7.094138342995014E-01  -7.097537928870291E-01
  -7.099107880439011E-01  -7.098908031650761E-01  -7.096999025448594E-01
  -7.093440942066229E-01  -7.088291747330190E-01  -7.081605554607171E-01
  -7.073430695541638E-01  -7.063807596556739E-01  -7.052766460272463E-01
  -7.040324753554665E-01  -7.026484506875025E-01  -7.011229433025156E-01
  -6.994521876988675E-01  -6.976299613630013E-01  -6.956492189092978E-01
  -6.935088055340694E-01  -6.912093828619702E-01  -6.887517320559223E-01
  -6.861367531276307E-01  -6.833654641367912E-01  -6.804390002831984E-01
  -6.773586128961203E-01  -6.741256683251490E-01  -6.707416467355948E-01
  -6.672081406739457E-01  -6.635268525867383E-01  -6.596995956862567E-01
  -6.557282914545656E-01  -6.516149678941723E-01  -6.473617578292493E-01
  -6.429708971340193E-01  -6.384447228884593E-01  -6.337856714617516E-01
  -6.289962765233291E-01  -6.240791669806609E-01  -6.190370648421705E-01
  -6.138727830029412E-01  -6.085892229500658E-01  -6.031893723837259E-01
  -5.976763027493467E-01  -5.920531666754201E-01  -5.863231953109580E-01
  -5.804896955559267E-01  -5.745560471775581E-01  -5.685256998050580E-01
  -5.624021697952440E-01  -5.561890369611824E-01  -5.498899411567778E-01
  -5.435085787102538E-01  -5.370486987004237E-01  -5.305140990706104E-01
  -5.239086225764510E-01  -5.172361525654002E-01  -5.105006085877082E-01
  -5.037059418408222E-01  -4.968561304516333E-01  -4.899551746036810E-01
  -4.830070915192562E-01  -4.760159103093569E-01  -4.689856667074485E-01
  -4.619203977060152E-01  -4.548241361177985E-01  -4.477009050863515E-01
  -4.405547125730335E-01  -4.333895458497051E-01  -4.262093660281324E-01
  -4.190181026583857E-01  -4.118196484292587E-01  -4.046178540039508E-01
  -3.974165230238560E-01  -3.902194073123499E-01  -3.830302023089210E-01
  -3.758525427618983E-01  -3.686899987054401E-01  -3.615460717433855E-01
  -3.544241916591367E-01  -3.473277133669675E-01  -3.402599142161604E-01
  -3.332239916552072E-01  -3.262230612590737E-01  -3.192601551182856E-01
  -3.123382205844495E-01  -3.054601193627946E-01  -2.986286269385471E-01
  -2.918464323203976E-01  -2.851161380811233E-01  -2.784402606725643E-01
  -2.718212309896671E-01  -2.652613951561893E-01  -2.587630155031120E-01
  -2.523282717095533E-01  -2.459592620749443E-01  -2.396580048911053E-01
  -2.334264398828791E-01  -2.272664296862393E-01  -2.211797613337177E-01
  -2.151681477181646E-01  -2.092332290073811E-01  -2.033765739840404E-01
  -1.975996812874685E-01  -1.919039805363099E-01  -1.862908333138037E-01
  -1.807615340003039E-01  -1.753173104407902E-01  -1.699593244383662E-01
  -1.646886720681020E-01  -1.595063838090155E-01  -1.544134244954325E-01
  -1.494106930923951E-01  -1.444990223031317E-01  -1.396791780198228E-01
  -1.349518586319370E-01  -1.303176942092131E-01  -1.257772455788999E-01
  -1.213310033190680E-01  -1.169793866916586E-01  -1.127227425403857E-01
  -1.085613441796439E-01  -1.044953903011871E-01  -1.005250039254987E-01
  -9.665023142451476E-02  -9.287104164166451E-02  -8.918732513409766E-02
  -8.559889356050464E-02  -8.210547923612907E-02  -7.870673487447702E-02
  -7.540223353288712E-02  -7.219146877658213E-02  -6.907385507314517E-02
  -6.604872842658395E-02  -6.311534725733010E-02  -6.027289353171212E-02
  -5.752047414167650E-02  -5.485712253286727E-02  -5.228180057663005E-02
  -4.979340067912617E-02  -4.739074811853987E-02  -4.507260359936383E-02
  -4.283766601096688E-02  -4.068457537608925E-02  -3.861191597358605E-02
  -3.661821961864153E-02  -3.470196908280767E-02  -3.286160163557169E-02
  -3.109551268871786E-02  -2.940205952451065E-02  -2.777956508867439E-02
  -2.622632182926425E-02  -2.474059556280199E-02  -2.332062934946891E-02
  -2.196464735969485E-02  -2.067085871514014E-02  -1.943746128781962E-02
  -1.826264544195401E-02  -1.714459770403611E-02  -1.608150434755714E-02
  -1.507155487983904E-02  -1.411294541944920E-02  -1.320388195372747E-02
  -1.234258346701736E-02  -1.152728493126065E-02  -1.075624015167452E-02
  -1.002772446127860E-02  -9.340037259069482E-03  -8.691504387645406E-03
  -8.080480347060210E-03  -7.505350342629189E-03  -6.964532165315142E-03
  -6.456477904189549E-03  -5.979675491286849E-03  -5.532650079948622E-03
  -5.113965258491769E-03  -4.722224101745108E-03  -4.356070063421781E-03
  -4.014187713356503E-03  -3.695303323682396E-03  -3.398185308740479E-03
  -3.121644523919575E-03  -2.864534429005315E-03  -2.625751121954837E-03
  -2.404233249304351E-03  -2.198961799660291E-03  -2.008959786922785E-03
  -1.833291830044088E-03  -1.671063636235718E-03  -1.521421394610316E-03
  -1.383551087286222E-03  -1.256677724884603E-03  -1.140064513511080E-03
  -1.033011960026187E-03  -9.348569224013316E-04  -8.449716118054333E-04
  -7.627625528991565E-04  -6.876695086223984E-04  -6.191643755456137E-04
  -5.567500556187878E-04  -4.999593098950991E-04  -4.483535995313235E-04
  -4.015219190755419E-04  -3.590796266234895E-04  -3.206686018011824E-04
  -2.859666089881506E-04  -2.546605357127096E-04  -2.264579884021406E-04
  -2.010876890306650E-04  -1.782983254566134E-04  -1.578574332938034E-04
  -1.395503108832243E-04  -1.231789687469386E-04  -1.085611146965710E-04
  -9.552917556338356E-05  -8.392935631703850E-05  -7.362073714690454E-05
  -6.447440889436141E-05  -5.637264704810231E-05  -4.920812434799704E-05
  -4.288316188769823E-05  -3.730901846284924E-05  -3.240521778148861E-05
  -2.809891303739764E-05  -2.432428824563933E-05  -2.102199565571094E-05
  -1.813862849078444E-05  -1.562622821436248E-05  -1.344182549993688E-05
  -1.154701407740777E-05  -9.907556655248365E-06  -8.493022173696505E-06
  -7.276453736806738E-06  -6.234066706725094E-06  -5.330356043890324E-06
  -4.548446013355337E-06  -3.873296419178065E-06  -3.291531101131830E-06
  -2.791279099304016E-06  -2.362027920859896E-06  -1.994488329167292E-06
  -1.680470066503915E-06  -1.412767917371696E-06  -1.185057519661019E-06
  -9.918003351879016E-07  -8.281571990586536E-07  -6.899098785513749E-07
  -5.733900863233807E-07  -4.754154093918622E-07  -3.932316341116858E-07
  -3.244609679258515E-07  -2.670556806419259E-07  -2.192567110600651E-07
  -1.795568086335414E-07  -1.466678041911305E-07  -1.194916283258245E-07
  -9.709472061392047E-08  -7.868549715530174E-08  -6.359456782752535E-08
  -5.125741795599203E-08  -4.119929167729410E-08  -3.302203599385719E-08
  -2.639268528891179E-08  -2.103358581678073E-08  -1.671387834959821E-08
  -1.324217471145565E-08  -1.046028034496565E-08  -8.237830328776079E-09
  -6.467720406385513E-09  -5.062227617036353E-09  -3.949727068665827E-09
  -3.071922299287239E-09  -2.381516581795332E-09  -1.840261488258572E-09
  -1.417327097297606E-09  -1.087945458730229E-09  -8.322853813033953E-10
  -6.345223404910928E-10  -4.820723720552913E-10  -3.649632802361877E-10
  -2.753204021845801E-10  -2.069475854430672E-10  -1.549870031501601E-10
  -1.156439994806678E-10  -8.596536982337391E-11  -6.366137727414406E-11
  -4.696342685269686E-11  -3.451069583769391E-11  -2.526018396937900E-11
  -1.841562912147119E-11  -1.337155758389310E-11  -9.669425740786097E-12
  -6.963381498947327E-12  -4.993646748312276E-12  -3.565911648469303E-12
  -2.535450864848794E-12  -1.794932453649591E-12  -1.265101730267019E-12
  -8.876935324108249E-13  -6.200639215918232E-13  -4.311425623322911E-13
  -2.983948202810447E-13  -2.055522381644876E-13  -1.409249767027983E-13
  -9.615293077992464E-14  -6.528591689219430E-14  -4.410950862261924E-14
  -2.965334090339820E-14  -1.983427674665872E-14  -1.319874747983175E-14
  -8.737649548701964E-15  -5.754050377966943E-15  -3.769129527784038E-15
  -2.455656951049294E-15  -1.591197416301204E-15  -1.025369270511003E-15
  -6.570616983042600E-16  -4.186691912452806E-16  -2.652429470851090E-16
  -1.670680016675737E-16  -1.046134468488023E-16  -6.511699561604667E-17
  -4.028851055121521E-17  -2.477508075462821E-17  -1.514127808512247E-17
  -9.195804806226228E-18  -5.549609691881185E-18  -3.327713500690048E-18
  -1.982462952488996E-18  -1.173287173166221E-18  -6.897752993083861E-19
  -4.027898849025980E-19  -2.336039306679246E-19  -1.345473089885331E-19
  -7.695295528919446E-20  -4.370113015236927E-20  -2.463986316741392E-20
  -1.379186079458311E-20  -7.663136937220468E-21  -4.226191316677065E-21
  -2.313181752169759E-21  -1.256455401712186E-21  -6.772036232650866E-22
  -3.621462371248354E-22  -1.921313749789502E-22  -1.011157427316649E-22
  -5.278389685185519E-23  -2.732761772121320E-23  -1.403054860679456E-23
  -7.142897576541408E-24  -3.605411559564538E-24  -1.804135310257261E-24
  -8.948902884220328E-25  -4.399556603281107E-25  -2.143570857392340E-25
  -1.034921433321825E-25  -4.950712262660882E-26  -2.346217635979846E-26
  -1.101433071852568E-26  -5.121361114373461E-27
    </PP_CHI.2>
  </PP_PSWFC>
  <PP_FULL_WFC number_of_wfc="4">
    <PP_AEWFC.1 index="1" label="2S" l="0">
   9.554393016518689E-04   9.674456514744477E-04   9.796028768532371E-04
   9.919128737377796E-04   1.004377419440633E-03   1.016998152640461E-03
   1.029777107048886E-03   1.042716248573403E-03   1.055817583000191E-03
   1.069083141060918E-03   1.082514978820243E-03   1.096115177981991E-03
   1.109885845815896E-03   1.123829115949854E-03   1.137947149612344E-03
   1.152242134566311E-03   1.166716285035303E-03   1.181371843279772E-03
   1.196211079385050E-03   1.211236291582083E-03   1.226449806754354E-03
   1.241853980784009E-03   1.257451198855054E-03   1.273243875787435E-03
   1.289234456490357E-03   1.305425416269906E-03   1.321819261124681E-03
   1.338418528252779E-03   1.355225786480364E-03   1.372243636521995E-03
   1.389474711346000E-03   1.406921676673668E-03   1.424587231401993E-03
   1.442474107925176E-03   1.460585072595533E-03   1.478922926125267E-03
   1.497490504011345E-03   1.516290676962403E-03   1.535326351331444E-03
   1.554600469549938E-03   1.574116010557918E-03   1.593875990271136E-03
   1.613883462069341E-03   1.634141517188207E-03   1.654653285185999E-03
   1.675421934486263E-03   1.696450672801497E-03   1.717742747612746E-03
   1.739301446662813E-03   1.761130098407584E-03   1.783232072584494E-03
   1.805610780706398E-03   1.828269676491163E-03   1.851212256459929E-03
   1.874442060459750E-03   1.897962672151606E-03   1.921777719568740E-03
   1.945890875650197E-03   1.970305858789470E-03   1.995026433388017E-03
   2.020056410415588E-03   2.045399647977131E-03   2.071060051886269E-03
   2.097041576245541E-03   2.123348224033466E-03   2.149984047698457E-03
   2.176953149759693E-03   2.204259683415018E-03   2.231907853155942E-03
   2.259901915389805E-03   2.288246179069209E-03   2.316945006328771E-03
   2.346002813129305E-03   2.375424069909293E-03   2.405213302243506E-03
   2.435375091511068E-03   2.465914075571646E-03   2.496834949444652E-03
   2.528142466000616E-03   2.559841436660897E-03   2.591936732100533E-03
   2.624433282962583E-03   2.657336080583630E-03   2.690650177723740E-03
   2.724380689305565E-03   2.758532793163902E-03   2.793111730799461E-03
   2.828122808145140E-03   2.863571396339313E-03   2.899462932508419E-03
   2.935802920558361E-03   2.972596931974913E-03   3.009850606633201E-03
   3.047569653616362E-03   3.085759852043460E-03   3.124427051906751E-03
   3.163577174918405E-03   3.203216215366741E-03   3.243350240982105E-03
   3.283985393812467E-03   3.325127891108819E-03   3.366784026220493E-03
   3.408960169500469E-03   3.451662769220781E-03   3.494898352498116E-03
   3.538673526229690E-03   3.582994978039508E-03   3.627869477235102E-03
   3.673303875774835E-03   3.719305109245879E-03   3.765880197852959E-03
   3.813036247417955E-03   3.860780450390465E-03   3.909120086869434E-03
   3.958062525635927E-03   4.007615225197166E-03   4.057785734841913E-03
   4.108581695707309E-03   4.160010841857256E-03   4.212081001372457E-03
   4.264800097452193E-03   4.318176149527958E-03   4.372217274389024E-03
   4.426931687320065E-03   4.482327703250917E-03   4.538413737918580E-03
   4.595198309041564E-03   4.652690037506698E-03   4.710897648568483E-03
   4.769829973060576E-03   4.829495948622971E-03   4.889904620952240E-03
   4.951065145044778E-03   5.012986786422391E-03   5.075678922415169E-03
   5.139151043468788E-03   5.203412754492664E-03   5.268473776173475E-03
   5.334343946230793E-03   5.401033220795446E-03   5.468551675781241E-03
   5.536909508241744E-03   5.606117037760457E-03   5.676184707848952E-03
   5.747123087359970E-03   5.818942871914613E-03   5.891654885343804E-03
   5.965270081144039E-03   6.039799543947573E-03   6.115254491007085E-03
   6.191646273694930E-03   6.268986379017055E-03   6.347286431141644E-03
   6.426558192942597E-03   6.506813567557898E-03   6.588064599962964E-03
   6.670323478559032E-03   6.753602536776674E-03   6.837914254694497E-03
   6.923271260673106E-03   7.009686333004386E-03   7.097172401576170E-03
   7.185742549552362E-03   7.275410015068565E-03   7.366188192943270E-03
   7.458090636404664E-03   7.551131058833112E-03   7.645323335519348E-03
   7.740681505438432E-03   7.837219773039500E-03   7.934952510051378E-03
   8.033894257304041E-03   8.134059726566011E-03   8.235463802397673E-03
   8.338121544020548E-03   8.442048187202560E-03   8.547259146159286E-03
   8.653770015471225E-03   8.761596572017066E-03   8.870754776922986E-03
   8.981260777527955E-03   9.093130909365057E-03   9.206381698158791E-03
   9.321029861838368E-03   9.437092312566944E-03   9.554586158786791E-03
   9.673528707280353E-03   9.793937465247152E-03   9.915830142396501E-03
   1.003922465305595E-02   1.016413911829545E-02   1.029059186806709E-02
   1.041860144336044E-02   1.054818659837331E-02   1.067936630269790E-02
   1.081215974352222E-02   1.094658632784671E-02   1.108266568471587E-02
   1.122041766746484E-02   1.135986235598081E-02   1.150102005897904E-02
   1.164391131629343E-02   1.178855690118139E-02   1.193497782264296E-02
   1.208319532775384E-02   1.223323090401228E-02   1.238510628169953E-02
   1.253884343625372E-02   1.269446459065683E-02   1.285199221783465E-02
   1.301144904306932E-02   1.317285804642435E-02   1.333624246518174E-02
   1.350162579629084E-02   1.366903179882890E-02   1.383848449647266E-02
   1.401000817998090E-02   1.418362740968749E-02   1.435936701800454E-02
   1.453725211193540E-02   1.471730807559692E-02   1.489956057275076E-02
   1.508403554934313E-02   1.527075923605261E-02   1.545975815084560E-02
   1.565105910153881E-02   1.584468918836833E-02   1.604067580656478E-02
   1.623904664893396E-02   1.643982970844238E-02   1.664305328080715E-02
   1.684874596708958E-02   1.705693667629180E-02   1.726765462795584E-02
   1.748092935476437E-02   1.769679070514242E-02   1.791526884585937E-02
   1.813639426463043E-02   1.836019777271675E-02   1.858671050752343E-02
   1.881596393519448E-02   1.904798985320398E-02   1.928282039294232E-02
   1.952048802229681E-02   1.976102554822553E-02   2.000446611932339E-02
   2.025084322837954E-02   2.050019071492479E-02   2.075254276776820E-02
   2.100793392752142E-02   2.126639908910982E-02   2.152797350426908E-02
   2.179269278402597E-02   2.206059290116198E-02   2.233171019265863E-02
   2.260608136212284E-02   2.288374348219107E-02   2.316473399691076E-02
   2.344909072409745E-02   2.373685185766610E-02   2.402805596993498E-02
   2.432274201390047E-02   2.462094932548096E-02   2.492271762572827E-02
   2.522808702300464E-02   2.553709801512337E-02   2.584979149145138E-02
   2.616620873497155E-02   2.648639142430277E-02   2.681038163567583E-02
   2.713822184486264E-02   2.746995492905696E-02   2.780562416870402E-02
   2.814527324927682E-02   2.848894626299679E-02   2.883668771049612E-02
   2.918854250241939E-02   2.954455596096180E-02   2.990477382134130E-02
   3.026924223320191E-02   3.063800776194531E-02   3.101111738998782E-02
   3.138861851793982E-02   3.177055896570447E-02   3.215698697349253E-02
   3.254795120275018E-02   3.294350073699632E-02   3.334368508256615E-02
   3.374855416925727E-02   3.415815835087496E-02   3.457254840567269E-02
   3.499177553668433E-02   3.541589137194395E-02   3.584494796458937E-02
   3.627899779284528E-02   3.671809375988185E-02   3.716228919354436E-02
   3.761163784594971E-02   3.806619389294490E-02   3.852601193342337E-02
   3.899114698849391E-02   3.946165450049777E-02   3.993759033186865E-02
   4.041901076383060E-02   4.090597249492866E-02   4.139853263938678E-02
   4.189674872528765E-02   4.240067869256874E-02   4.291038089082885E-02
   4.342591407693934E-02   4.394733741245395E-02   4.447471046081106E-02
   4.500809318432220E-02   4.554754594094017E-02   4.609312948080036E-02
   4.664490494252849E-02   4.720293384930771E-02   4.776727810469830E-02
   4.833799998820246E-02   4.891516215056701E-02   4.949882760881634E-02
   5.008905974100811E-02   5.068592228070347E-02   5.128947931114410E-02
   5.189979525912770E-02   5.251693488857349E-02   5.314096329376920E-02
   5.377194589229079E-02   5.440994841758596E-02   5.505503691121217E-02
   5.570727771472012E-02   5.636673746117287E-02   5.703348306629107E-02
   5.770758171921428E-02   5.838910087286839E-02   5.907810823392865E-02
   5.977467175236781E-02   6.047885961057876E-02   6.119074021206065E-02
   6.191038216965713E-02   6.263785429333563E-02   6.337322557749589E-02
   6.411656518779600E-02   6.486794244748369E-02   6.562742682322099E-02
   6.639508791038932E-02   6.717099541786252E-02   6.795521915223481E-02
   6.874782900149058E-02   6.954889491810219E-02   7.035848690154255E-02
   7.117667498019832E-02   7.200352919266970E-02   7.283911956844208E-02
   7.368351610791556E-02   7.453678876177655E-02   7.539900740969727E-02
   7.627024183834688E-02   7.715056171869934E-02   7.804003658262165E-02
   7.893873579872640E-02   7.984672854747259E-02   8.076408379549754E-02
   8.169087026916357E-02   8.262715642730185E-02   8.357301043313650E-02
   8.452850012537075E-02   8.549369298841798E-02   8.646865612175893E-02
   8.745345620840707E-02   8.844815948246340E-02   8.945283169574195E-02
   9.046753808344675E-02   9.149234332888119E-02   9.252731152716995E-02
   9.357250614797409E-02   9.462798999717903E-02   9.569382517753539E-02
   9.677007304823217E-02   9.785679418338179E-02   9.895404832939600E-02
   1.000618943612318E-01   1.011803902374861E-01   1.023095929543176E-01
   1.034495584981749E-01   1.046003417973078E-01   1.057619966720418E-01
   1.069345757837922E-01   1.081181305827959E-01   1.093127112545395E-01
   1.105183666648602E-01   1.117351443036976E-01   1.129630902274734E-01
   1.142022490000768E-01   1.154526636324323E-01   1.167143755206273E-01
   1.179874243825767E-01   1.192718481932019E-01   1.205676831181002E-01
   1.218749634456837E-01   1.231937215177626E-01   1.245239876585519E-01
   1.258657901020782E-01   1.272191549179635E-01   1.285841059355642E-01
   1.299606646664431E-01   1.313488502251512E-01   1.327486792482985E-01
   1.341601658118910E-01   1.355833213469137E-01   1.370181545531368E-01
   1.384646713111254E-01   1.399228745924314E-01   1.413927643679482E-01
   1.428743375144068E-01   1.443675877189963E-01   1.458725053820878E-01
   1.473890775180440E-01   1.489172876540978E-01   1.504571157272807E-01
   1.520085379793858E-01   1.535715268499501E-01   1.551460508672382E-01
   1.567320745372170E-01   1.583295582305042E-01   1.599384580672802E-01
   1.615587258001510E-01   1.631903086949510E-01   1.648331494094769E-01
   1.664871858701426E-01   1.681523511465500E-01   1.698285733239665E-01
   1.715157753737073E-01   1.732138750214162E-01   1.749227846132450E-01
   1.766424109799286E-01   1.783726552987591E-01   1.801134129534588E-01
   1.818645733919582E-01   1.836260199820841E-01   1.853976298651656E-01
   1.871792738075675E-01   1.889708160501640E-01   1.907721141557646E-01
   1.925830188545094E-01   1.944033738872526E-01   1.962330158469527E-01
   1.980717740180950E-01   1.999194702141699E-01   2.017759186132361E-01
   2.036409255916001E-01   2.055142895556445E-01   2.073958007718427E-01
   2.092852411949999E-01   2.111823842947619E-01   2.130869948804396E-01
   2.149988289241969E-01   2.169176333826562E-01   2.188431460169765E-01
   2.207750952114663E-01   2.227131997907921E-01   2.246571688358533E-01
   2.266067014983935E-01   2.285614868144242E-01   2.305212035165415E-01
   2.324855198452202E-01   2.344540933591739E-01   2.364265707448746E-01
   2.384025876253307E-01   2.403817683682258E-01   2.423637258935266E-01
   2.443480614806730E-01   2.463343645754686E-01   2.483222125967953E-01
   2.503111707432812E-01   2.523007918000564E-01   2.542906159457362E-01
   2.562801705597789E-01   2.582689700303699E-01   2.602565155629895E-01
   2.622422949898289E-01   2.642257825802257E-01   2.662064388522936E-01
   2.681837103859321E-01   2.701570296374040E-01   2.721258147556778E-01
   2.740894694007401E-01   2.760473825640842E-01   2.779989283915970E-01
   2.799434660090640E-01   2.818803393505281E-01   2.838088769897368E-01
   2.857283919749268E-01   2.876381816671988E-01   2.895375275827424E-01
   2.914256952391812E-01   2.933019340063126E-01   2.951654769615282E-01
   2.970155407502039E-01   2.988513254513611E-01   3.006720144489048E-01
   3.024767743087544E-01   3.042647546621887E-01   3.060350880957383E-01
   3.077868900479603E-01   3.095192587134455E-01   3.112312749544097E-01
   3.129220022202321E-01   3.145904864753114E-01   3.162357561356165E-01
   3.178568220143171E-01   3.194526772768887E-01   3.210222974060910E-01
   3.225646401772292E-01   3.240786456441138E-01   3.255632361361407E-01
   3.270173162669240E-01   3.284397729549169E-01   3.298294754564656E-01
   3.311852754117473E-01   3.325060069040510E-01   3.337904865328621E-01
   3.350375135012250E-01   3.362458697178566E-01   3.374143199144949E-01
   3.385416117789694E-01   3.396264761044858E-01   3.406676269556235E-01
   3.416637618515475E-01   3.426135619669422E-01   3.435156923511768E-01
   3.443688021662178E-01   3.451715249438045E-01   3.459224788624101E-01
   3.466202670445079E-01   3.472634778746706E-01   3.478506853390260E-01
   3.483804493865975E-01   3.488513163130561E-01   3.492618191674108E-01
   3.496104781821638E-01   3.498958012274563E-01   3.501162842897246E-01
   3.502704119753901E-01   3.503566580400966E-01   3.503734859440082E-01
   3.503193494336740E-01   3.501926931509607E-01   3.499919532695459E-01
   3.497155581594603E-01   3.493619290801524E-01   3.489294809025458E-01
   3.484166228605435E-01   3.478217593324234E-01   3.471432906525547E-01
   3.463796139538526E-01   3.455291240413682E-01   3.445902142973979E-01
   3.435612776184748E-01   3.424407073845831E-01   3.412268984609190E-01
   3.399182482324915E-01   3.385131576718363E-01   3.370100324400853E-01
   3.354072840216056E-01   3.337033308923918E-01   3.318965997223587E-01
   3.299855266116496E-01   3.279685583610340E-01   3.258441537764309E-01
   3.236107850075484E-01   3.212669389205866E-01   3.188111185049038E-01
   3.162418443134914E-01   3.135576559370553E-01   3.107571135114393E-01
   3.078387992580719E-01   3.048013190570545E-01   3.016433040524417E-01
   2.983634122892001E-01   2.949603303812618E-01   2.914327752100107E-01
   2.877794956524687E-01   2.839992743383682E-01   2.800909294352139E-01
   2.760533164603570E-01   2.718853301190144E-01   2.675859061670820E-01
   2.631540232974975E-01   2.585887050488200E-01   2.538890217346006E-01
   2.490540923920250E-01   2.440830867482198E-01   2.389752272025181E-01
   2.337297908228941E-01   2.283461113546853E-01   2.228235812396354E-01
   2.171616536432114E-01   2.113598444880664E-01   2.054177344914541E-01
   1.993349712043267E-01   1.931112710497971E-01   1.867464213585911E-01
   1.802402823990759E-01   1.735927893994170E-01   1.668039545593996E-01
   1.598738690494345E-01   1.528027049942747E-01   1.455907174389800E-01
   1.382382462946912E-01   1.307457182618116E-01   1.231136487282387E-01
   1.153426436403432E-01   1.074334013444501E-01   9.938671439664624E-02
   9.120347133879775E-02   8.288465843872767E-02   7.443136139255553E-02
   6.584476698724270E-02   5.712616472140832E-02   4.827694838247577E-02
   3.929861757816857E-02   3.019277922029065E-02   2.096114895858683E-02
   1.160555256227374E-02   2.127927246546175E-03  -7.469677059016025E-03
  -1.718509650370763E-02  -2.701605217481822E-02  -3.696014902759057E-02
  -4.701487489196735E-02  -5.717759956327205E-02  -6.744557398543304E-02
  -7.781592953714241E-02  -8.828567743350607E-02  -9.885170825836240E-02
  -1.095107916456071E-01  -1.202595761316559E-01  -1.310945892056966E-01
  -1.420122375897234E-01  -1.530088077865649E-01  -1.640804669412380E-01
  -1.752232640689076E-01  -1.864331317112864E-01  -1.977058880920489E-01
  -2.090372398500069E-01  -2.204227854352517E-01  -2.318580192564942E-01
  -2.433383366650888E-01  -2.548590398496164E-01  -2.664153446906691E-01
  -2.780023885843314E-01  -2.896152391804730E-01  -3.012489038947703E-01
  -3.128983399397705E-01  -3.245584644823090E-01  -3.362241643796676E-01
  -3.478903047897189E-01  -3.595517358137154E-01  -3.712032962446060E-01
  -3.828398134932936E-01  -3.944560988829593E-01  -4.060469377603614E-01
  -4.176070742767897E-01  -4.291311912178703E-01  -4.406138858597433E-01
  -4.520496434234564E-01  -4.634328101991300E-01  -4.747575687255313E-01
  -4.860179174638388E-01  -4.972076571525582E-01  -5.083203854746425E-01
  -5.193495008624758E-01  -5.302882153199309E-01  -5.411295752014020E-01
  -5.518664881140033E-01  -5.624917536306606E-01  -5.729980953841627E-01
  -5.833781923401676E-01  -5.936247075339952E-01  -6.037303131746680E-01
  -6.136877116413304E-01  -6.234896524230348E-01  -6.331289454292272E-01
  -6.425984713149797E-01  -6.518911895432811E-01  -6.610001448833626E-01
  -6.699184729583522E-01  -6.786394053409031E-01  -6.871562745757805E-01
  -6.954625193983436E-01  -7.035516903244503E-01  -7.114174557124446E-01
  -7.190536083404053E-01  -7.264540724992408E-01  -7.336129115716238E-01
  -7.405243360455213E-01  -7.471827118969824E-01  -7.535825692681954E-01
  -7.597186113623102E-01  -7.655857234751801E-01  -7.711789820852888E-01
  -7.764936639260865E-01  -7.815252549693159E-01  -7.862694592532371E-01
  -7.907222074956270E-01  -7.948796654377110E-01  -7.987382418715543E-01
  -8.022945963096654E-01  -8.055456462614985E-01  -8.084885740870693E-01
  -8.111208334029382E-01  -8.134401550203408E-01  -8.154445523992425E-01
  -8.171323266055729E-01  -8.185020707619167E-01  -8.195526739845049E-01
  -8.202833248015571E-01  -8.206935140498914E-01  -8.207830372483262E-01
  -8.205519964477680E-01  -8.200008015590805E-01  -8.191301711608886E-01
  -8.179411327904220E-01  -8.164350227213736E-01  -8.146134852335630E-01
  -8.124784713799681E-01  -8.100322372574199E-01  -8.072773417879850E-01
  -8.042166440187440E-01  -8.008532999483663E-01  -7.971907588895339E-01
  -7.932327593768999E-01  -7.889833246308771E-01  -7.844467575881712E-01
  -7.796276355105139E-01  -7.745308041835485E-01  -7.691613717182992E-01
  -7.635247019680819E-01  -7.576264075740754E-01  -7.514723426530919E-01
  -7.450685951413316E-01  -7.384214788080987E-01  -7.315375249535824E-01
  -7.244234738048617E-01  -7.170862656242970E-01  -7.095330315443966E-01
  -7.017710841431282E-01  -6.938079077734546E-01  -6.856511486606547E-01
  -6.773086047807043E-01  -6.687882155326986E-01  -6.600980512179645E-01
  -6.512463023381820E-01  -6.422412687245037E-01  -6.330913485093613E-01
  -6.238050269523849E-01  -6.143908651316619E-01  -6.048574885114486E-01
  -5.952135753943020E-01  -5.854678452856841E-01  -5.756290471468090E-01
  -5.657059475853303E-01  -5.557073189766986E-01  -5.456419275336457E-01
  -5.355185213382427E-01  -5.253458183523038E-01  -5.151324944231859E-01
  -5.048871713037745E-01  -4.946184047074392E-01  -4.843346724206444E-01
  -4.740443624980076E-01  -4.637557615668271E-01  -4.534770432703140E-01
  -4.432162568809127E-01  -4.329813161171364E-01  -4.227799881991778E-01
  -4.126198831801373E-01  -4.025084435909281E-01  -3.924529344377450E-01
  -3.824604335913171E-01  -3.725378226069895E-01  -3.626917780139345E-01
  -3.529287631104617E-01  -3.432550203004800E-01  -3.336765640036640E-01
  -3.241991741688241E-01  -3.148283904164226E-01  -3.055695068321743E-01
  -2.964275674292862E-01  -2.874073622922269E-01  -2.785134244100433E-01
  -2.697500272022690E-01  -2.611211827354867E-01  -2.526306406237100E-01
  -2.442818876010236E-01  -2.360781477504557E-01  -2.280223833689140E-01
  -2.201172964442635E-01  -2.123653307173085E-01  -2.047686742985987E-01
  -1.973292628076361E-01  -1.900487830002080E-01  -1.829286768482840E-01
  -1.759701460360272E-01  -1.691741568351221E-01  -1.625414453228530E-01
  -1.560725229067375E-01  -1.497676821204059E-01  -1.436270026568089E-01
  -1.376503576062926E-01  -1.318374198688435E-01  -1.261876687118154E-01
  -1.207003964465959E-01  -1.153747151999178E-01  -1.102095637578429E-01
  -1.052037144627877E-01  -1.003557801462916E-01  -9.566422108250447E-02
  -9.112735194956220E-02  -8.674334878808622E-02  -8.251025594796745E-02
  -7.842599301634025E-02  -7.448836172120063E-02  -7.069505280645486E-02
  -6.704365287528333E-02  -6.353165119955993E-02  -6.015644649367307E-02
  -5.691535365144838E-02  -5.380561044497989E-02  -5.082438418404397E-02
  -4.796877833441290E-02  -4.523583909282227E-02  -4.262256191560231E-02
  -4.012589799708419E-02  -3.774276069287416E-02  -3.547003188198023E-02
  -3.330456826062000E-02  -3.124320755936661E-02  -2.928277467414374E-02
  -2.742008770049278E-02  -2.565196385954232E-02  -2.397522530323951E-02
  -2.238670478568409E-02  -2.088325118685936E-02  -1.946173487469702E-02
  -1.811905289125879E-02  -1.685213394887055E-02  -1.565794322230872E-02
  -1.453348692360832E-02  -1.347581664673105E-02  -1.248203347018606E-02
  -1.154929180672210E-02  -1.067480299038747E-02  -9.855838592563544E-03
  -9.089733459996349E-03  -8.373888469355521E-03  -7.705772994416364E-03
  -7.082927083566788E-03  -6.502963346962001E-03  -5.963568554265226E-03
  -5.462504945501262E-03  -4.997611259092699E-03  -4.566803482628869E-03
  -4.168075333319944E-03  -3.799498476400057E-03  -3.459222490952659E-03
  -3.145474593729777E-03  -2.856559132517426E-03  -2.590856861457135E-03
  -2.346824011465320E-03  -2.122991169496694E-03  -1.917961980875220E-03
  -1.730411689268041E-03  -1.559085529107326E-03  -1.402796985376235E-03
  -1.260425935673434E-03  -1.130916689361832E-03  -1.013275938398296E-03
  -9.065706341393667E-04  -8.099258040313919E-04  -7.225223216301116E-04
  -6.435946428631121E-04  -5.724285208571657E-04  -5.083587110099385E-04
  -4.507666773002054E-04  -3.990783101120697E-04  -3.527616650986658E-04
  -3.113247318600624E-04  -2.743132404102676E-04  -2.413085126530400E-04
  -2.119253653046268E-04  -1.858100699267334E-04  -1.626383749857248E-04
  -1.421135941218567E-04  -1.239647641034508E-04  -1.079448752611176E-04
  -9.382917654920794E-05  -8.141355676861270E-05  -7.051300290919283E-05
  -6.096013603365657E-05  -5.260382462768210E-05  -4.530787488923008E-05
  -3.894979701198425E-05  -3.341964615201057E-05  -2.861893643622596E-05
  -2.445962608114469E-05  -2.086317144272900E-05  -1.775964760792488E-05
  -1.508693296481943E-05  -1.278995504929313E-05  -1.081999486608106E-05
  -9.134046760073755E-06  -7.694231479954761E-06  -6.467253821273970E-06
  -5.423941488018705E-06  -4.538690017708156E-06  -3.789295890503064E-06
  -3.156437442960540E-06  -2.623235128595602E-06  -2.175033179455980E-06
  -1.799161758216154E-06  -1.484693909367756E-06  -1.222228483599396E-06
  -1.003696764430517E-06  -8.221906622555769E-07  -6.718104744606024E-07
  -5.475303425402241E-07  -4.450796669953052E-07  -3.608388673258637E-07
  -2.917479968518432E-07  -2.352268396912790E-07  -1.891052293715399E-07
  -1.515624347196509E-07  -1.210745581205686E-07  -9.636898486537236E-08
  -7.638500050456497E-08  -6.023981345821798E-08  -4.719903020079633E-08
  -3.665207207210875E-08  -2.808681431246875E-08  -2.111396190338393E-08
  -1.518862537994312E-08   0.000000000000000E+00   0.000000000000000E+00
   0.000000000000000E+00   0.000000000000000E+00   0.000000000000000E+00
   0.000000000000000E+00   0.000000000000000E+00   0.000000000000000E+00
   0.000000000000000E+00   0.000000000000000E+00   0.000000000000000E+00
   0.000000000000000E+00   0.000000000000000E+00   0.000000000000000E+00
   0.000000000000000E+00   0.000000000000000E+00   0.000000000000000E+00
   0.000000000000000E+00   0.000000000000000E+00   0.000000000000000E+00
   0.000000000000000E+00   0.000000000000000E+00   0.000000000000000E+00
   0.000000000000000E+00   0.000000000000000E+00   0.000000000000000E+00
   0.000000000000000E+00   0.000000000000000E+00   0.000000000000000E+00
   0.000000000000000E+00   0.000000000000000E+00   0.000000000000000E+00
   0.000000000000000E+00   0.000000000000000E+00   0.000000000000000E+00
   0.000000000000000E+00   0.000000000000000E+00   0.000000000000000E+00
   0.000000000000000E+00   0.000000000000000E+00   0.000000000000000E+00
   0.000000000000000E+00   0.000000000000000E+00   0.000000000000000E+00
   0.000000000000000E+00   0.000000000000000E+00   0.000000000000000E+00
   0.000000000000000E+00   0.000000000000000E+00   0.000000000000000E+00
   0.000000000000000E+00   0.000000000000000E+00   0.000000000000000E+00
   0.000000000000000E+00   0.000000000000000E+00   0.000000000000000E+00
   0.000000000000000E+00   0.000000000000000E+00   0.000000000000000E+00
   0.000000000000000E+00   0.000000000000000E+00   0.000000000000000E+00
   0.000000000000000E+00   0.000000000000000E+00   0.000000000000000E+00
   0.000000000000000E+00   0.000000000000000E+00   0.000000000000000E+00
   0.000000000000000E+00   0.000000000000000E+00   0.000000000000000E+00
   0.000000000000000E+00   0.000000000000000E+00   0.000000000000000E+00
   0.000000000000000E+00   0.000000000000000E+00   0.000000000000000E+00
   0.000000000000000E+00   0.000000000000000E+00   0.000000000000000E+00
   0.000000000000000E+00   0.000000000000000E+00   0.000000000000000E+00
   0.000000000000000E+00   0.000000000000000E+00   0.000000000000000E+00
   0.000000000000000E+00   0.000000000000000E+00   0.000000000000000E+00
   0.000000000000000E+00   0.000000000000000E+00   0.000000000000000E+00
   0.000000000000000E+00   0.000000000000000E+00   0.000000000000000E+00
   0.000000000000000E+00   0.000000000000000E+00   0.000000000000000E+00
   0.000000000000000E+00   0.000000000000000E+00   0.000000000000000E+00
   0.000000000000000E+00   0.000000000000000E+00   0.000000000000000E+00
   0.000000000000000E+00   0.000000000000000E+00   0.000000000000000E+00
   0.000000000000000E+00   0.000000000000000E+00   0.000000000000000E+00
   0.000000000000000E+00   0.000000000000000E+00   0.000000000000000E+00
   0.000000000000000E+00   0.000000000000000E+00   0.000000000000000E+00
   0.000000000000000E+00   0.000000000000000E+00   0.000000000000000E+00
   0.000000000000000E+00   0.000000000000000E+00   0.000000000000000E+00
   0.000000000000000E+00   0.000000000000000E+00   0.000000000000000E+00
   0.000000000000000E+00   0.000000000000000E+00   0.000000000000000E+00
   0.000000000000000E+00   0.000000000000000E+00
    </PP_AEWFC.1>
    <PP_AEWFC.2 index="2" label="2S" l="0">
   1.029698641249814E-03   1.042638157216244E-03   1.055740275197223E-03
   1.069007038500646E-03   1.082440362556472E-03   1.096042013362599E-03
   1.109814182705077E-03   1.123758989282867E-03   1.137878594775149E-03
   1.152175187745362E-03   1.166650984058800E-03   1.181308227212595E-03
   1.196149188256754E-03   1.211176166647988E-03   1.226391491588695E-03
   1.241797520877993E-03   1.257396640832087E-03   1.273191267983095E-03
   1.289183848850543E-03   1.305376860287019E-03   1.321772810024491E-03
   1.338374237047340E-03   1.355183711919106E-03   1.372203837142540E-03
   1.389437247648148E-03   1.406886611125720E-03   1.424554628342931E-03
   1.442444033691727E-03   1.460557595650209E-03   1.478898117063174E-03
   1.497468435535891E-03   1.516271423972084E-03   1.535309991029533E-03
   1.554587081466549E-03   1.574105676638709E-03   1.593868794931844E-03
   1.613879492219933E-03   1.634140862325183E-03   1.654656037484353E-03
   1.675428188816581E-03   1.696460526786909E-03   1.717756301709731E-03
   1.739318804275030E-03   1.761151365970741E-03   1.783257359585694E-03
   1.805640199794467E-03   1.828303343613987E-03   1.851250290920380E-03
   1.874484584980517E-03   1.898009812938398E-03   1.921829606427799E-03
   1.945947642104520E-03   1.970367642109346E-03   1.995093374712801E-03
   2.020128654878404E-03   2.045477344788594E-03   2.071143354446453E-03
   2.097130642250698E-03   2.123443215586956E-03   2.150085131424301E-03
   2.177060496919096E-03   2.204373470025969E-03   2.232028260115832E-03
   2.260029128601212E-03   2.288380389568929E-03   2.317086410420145E-03
   2.346151612517937E-03   2.375580471842413E-03   2.405377519653498E-03
   2.435547343161441E-03   2.466094586205142E-03   2.497023949938380E-03
   2.528340193524044E-03   2.560048134836211E-03   2.592152651169938E-03
   2.624658679961232E-03   2.657571219515762E-03   2.690895329740834E-03
   2.724636132890475E-03   2.758798814319494E-03   2.793388623240939E-03
   2.828410873495931E-03   2.863870944335522E-03   2.899774281207364E-03
   2.936126396552223E-03   2.972932870611767E-03   3.010199352240880E-03
   3.047931559733463E-03   3.086135281655793E-03   3.124816377689890E-03
   3.163980779486397E-03   3.203634491527152E-03   3.243783591997546E-03
   3.284434233668764E-03   3.325592644790011E-03   3.367265129990801E-03
   3.409458071193442E-03   3.452177928535773E-03   3.495431241304291E-03
   3.539224628877746E-03   3.583564791681300E-03   3.628458512151381E-03
   3.673912655711288E-03   3.719934171757692E-03   3.766530094658107E-03
   3.813707544759441E-03   3.861473729407739E-03   3.909835943979207E-03
   3.958801572922626E-03   4.008378090813270E-03   4.058573063418417E-03
   4.109394148774564E-03   4.160849098276451E-03   4.212945757778007E-03
   4.265692068705305E-03   4.319096069181651E-03   4.373165895164897E-03
   4.427909781597104E-03   4.483336063566629E-03   4.539453177482785E-03
   4.596269662263138E-03   4.653794160533581E-03   4.712035419841265E-03
   4.771002293880520E-03   4.830703743731850E-03   4.891148839114111E-03
   4.952346759650004E-03   5.014306796144974E-03   5.077038351879644E-03
   5.140550943915294E-03   5.204854204416273E-03   5.269957881997253E-03
   5.335871843062921E-03   5.402606073128651E-03   5.470170678202897E-03
   5.538575886195925E-03   5.607832048372553E-03   5.677949640767564E-03
   5.748939265538711E-03   5.820811652451977E-03   5.893577660359720E-03
   5.967248278662641E-03   6.041834628807780E-03   6.117347965795069E-03
   6.193799679699990E-03   6.271201297211427E-03   6.349564483184880E-03
   6.428901042211070E-03   6.509222920200093E-03   6.590542205981160E-03
   6.672871132918058E-03   6.756222080540388E-03   6.840607576190681E-03
   6.926040296687470E-03   7.012533070004417E-03   7.100098876965541E-03
   7.188750852956679E-03   7.278502289653192E-03   7.369366636764059E-03
   7.461357503792378E-03   7.554488661812372E-03   7.648774045262962E-03
   7.744227753757971E-03   7.840864053913019E-03   7.938697381189184E-03
   8.037742341753451E-03   8.138013714356058E-03   8.239526452224736E-03
   8.342295684975921E-03   8.446336720542966E-03   8.551665047121423E-03
   8.658296335131386E-03   8.766246439196965E-03   8.875531400142913E-03
   8.986167447008409E-03   9.098170999078059E-03   9.211558667930072E-03
   9.326347259501702E-03   9.442553776171864E-03   9.560195418861026E-03
   9.679289589148304E-03   9.799853891405762E-03   9.921906134949945E-03
   1.004546433621056E-02   1.017054672091634E-02   1.029717172629799E-02
   1.042535800330828E-02   1.055512441885910E-02   1.068649005807556E-02
   1.081947422656698E-02   1.095409645271476E-02   1.109037648997700E-02
   1.122833431920988E-02   1.136799015100558E-02   1.150936442804676E-02
   1.165247782747746E-02   1.179735126329019E-02   1.194400588872933E-02
   1.209246309871042E-02   1.224274453225541E-02   1.239487207494365E-02
   1.254886786137836E-02   1.270475427766855E-02   1.286255396392615E-02
   1.302228981677809E-02   1.318398499189318E-02   1.334766290652362E-02
   1.351334724206074E-02   1.368106194660488E-02   1.385083123754910E-02
   1.402267960417642E-02   1.419663181027030E-02   1.437271289673809E-02
   1.455094818424714E-02   1.473136327587314E-02   1.491398405976050E-02
   1.509883671179420E-02   1.528594769828298E-02   1.547534377865322E-02
   1.566705200815320E-02   1.586109974056739E-02   1.605751463094017E-02
   1.625632463830856E-02   1.645755802844347E-02   1.666124337659898E-02
   1.686740957026908E-02   1.707608581195130E-02   1.728730162191668E-02
   1.750108684098547E-02   1.771747163330796E-02   1.793648648914966E-02
   1.815816222768038E-02   1.838252999976632E-02   1.860962129076446E-02
   1.883946792331865E-02   1.907210206015643E-02   1.930755620688586E-02
   1.954586321479156E-02   1.978705628362895E-02   2.003116896441598E-02
   2.027823516222126E-02   2.052828913894772E-02   2.078136551611075E-02
   2.103749927760981E-02   2.129672577249246E-02   2.155908071770969E-02
   2.182460020086138E-02   2.209332068293082E-02   2.236527900100694E-02
   2.264051237099307E-02   2.291905839030096E-02   2.320095504052865E-02
   2.348624069012085E-02   2.377495409701044E-02   2.406713441123952E-02
   2.436282117755866E-02   2.466205433800258E-02   2.496487423444084E-02
   2.527132161110175E-02   2.558143761706787E-02   2.589526380874130E-02
   2.621284215227693E-02   2.653421502598183E-02   2.685942522267878E-02
   2.718851595203207E-02   2.752153084283335E-02   2.785851394524565E-02
   2.819950973300320E-02   2.854456310556492E-02   2.889371939021936E-02
   2.924702434413855E-02   2.960452415637849E-02   2.996626544982371E-02
   3.033229528307334E-02   3.070266115226617E-02   3.107741099284171E-02
   3.145659318123477E-02   3.184025653650055E-02   3.222845032186723E-02
   3.262122424621323E-02   3.301862846546579E-02   3.342071358391787E-02
   3.382753065546004E-02   3.423913118472393E-02   3.465556712813379E-02
   3.507689089486277E-02   3.550315534768996E-02   3.593441380375482E-02
   3.637072003520488E-02   3.681212826973277E-02   3.725869319099886E-02
   3.771046993893485E-02   3.816751410992456E-02   3.862988175685716E-02
   3.909762938904857E-02   3.957081397202643E-02   4.004949292717379E-02
   4.053372413122689E-02   4.102356591562186E-02   4.151907706568549E-02
   4.202031681966466E-02   4.252734486758925E-02   4.304022134996299E-02
   4.355900685627669E-02   4.408376242333809E-02   4.461454953341247E-02
   4.515143011216799E-02   4.569446652641962E-02   4.624372158166537E-02
   4.679925851940828E-02   4.736114101425766E-02   4.792943317080273E-02
   4.850419952025177E-02   4.908550501682972E-02   4.967341503392685E-02
   5.026799535999131E-02   5.086931219415763E-02   5.147743214160381E-02
   5.209242220862863E-02   5.271434979744145E-02   5.334328270065582E-02
   5.397928909547877E-02   5.462243753758680E-02   5.527279695467982E-02
   5.593043663970398E-02   5.659542624373413E-02   5.726783576850630E-02
   5.794773555859075E-02   5.863519629319544E-02   5.933028897759007E-02
   6.003308493414026E-02   6.074365579294121E-02   6.146207348204044E-02
   6.218841021723818E-02   6.292273849145462E-02   6.366513106365235E-02
   6.441566094730238E-02   6.517440139838176E-02   6.594142590289098E-02
   6.671680816387814E-02   6.750062208795798E-02   6.829294177131240E-02
   6.909384148515939E-02   6.990339566067731E-02   7.072167887337036E-02
   7.154876582686190E-02   7.238473133610090E-02   7.322965030996760E-02
   7.408359773326326E-02   7.494664864806927E-02   7.581887813446035E-02
   7.670036129055627E-02   7.759117321189625E-02   7.849138897012012E-02
   7.940108359093971E-02   8.032033203138408E-02   8.124920915630125E-02
   8.218778971409969E-02   8.313614831171180E-02   8.409435938876163E-02
   8.506249719091885E-02   8.604063574242055E-02   8.702884881774206E-02
   8.802720991239836E-02   8.903579221285611E-02   9.005466856553740E-02
   9.108391144489500E-02   9.212359292053922E-02   9.317378462339597E-02
   9.423455771087508E-02   9.530598283102830E-02   9.638813008567533E-02
   9.748106899247663E-02   9.858486844593102E-02   9.969959667727592E-02
   1.008253212132681E-01   1.019621088338218E-01   1.031100255284822E-01
   1.042691364517094E-01   1.054395058769518E-01   1.066211971494829E-01
   1.078142726379788E-01   1.090187936848122E-01   1.102348205550382E-01
   1.114624123840465E-01   1.127016271238571E-01   1.139525214880323E-01
   1.152151508951804E-01   1.164895694110270E-01   1.177758296890253E-01
   1.190739829094827E-01   1.203840787171750E-01   1.217061651574249E-01
   1.230402886106145E-01   1.243864937251103E-01   1.257448233485693E-01
   1.271153184576039E-01   1.284980180857752E-01   1.298929592498908E-01
   1.313001768745786E-01   1.327197037151100E-01   1.341515702784471E-01
   1.355958047424849E-01   1.370524328734630E-01   1.385214779415207E-01
   1.400029606343676E-01   1.414968989690436E-01   1.430033082017425E-01
   1.445222007356727E-01   1.460535860269290E-01   1.475974704883496E-01
   1.491538573913333E-01   1.507227467655911E-01   1.523041352968082E-01
   1.538980162221912E-01   1.555043792238768E-01   1.571232103201780E-01
   1.587544917546453E-01   1.603982018829199E-01   1.620543150573571E-01
   1.637228015093972E-01   1.654036272296665E-01   1.670967538457835E-01
   1.688021384978560E-01   1.705197337116469E-01   1.722494872693931E-01
   1.739913420782602E-01   1.757452360364177E-01   1.775111018967200E-01
   1.792888671279788E-01   1.810784537738166E-01   1.828797783090877E-01
   1.846927514938599E-01   1.865172782249453E-01   1.883532573849757E-01
   1.902005816890167E-01   1.920591375287155E-01   1.939288048139823E-01
   1.958094568122031E-01   1.977009599849868E-01   1.996031738224495E-01
   2.015159506750413E-01   2.034391355829239E-01   2.053725661029084E-01
   2.073160721329651E-01   2.092694757343217E-01   2.112325909511638E-01
   2.132052236279606E-01   2.151871712244370E-01   2.171782226282163E-01
   2.191781579651636E-01   2.211867484074603E-01   2.232037559794439E-01
   2.252289333612510E-01   2.272620236903053E-01   2.293027603606946E-01
   2.313508668204855E-01   2.334060563670276E-01   2.354680319403039E-01
   2.375364859143871E-01   2.396110998870661E-01   2.416915444677120E-01
   2.437774790634559E-01   2.458685516637564E-01   2.479643986234404E-01
   2.500646444443029E-01   2.521689015553603E-01   2.542767700918516E-01
   2.563878376730957E-01   2.585016791793074E-01   2.606178565274911E-01
   2.627359184465299E-01   2.648554002515958E-01   2.669758236180146E-01
   2.690966963547238E-01   2.712175121774663E-01   2.733377504818745E-01
   2.754568761166010E-01   2.775743391566617E-01   2.796895746771642E-01
   2.818020025276011E-01   2.839110271068945E-01   2.860160371393882E-01
   2.881164054519881E-01   2.902114887526633E-01   2.923006274105257E-01
   2.943831452377147E-01   2.964583492733238E-01   2.985255295696114E-01
   3.005839589807506E-01   3.026328929543784E-01   3.046715693262158E-01
   3.066992081180396E-01   3.087150113392944E-01   3.107181627926457E-01
   3.127078278837812E-01   3.146831534357814E-01   3.166432675083873E-01
   3.185872792225042E-01   3.205142785902919E-01   3.224233363512019E-01
   3.243135038143302E-01   3.261838127074703E-01   3.280332750332552E-01
   3.298608829327958E-01   3.316656085572262E-01   3.334464039475847E-01
   3.352022009234668E-01   3.369319109808976E-01   3.386344251998861E-01
   3.403086141621312E-01   3.419533278793642E-01   3.435673957328226E-01
   3.451496264243635E-01   3.466988079397348E-01   3.482137075245362E-01
   3.496930716734131E-01   3.511356261330401E-01   3.525400759194595E-01
   3.539051053503567E-01   3.552293780928645E-01   3.565115372274989E-01
   3.577502053288441E-01   3.589439845636157E-01   3.600914568067417E-01
   3.611911837761139E-01   3.622417071866761E-01   3.632415489245243E-01
   3.641892112417077E-01   3.650831769724318E-01   3.659219097713739E-01
   3.667038543748365E-01   3.674274368854709E-01   3.680910650813191E-01
   3.686931287499293E-01   3.692320000483141E-01   3.697060338895264E-01
   3.701135683566453E-01   3.704529251449669E-01   3.707224100332085E-01
   3.709203133845438E-01   3.710449106782936E-01   3.710944630731070E-01
   3.710672180024736E-01   3.709614098034180E-01   3.707752603792306E-01
   3.705069798970990E-01   3.701547675215056E-01   3.697168121842670E-01
   3.691912933920907E-01   3.685763820725292E-01   3.678702414592152E-01
   3.670710280172620E-01   3.661768924097141E-01   3.651859805059328E-01
   3.640964344327985E-01   3.629063936696115E-01   3.616139961875650E-01
   3.602173796346612E-01   3.587146825669351E-01   3.571040457268367E-01
   3.553836133696190E-01   3.535515346385618E-01   3.516059649898483E-01
   3.495450676678990E-01   3.473670152319416E-01   3.450699911345840E-01
   3.426521913531276E-01   3.401118260743358E-01   3.374471214333457E-01
   3.346563213073761E-01   3.317376891648567E-01   3.286895099705617E-01
   3.255100921472948E-01   3.221977695946279E-01   3.187509037651508E-01
   3.151678857986375E-01   3.114471387144833E-01   3.075871196627101E-01
   3.035863222337754E-01   2.994432788273575E-01   2.951565630802217E-01
   2.907247923532004E-01   2.861466302772446E-01   2.814207893584266E-01
   2.765460336416901E-01   2.715211814330610E-01   2.663451080799404E-01
   2.610167488090124E-01   2.555351016212050E-01   2.498992302430458E-01
   2.441082671336556E-01   2.381614165465275E-01   2.320579576451334E-01
   2.257972476713059E-01   2.193787251652398E-01   2.128019132358612E-01
   2.060664228802156E-01   1.991719563504326E-01   1.921183105667351E-01
   1.849053805748755E-01   1.775331630463008E-01   1.700017598192743E-01
   1.623113814791133E-01   1.544623509756428E-01   1.464551072759100E-01
   1.382902090501605E-01   1.299683383890379E-01   1.214903045499394E-01
   1.128570477304335E-01   1.040696428666281E-01   9.512930345436067E-02
   8.603738539106656E-02   7.679539083616624E-02   6.740497208778695E-02
   5.786793547360317E-02   4.818624525353010E-02   3.836202753193470E-02
   2.839757417692866E-02   1.829534674417135E-02   8.057980402427863E-03
  -2.311712142112207E-03  -1.281073672605621E-02  -2.343591381725915E-02
  -3.418387461567506E-02  -4.505105717137359E-02  -5.603370252520901E-02
  -6.712785087850068E-02  -7.832933779913259E-02  -8.963379047272926E-02
  -1.010366240090557E-01  -1.125330378155576E-01  -1.241180120520582E-01
  -1.357863041831141E-01  -1.475324456474824E-01  -1.593507386676362E-01
  -1.712352532263859E-01  -1.831798242425053E-01  -1.951780489829324E-01
  -2.072232847556736E-01  -2.193086469350567E-01  -2.314270073793969E-01
  -2.435709933103349E-01  -2.557329867327504E-01  -2.679051244836372E-01
  -2.800792990067080E-01  -2.922471599552781E-01  -3.044001167271133E-01
  -3.165293420285566E-01  -3.286257765478196E-01  -3.406801347845198E-01
  -3.526829120296858E-01  -3.646243924130073E-01  -3.764946578287650E-01
  -3.882835974179401E-01  -3.999809171253363E-01  -4.115761486775413E-01
  -4.230586571589622E-01  -4.344176462266781E-01  -4.456421599357847E-01
  -4.567210801839855E-01  -4.676431189621604E-01  -4.783968049375564E-01
  -4.889704643954683E-01  -4.993521971901969E-01  -5.095298490409037E-01
  -5.194909821608904E-01  -5.292228467252350E-01  -5.387123559617604E-01
  -5.479460676173815E-01  -5.569101741694753E-01  -5.655905034370422E-01
  -5.739725302767763E-01  -5.820413989594664E-01  -5.897819547849994E-01
  -5.971787826845121E-01  -6.042162501093964E-01  -6.108785514743362E-01
  -6.171497517690218E-01  -6.230138275682214E-01  -6.284547044021520E-01
  -6.334562901544231E-01  -6.380025047287500E-01  -6.420773066171411E-01
  -6.456647172091934E-01  -6.487488437352795E-01  -6.513139016813285E-01
  -6.533442373952973E-01  -6.548243514625420E-01  -6.557389232848277E-01
  -6.560728371705215E-01  -6.558112101380114E-01  -6.549394215515458E-01
  -6.534431446463362E-01  -6.513083799545469E-01  -6.485214906121086E-01
  -6.450692395049771E-01  -6.409388281998897E-01  -6.361179375968510E-01
  -6.305947702369651E-01  -6.243580941986828E-01  -6.173972885171373E-01
  -6.097023900643015E-01  -6.012641418316105E-01  -5.920740425609559E-01
  -5.821243976741525E-01  -5.714083714547288E-01  -5.599200404389240E-01
  -5.476544479748197E-01  -5.346076599094507E-01  -5.207768213633677E-01
  -5.061602145503975E-01  -4.907573175972243E-01  -4.745688643128589E-01
  -4.575969048521047E-01  -4.398448672097532E-01  -4.213176194734964E-01
  -4.020215327534280E-01  -3.819645446945583E-01  -3.611562234659824E-01
  -3.396078321062431E-01  -3.173323930889986E-01  -2.943447529563519E-01
  -2.706616468490818E-01  -2.463017627435475E-01  -2.212858051841582E-01
  -1.956365582780141E-01  -1.693789476945839E-01  -1.425401013880789E-01
  -1.151494087334852E-01  -8.723857773902020E-02  -5.884168996807248E-02
  -2.999525277248183E-02  -7.382484063358708E-04   2.888782044466030E-02
   5.883888921869979E-02   8.906829465555968E-02   1.195267431717796E-01
   1.501622850477882E-01   1.809202950815028E-01   2.117434604037546E-01
   2.425717761922546E-01   2.733425500624647E-01   3.039904159553720E-01
   3.344473583834530E-01   3.646427479366695E-01   3.945033889897318E-01
   4.239535805896159E-01   4.529151915378922E-01   4.813077507152335E-01
   5.090485537248606E-01   5.360527869569603E-01   5.622336701965174E-01
   5.875026189116861E-01   6.117694273679516E-01   6.349424737139038E-01
   6.569289481765087E-01   6.776351054862161E-01   6.969665426239923E-01
   7.148285029422544E-01   7.311262076583949E-01   7.457652156518222E-01
   7.586518124121062E-01   7.696934288852524E-01   7.787990908456942E-01
   7.858798992822328E-01   7.908495421250606E-01   7.936248374563273E-01
   7.941263081368182E-01   7.922787875448299E-01   7.880120558579794E-01
   7.812615060122365E-01   7.719688381437517E-01   7.600827809556636E-01
   7.455598380519105E-01   7.283650568414464E-01   7.084728171372128E-01
   6.858676360530961E-01   6.605449852374787E-01   6.325121158728042E-01
   6.017888862162127E-01   5.684085857567923E-01   5.324187493210828E-01
   4.938819536718992E-01   4.528765883191186E-01   4.094975913989465E-01
   3.638571405860035E-01   3.160852880877100E-01   2.663305278422128E-01
   2.147602821109003E-01   1.615612937381393E-01   1.069399094604717E-01
   5.112223880399731E-02  -5.645827666280424E-03  -6.309875766325972E-02
  -1.209516915401564E-01  -1.789009495884295E-01  -2.366247503873593E-01
  -2.937841583274417E-01  -3.500242781769545E-01  -4.049757140085172E-01
  -4.582563089074347E-01  -5.094731806018873E-01  -5.582250664416839E-01
  -6.041049889623662E-01  -6.467032505609029E-01  -6.856107625362647E-01
  -7.204227098740069E-01  -7.507425486441014E-01  -7.761863277092010E-01
  -7.963873205868268E-01  -8.110009467629673E-01  -8.197099545214456E-01
  -8.222298294508408E-01  -8.183143842534328E-01  -8.077614763646377E-01
  -7.904187902741358E-01  -7.661896114244358E-01  -7.350385082796438E-01
  -6.969968287676400E-01  -6.521679069959513E-01  -6.007318661528974E-01
  -5.429498940941774E-01  -4.791678595804449E-01  -4.098191298094329E-01
  -3.354264441480064E-01  -2.566026952196149E-01  -1.740504671751564E-01
  -8.856018252918367E-02  -1.006713855372510E-03   8.765567460917015E-02
   1.764001773186327E-01   2.641361937236010E-01   3.497200514128482E-01
   4.319677582620405E-01   5.096698011241295E-01   5.816079678325875E-01
   6.465741223157162E-01   7.033908095152464E-01   7.509335078337903E-01
   7.881542824974181E-01   8.141065242662560E-01   8.279703854068798E-01
   8.290784501317747E-01   8.169411015447511E-01   7.912709736156092E-01
   7.520058073413987E-01   6.993289679258838E-01   6.336868277918706E-01
   5.558021821474260E-01   4.666828435630405E-01   3.676245637005721E-01
   2.602074581871818E-01   1.462851688304762E-01   2.796608989213783E-02
  -9.241388448263342E-02  -2.123274634764737E-01  -3.291010715043269E-01
  -4.399688698336325E-01  -5.421352895771346E-01  -6.328453389025864E-01
  -7.094615742118278E-01  -7.695462254343459E-01  -8.109465500884578E-01
  -8.318810730838576E-01  -8.310239662301535E-01  -8.075844530503049E-01
  -7.613778136422003E-01  -6.928843363095271E-01  -6.032924445872636E-01
  -4.945222480088597E-01  -3.692259499146666E-01  -2.307619211255868E-01
  -8.313983576728853E-02   6.906491986739004E-02   2.208283061517809E-01
   3.668256197059934E-01   5.016083879097634E-01   6.198064766202179E-01
   7.163499285552835E-01   7.867032056013178E-01   8.271027020214242E-01
   8.347867375036795E-01   8.082058562171943E-01   7.472002901176433E-01
   6.531310376079816E-01   5.289513062372839E-01   3.792062017179453E-01
   2.099506212274702E-01   2.857839331688778E-02  -1.564401883234056E-01
  -3.359102224019439E-01  -5.003453453678955E-01  -6.404675873941410E-01
  -7.477526397077545E-01  -8.149926997511666E-01  -8.368432405780442E-01
  -8.103155407906767E-01  -7.351742439200748E-01  -6.141992156373589E-01
  -4.532740914976325E-01  -2.612705805433190E-01  -4.970802513731104E-02
   1.678181564909719E-01   3.764281276549673E-01   5.609385524486880E-01
   7.069809577079545E-01   8.021852701373653E-01   8.373383993850642E-01
   8.074147596202056E-01   7.123698843855949E-01   5.575919673106418E-01
   3.539209549891087E-01   1.171716303308274E-01  -1.328642627474411E-01
  -3.739130065367733E-01  -5.831313844021381E-01  -7.393041989835091E-01
  -8.251365044862090E-01  -8.293669462369945E-01  -7.484734286061904E-01
  -5.877921301948761E-01  -3.617065495207211E-01  -9.283430441875191E-02
   1.898613895441895E-01   4.539499185952151E-01   6.671782099528061E-01
   8.015185003064229E-01   8.371380760411272E-01   7.657389554445755E-01
   5.927112767541266E-01   3.376225622957898E-01   3.273226177586042E-02
  -2.805299560051111E-01  -5.568754381365961E-01  -7.536817622233239E-01
  -8.378590155056028E-01  -7.919777824449373E-01  -6.185216640322060E-01
  -3.412621492875342E-01  -3.099613806180622E-03   3.397477848260431E-01
   6.266579769711974E-01   8.033801825345600E-01   8.328502763384406E-01
   7.039052342941773E-01   4.358231931374408E-01   7.714373461488350E-02
  -3.018029642470388E-01  -6.219326533202018E-01  -8.118963523920014E-01
  -8.247454074374315E-01  -6.508916239583512E-01  -3.237185608673296E-01
   8.459307203258803E-02   4.773838271757717E-01   7.557470223450414E-01
   8.439433674630670E-01   7.115852897777668E-01   3.859821940945883E-01
  -5.027258461752479E-02  -4.778997135152344E-01  -7.725177564904693E-01
  -8.414628210116388E-01  -6.551090802844398E-01  -2.618850517147150E-01
   2.202857423879651E-01   6.366573554066768E-01   8.447134074833181E-01
   7.647132645236375E-01   4.137353813021127E-01  -9.173984769539704E-02
  -5.702499209953167E-01  -8.388191910792555E-01  -7.845251291994210E-01
  -4.162605450453194E-01   1.277428116897910E-01   6.263001140881933E-01
   8.631963208042476E-01   7.233926279118349E-01   2.546304392308473E-01
  -3.395952851067651E-01  -7.824463901981138E-01  -8.520740467844405E-01
  -4.978799276336436E-01   1.172542313901405E-01   6.822331555284190E-01
   8.911983665268851E-01   6.130419972243458E-01  -1.728109496574557E-02
  -6.509419234426951E-01  -9.116588411092317E-01  -6.225964868808256E-01
   6.276175901752955E-02   7.252199189044271E-01   9.280916446224926E-01
   5.100314633885076E-01  -2.738457291920164E-01  -8.877766362016469E-01
  -8.744364537963337E-01  -2.054824745372660E-01   6.472346942109142E-01
   1.023838766499133E+00   5.864745887196622E-01  -3.606542395300502E-01
  -1.047988489613390E+00  -8.515485005799344E-01   1.273555562518971E-01
   1.052957383788805E+00   1.038433771073008E+00   7.473796254352138E-04
  -1.128091762870635E+00  -1.189169978777290E+00   1.900875447443346E-02
   1.345545697943301E+00   1.310120154002106E+00  -2.645687467313609E-01
  -1.761530043437867E+00  -1.322393886418389E+00   8.896447982801560E-01
   2.377794441090349E+00   9.707509304250767E-01  -2.132190967547874E+00
  -2.990643995623516E+00   3.240246475431868E-01   4.177251331565568E+00
   2.803955300493152E+00  -3.564600688396840E+00  -6.548836051511566E+00
   2.809371868056791E-01   9.681691921776043E+00   6.387052264114574E+00
  -1.019408674637525E+01  -1.675742843617132E+01   4.821784605231863E+00
   3.006415510785687E+01   1.163579059489133E+01  -4.278952737718620E+01
  -4.698591792277926E+01   4.498974210962069E+01   1.114347139189089E+02
  -1.270966018852606E+01  -2.137324054219414E+02  -1.066152364441561E+02
   3.458237151158253E+02   4.193402547157661E+02  -4.354619407503951E+02
  -1.119672662562272E+03   2.168569891875936E+02   2.501421450925498E+03
   1.090955604003107E+03  -4.802820158460252E+03  -5.503511499593962E+03
   7.368713734790406E+03   1.761987267190295E+04  -5.541630665694548E+03
  -4.616044942600684E+04  -1.897437410631334E+04   1.012230041693793E+05
   1.234807270906063E+05  -1.662281520796445E+05  -4.559761703307157E+05
   6.911233250015293E+04   1.297267060536145E+06   9.581373663562313E+05
  -2.760700828954155E+06  -5.390284171008951E+06   2.605724962543968E+06
   1.864214385261772E+07   1.267022031778859E+07  -4.219885116088757E+07
  -9.021578174582225E+07   1.798138679055397E+07
    </PP_AEWFC.2>
    <PP_AEWFC.3 index="3" label="2P" l="1">
   2.059716661681815E-07   2.103060729173575E-07   2.147316916386304E-07
   2.192504417697307E-07   2.238714771226467E-07   2.286122146612214E-07
   2.334714122623633E-07   2.384525481640988E-07   2.435584035363133E-07
   2.487918427455986E-07   2.541557972824205E-07   2.596532713459604E-07
   2.652873960757645E-07   2.710613581489438E-07   2.769782849484006E-07
   2.830414579014363E-07   2.892543427117977E-07   2.956204258290960E-07
   3.021432957315283E-07   3.088266445308972E-07   3.156742493620005E-07
   3.226899760152518E-07   3.298777895044639E-07   3.372417588403357E-07
   3.447860482966146E-07   3.525149287528170E-07   3.604327897904921E-07
   3.685441242856648E-07   3.768535273855535E-07   3.853657157677530E-07
   3.940855333933067E-07   4.030179400825007E-07   4.121680136822320E-07
   4.215409635357062E-07   4.311421274571654E-07   4.409769769253674E-07
   4.510511200183832E-07   4.613703048269144E-07   4.719404228648258E-07
   4.827675130508051E-07   4.938577668730101E-07   5.052175294347647E-07
   5.168532991783201E-07   5.287717407883997E-07   5.409796878775551E-07
   5.534841383321910E-07   5.662922655234367E-07   5.794114224375117E-07
   5.928491455395922E-07   6.066131642243252E-07   6.207113960900528E-07
   6.351519541257382E-07   6.499431611707725E-07   6.650935440530170E-07
   6.806118395378993E-07   6.965070044356040E-07   7.127882180909338E-07
   7.294648888907180E-07   7.465466598053353E-07   7.640434142732935E-07
   7.819652821966297E-07   8.003226460879308E-07   8.191261473851328E-07
   8.383866929185138E-07   8.581154615399493E-07   8.783239109213338E-07
   8.990237845227163E-07   9.202271187362860E-07   9.419462502100707E-07
   9.641938233558815E-07   9.869827980458062E-07   1.010326457502367E-06
   1.034238416383999E-06   1.058732629100535E-06   1.083823398384983E-06
   1.109525383839055E-06   1.135853610683610E-06   1.162823479350405E-06
   1.190450774681545E-06   1.218751675408358E-06   1.247742764442928E-06
   1.277441038976754E-06   1.307863920445893E-06   1.339029265333914E-06
   1.370955376045795E-06   1.403661011897718E-06   1.437165400883375E-06
   1.471488251245897E-06   1.506649763563971E-06   1.542670643078971E-06
   1.579572112341875E-06   1.617375924177804E-06   1.656104374975957E-06
   1.695780318313183E-06   1.736427178919993E-06   1.778068966997189E-06
   1.820730292892104E-06   1.864436382143369E-06   1.909213090903466E-06
   1.955086921748530E-06   2.002085039885079E-06   2.050235289763634E-06
   2.099566212109396E-06   2.150107061380425E-06   2.201887823664036E-06
   2.254939235022352E-06   2.309292800298286E-06   2.364980812393453E-06
   2.422036372029828E-06   2.480493408007249E-06   2.540386697969174E-06
   2.601751889689406E-06   2.664625522892809E-06   2.729045051623379E-06
   2.795048867173346E-06   2.862676321587338E-06   2.931967751755999E-06
   3.002964504113770E-06   3.075708959955943E-06   3.150244561390484E-06
   3.226615837940444E-06   3.304868433813262E-06   3.385049135853579E-06
   3.467205902196656E-06   3.551387891639887E-06   3.637645493750432E-06
   3.726030359726805E-06   3.816595434031227E-06   3.909394986813029E-06
   4.004484647218451E-06   4.101921437108644E-06   4.201763804323226E-06
   4.304071659913118E-06   4.408906419887968E-06   4.516331041009835E-06
   4.626410056897252E-06   4.739209611040701E-06   4.854797499641070E-06
   4.973243222998902E-06   5.094618022452332E-06   5.218994922380522E-06
   5.346448776853266E-06   5.477056314747650E-06   5.610896186857693E-06
   5.748049014052179E-06   5.888597436641621E-06   6.032626164977957E-06
   6.180222031321995E-06   6.331474043006244E-06   6.486473436926893E-06
   6.645313735397607E-06   6.808090803399091E-06   6.974902907259105E-06
   7.145850774798407E-06   7.321037656979085E-06   7.500569391092633E-06
   7.684554465526004E-06   7.873104086144742E-06   8.066332244333403E-06
   8.264355786734369E-06   8.467294486727169E-06   8.675271117691568E-06
   8.888411528098569E-06   9.106844718474662E-06   9.330702920285768E-06
   9.560121676788457E-06   9.795239925897179E-06   1.003620008511739E-05
   1.028314813859581E-05   1.053623372634011E-05   1.079561023566186E-05
   1.106143489489763E-05   1.133386886946458E-05   1.161307736030840E-05
   1.189922970480255E-05   1.219249948015959E-05   1.249306460941646E-05
   1.280110747005741E-05   1.311681500533968E-05   1.344037883838858E-05
   1.377199538913042E-05   1.411186599413323E-05   1.446019702942689E-05
   1.481720003637630E-05   1.518309185068269E-05   1.555809473459017E-05
   1.594243651237656E-05   1.633635070920902E-05   1.674007669344783E-05
   1.715385982248259E-05   1.757795159218813E-05   1.801260979008891E-05
   1.845809865232301E-05   1.891468902449928E-05   1.938265852654296E-05
   1.986229172162790E-05   2.035388028929559E-05   2.085772320286356E-05
   2.137412691122857E-05   2.190340552517208E-05   2.244588100827840E-05
   2.300188337257849E-05   2.357175087903496E-05   2.415583024298687E-05
   2.475447684467561E-05   2.536805494497588E-05   2.599693790645932E-05
   2.664150841992059E-05   2.730215873649967E-05   2.797929090553658E-05
   2.867331701829868E-05   2.938465945772338E-05   3.011375115432308E-05
   3.086103584840224E-05   3.162696835874042E-05   3.241201485789841E-05
   3.321665315430870E-05   3.404137298131494E-05   3.488667629332945E-05
   3.575307756928151E-05   3.664110412353320E-05   3.755129642444415E-05
   3.848420842077046E-05   3.944040787608747E-05   4.042047671143095E-05
   4.142501135635526E-05   4.245462310861232E-05   4.350993850265938E-05
   4.459159968720927E-05   4.570026481204102E-05   4.683660842429463E-05
   4.800132187447819E-05   4.919511373242177E-05   5.041871021341740E-05
   5.167285561479016E-05   5.295831276315137E-05   5.427586347259044E-05
   5.562630901406818E-05   5.701047059628008E-05   5.842918985826505E-05
   5.988332937404066E-05   6.137377316955304E-05   6.290142725223596E-05
   6.446722015348089E-05   6.607210348432595E-05   6.771705250467982E-05
   6.940306670640320E-05   7.113117041057807E-05   7.290241337930290E-05
   7.471787144235915E-05   7.657864713910286E-05   7.848587037594286E-05
   8.044069909977568E-05   8.244431998775554E-05   8.449794915378638E-05
   8.660283287213192E-05   8.876024831854845E-05   9.097150432935457E-05
   9.323794217886131E-05   9.556093637559547E-05   9.794189547775919E-05
   1.003822629283785E-04   1.028835179106038E-04   1.054471762236359E-04
   1.080747911797612E-04   1.107679545229915E-04   1.135282973698141E-04
   1.163574911725687E-04   1.192572487059820E-04   1.222293250773976E-04
   1.252755187612567E-04   1.283976726583916E-04   1.315976751807122E-04
   1.348774613618719E-04   1.382390139945203E-04   1.416843647947543E-04
   1.452155955944014E-04   1.488348395617757E-04   1.525442824515663E-04
   1.563461638845284E-04   1.602427786576652E-04   1.642364780856000E-04
   1.683296713738572E-04   1.725248270247825E-04   1.768244742768510E-04
   1.812312045781268E-04   1.857476730946538E-04   1.903766002545755E-04
   1.951207733287963E-04   1.999830480490170E-04   2.049663502639912E-04
   2.100736776348710E-04   2.153081013705258E-04   2.206727680037378E-04
   2.261709012091973E-04   2.318058036642374E-04   2.375808589532720E-04
   2.434995335169159E-04   2.495653786467891E-04   2.557820325270286E-04
   2.621532223235475E-04   2.686827663221102E-04   2.753745761163047E-04
   2.822326588465243E-04   2.892611194910868E-04   2.964641632106452E-04
   3.038460977470660E-04   3.114113358779761E-04   3.191643979282004E-04
   3.271099143393397E-04   3.352526282987610E-04   3.435973984292992E-04
   3.521492015409908E-04   3.609131354461919E-04   3.698944218394533E-04
   3.790984092435556E-04   3.885305760231333E-04   3.981965334673422E-04
   4.081020289430566E-04   4.182529491201056E-04   4.286553232700901E-04
   4.393153266403493E-04   4.502392839046754E-04   4.614336726924040E-04
   4.729051271975382E-04   4.846604418695944E-04   4.967065751878902E-04
   5.090506535210213E-04   5.216999750733124E-04   5.346620139200527E-04
   5.479444241333620E-04   5.615550440005642E-04   5.755019003369817E-04
   5.897932128950893E-04   6.044373988720088E-04   6.194430775173517E-04
   6.348190748434573E-04   6.505744284401025E-04   6.667183923957990E-04
   6.832604423278234E-04   7.002102805231660E-04   7.175778411926143E-04
   7.353732958402284E-04   7.536070587504939E-04   7.722897925954810E-04
   7.914324141643699E-04   8.110461002177399E-04   8.311422934690580E-04
   8.517327086958349E-04   8.728293389829574E-04   8.944444621007385E-04
   9.165906470202683E-04   9.392807605686776E-04   9.625279742269721E-04
   9.863457710731236E-04   1.010747952873144E-03   1.035748647322907E-03
   1.061362315443512E-03   1.087603759133025E-03   1.114488128877473E-03
   1.142030931623984E-03   1.170248038819023E-03   1.199155694614699E-03
   1.228770524246143E-03   1.259109542583013E-03   1.290190162858190E-03
   1.322030205576782E-03   1.354647907608572E-03   1.388061931467093E-03
   1.422291374778516E-03   1.457355779943602E-03   1.493275143995967E-03
   1.530069928659961E-03   1.567761070611470E-03   1.606369991944993E-03
   1.645918610850350E-03   1.686429352502437E-03   1.727925160167407E-03
   1.770429506528750E-03   1.813966405236702E-03   1.858560422684463E-03
   1.904236690014718E-03   1.951020915359957E-03   1.998939396320115E-03
   2.048019032681053E-03   2.098287339377427E-03   2.149772459703470E-03
   2.202503178775238E-03   2.256508937247879E-03   2.311819845291444E-03
   2.368466696828814E-03   2.426480984039238E-03   2.485894912131047E-03
   2.546741414387029E-03   2.609054167485962E-03   2.672867607103801E-03
   2.738216943797942E-03   2.805138179178014E-03   2.873668122366575E-03
   2.943844406753089E-03   3.015705507044480E-03   3.089290756615561E-03
   3.164640365162556E-03   3.241795436662885E-03   3.320797987644332E-03
   3.401690965766648E-03   3.484518268718569E-03   3.569324763433149E-03
   3.656156305624249E-03   3.745059759646910E-03   3.836083018684249E-03
   3.929275025263442E-03   4.024685792103208E-03   4.122366423295140E-03
   4.222369135821068E-03   4.324747281408529E-03   4.429555368726282E-03
   4.536849085921664E-03   4.646685323501398E-03   4.759122197557354E-03
   4.874219073338544E-03   4.992036589170468E-03   5.112636680722750E-03
   5.236082605625779E-03   5.362438968436874E-03   5.491771745956263E-03
   5.624148312892922E-03   5.759637467880110E-03   5.898309459840136E-03
   6.040236014697649E-03   6.185490362440467E-03   6.334147264526636E-03
   6.486283041636156E-03   6.641975601765410E-03   6.801304468662098E-03
   6.964350810598039E-03   7.131197469476877E-03   7.301928990273380E-03
   7.476631650800551E-03   7.655393491800431E-03   7.838304347354007E-03
   8.025455875605219E-03   8.216941589793558E-03   8.412856889589312E-03
   8.613299092725039E-03   8.818367466916223E-03   9.028163262063668E-03
   9.242789742729553E-03   9.462352220878519E-03   9.686958088874556E-03
   9.916716852723875E-03   1.015174016555326E-02   1.039214186131280E-02
   1.063803798869119E-02   1.088954684523108E-02   1.114678901163125E-02
   1.140988738622163E-02   1.167896721959645E-02   1.195415614938990E-02
   1.223558423517804E-02   1.252338399348969E-02   1.281769043290826E-02
   1.311864108924552E-02   1.342637606076747E-02   1.374103804345144E-02
   1.406277236625269E-02   1.439172702635750E-02   1.472805272439929E-02
   1.507190289961242E-02   1.542343376489813E-02   1.578280434177518E-02
   1.615017649518726E-02   1.652571496813760E-02   1.690958741612015E-02
   1.730196444131576E-02   1.770301962651997E-02   1.811292956876827E-02
   1.853187391262307E-02   1.896003538308534E-02   1.939759981809256E-02
   1.984475620056310E-02   2.030169668994588E-02   2.076861665323248E-02
   2.124571469538762E-02   2.173319268915211E-02   2.223125580417111E-02
   2.274011253539869E-02   2.325997473072836E-02   2.379105761779714E-02
   2.433357982990966E-02   2.488776343102649E-02   2.545383393975954E-02
   2.603202035231558E-02   2.662255516432684E-02   2.722567439150629E-02
   2.784161758906293E-02   2.847062786981084E-02   2.911295192090371E-02
   2.976884001912469E-02   3.043854604465945E-02   3.112232749327831E-02
   3.182044548685156E-02   3.253316478211971E-02   3.326075377763862E-02
   3.400348451881752E-02   3.476163270096549E-02   3.553547767026038E-02
   3.632530242255164E-02   3.713139359990667E-02   3.795404148480817E-02
   3.879353999190771E-02   3.965018665723894E-02   4.052428262479130E-02
   4.141613263034341E-02   4.232604498245276E-02   4.325433154049679E-02
   4.420130768965763E-02   4.516729231274143E-02   4.615260775872040E-02
   4.715757980788428E-02   4.818253763348562E-02   4.922781375976107E-02
   5.029374401620935E-02   5.138066748800436E-02   5.248892646241997E-02
   5.361886637114137E-02   5.477083572833601E-02   5.594518606435532E-02
   5.714227185493693E-02   5.836245044577540E-02   5.960608197232808E-02
   6.087352927472108E-02   6.216515780761948E-02   6.348133554492397E-02
   6.482243287915596E-02   6.618882251539121E-02   6.758087935960222E-02
   6.899898040126799E-02   7.044350459010990E-02   7.191483270681184E-02
   7.341334722758260E-02   7.493943218241823E-02   7.649347300692315E-02
   7.807585638754796E-02   7.968697010010385E-02   8.132720284141357E-02
   8.299694405396045E-02   8.469658374339853E-02   8.642651228878828E-02
   8.818712024542495E-02   8.997879814012853E-02   9.180193625886759E-02
   9.365692442659194E-02   9.554415177915290E-02   9.746400652719392E-02
   9.941687571189843E-02   1.014031449524868E-01   1.034231981853597E-01
   1.054774173947905E-01   1.075661823350763E-01   1.096898702440632E-01
   1.118488555479691E-01   1.140435095574356E-01   1.162742001547477E-01
   1.185412914721717E-01   1.208451435613664E-01   1.231861120538393E-01
   1.255645478124243E-01   1.279807965737727E-01   1.304351985818581E-01
   1.329280882125121E-01   1.354597935890167E-01   1.380306361887945E-01
   1.406409304412530E-01   1.432909833168518E-01   1.459810939074764E-01
   1.487115529982192E-01   1.514826426306823E-01   1.542946356579318E-01
   1.571477952912500E-01   1.600423746388485E-01   1.629786162367170E-01
   1.659567515718020E-01   1.689770005977217E-01   1.720395712432386E-01
   1.751446589137239E-01   1.782924459858599E-01   1.814831012958395E-01
   1.847167796213289E-01   1.879936211574686E-01   1.913137509871945E-01
   1.946772785461628E-01   1.980842970825648E-01   2.015348831121162E-01
   2.050290958684990E-01   2.085669767495293E-01   2.121485487593104E-01
   2.157738159466156E-01   2.194427628397294E-01   2.231553538779497E-01
   2.269115328399284E-01   2.307112222690007E-01   2.345543228956145E-01
   2.384407130569413E-01   2.423702481137067E-01   2.463427598642389E-01
   2.503580559556959E-01   2.544159192923858E-01   2.585161074410601E-01
   2.626583520330220E-01   2.668423581628650E-01   2.710678037836302E-01
   2.753343390981658E-01   2.796415859464712E-01   2.839891371888277E-01
   2.883765560845616E-01   2.928033756663487E-01   2.972690981100667E-01
   3.017731941003315E-01   3.063151021920265E-01   3.108942281683509E-01
   3.155099443961855E-01   3.201615891799064E-01   3.248484661151861E-01
   3.295698434448018E-01   3.343249534190500E-01   3.391129916640533E-01
   3.439331165620605E-01   3.487844486487952E-01   3.536660700340477E-01
   3.585770238530415E-01   3.635163137576957E-01   3.684829034587793E-01
   3.734757163321883E-01   3.784936351052087E-01   3.835355016417557E-01
   3.886001168492511E-01   3.936862407341052E-01   3.987925926377443E-01
   4.039178516908139E-01   4.090606575295386E-01   4.142196113251273E-01
   4.193932771842960E-01   4.245801839859861E-01   4.297788277254169E-01
   4.349876744406146E-01   4.402051637968951E-01   4.454297133992809E-01
   4.506597238887471E-01   4.558935848521261E-01   4.611296815337122E-01
   4.663664022752457E-01   4.716021465268658E-01   4.768353331632711E-01
   4.820644087082855E-01   4.872878549235986E-01   4.925041950663130E-01
   4.977119979852871E-01   5.029098791356770E-01   5.080964975773046E-01
   5.132705481186272E-01   5.184307480002061E-01   5.235758178897829E-01
   5.287044574713333E-01   5.338153165100810E-01   5.389069628945389E-01
   5.439778497065860E-01   5.490262837579029E-01   5.540503981737545E-01
   5.590481314480483E-01   5.640172149215710E-01   5.689551698819396E-01
   5.738593145350031E-01   5.787267800853009E-01   5.835545342465168E-01
   5.883394098340784E-01   5.930781357785699E-01   5.977673679727887E-01
   6.024037177761523E-01   6.069837766320849E-01   6.115041359636435E-01
   6.159614021694051E-01   6.203522070561444E-01   6.246732143789052E-01
   6.289211233187826E-01   6.330926697484481E-01   6.371846260606360E-01
   6.411938002088543E-01   6.451170344666386E-01   6.489512042744050E-01
   6.526932174237758E-01   6.563400137328278E-01   6.598885652918716E-01
   6.633358773053395E-01   6.666789895174557E-01   6.699149781839135E-01
   6.730409585356415E-01   6.760540876713691E-01   6.789515678112471E-01
   6.817306498428242E-01   6.843886370922576E-01   6.869228892569925E-01
   6.893308264407506E-01   6.916099332370835E-01   6.937577628136234E-01
   6.957719409552390E-01   6.976501700303208E-01   6.993902328502249E-01
   7.009899963973222E-01   7.024474154020793E-01   7.037605357540253E-01
   7.049274977353522E-01   7.059465390692338E-01   7.068159977777427E-01
   7.075343148465701E-01   7.081000366956066E-01   7.085118174559254E-01
   7.087684210548512E-01   7.088687231116532E-01   7.088117126470471E-01
   7.085964936101301E-01   7.082222862267009E-01   7.076884281731191E-01
   7.069943755799923E-01   7.061397038700719E-01   7.051241084347759E-01
   7.039474051538008E-01   7.026095307622960E-01   7.011105430700952E-01
   6.994506210375198E-01   6.976300647122793E-01   6.956492950320210E-01
   6.935088534970784E-01   6.912094017179766E-01   6.887517208422864E-01
   6.861367108653839E-01   6.833653898296349E-01   6.804388929164733E-01
   6.773584714357541E-01   6.741254917166496E-01   6.707414339041977E-01
   6.672078906654162E-01   6.635265658086529E-01   6.596992728195487E-01
   6.557279333166480E-01   6.516145754292941E-01   6.473613320999896E-01
   6.429704393129040E-01   6.384442342496407E-01   6.337851533727671E-01
   6.289957304369527E-01   6.240785944268522E-01   6.190364674201414E-01
   6.138721623733409E-01   6.085885808272981E-01   6.031887105284119E-01
   5.976756229609341E-01   5.920524707849536E-01   5.863224851740056E-01
   5.804889730456939E-01   5.745553141782144E-01   5.685249582052676E-01
   5.624014214817660E-01   5.561882838128005E-01   5.498891850384225E-01
   5.435078214673356E-01   5.370479421464655E-01   5.305133449959185E-01
   5.239078727365274E-01   5.172354086763041E-01   5.104998723216979E-01
   5.037052148222796E-01   4.968554142532763E-01   4.899544707430625E-01
   4.830064014555642E-01   4.760152354405127E-01   4.689850083675117E-01
   4.619197571628952E-01   4.548235145712726E-01   4.477003036663913E-01
   4.405541323384354E-01   4.333889877870228E-01   4.262088310509075E-01
   4.190175916066651E-01   4.118191620693963E-01   4.046173930286779E-01
   3.974160880526137E-01   3.902189988918678E-01   3.830298209140272E-01
   3.758521887965472E-01   3.686896725039391E-01   3.615457735718050E-01
   3.544239217168826E-01   3.473274717884994E-01   3.402597010728359E-01
   3.332238069572338E-01   3.262229049575484E-01   3.192600271073076E-01
   3.123381207032849E-01   3.054600473980823E-01   2.986285826265243E-01
   2.918464153491400E-01   2.851161480927764E-01   2.784402972655760E-01
   2.718212937209975E-01   2.652614835434675E-01   2.587631290268047E-01
   2.523284098150765E-01   2.459594241747243E-01   2.396581903666232E-01
   2.334266480866654E-01   2.272666599438334E-01   2.211800129455928E-01
   2.151684199616170E-01   2.092335211383933E-01   2.033768852391141E-01
   1.976000108854346E-01   1.919043276801189E-01   1.862911971922963E-01
   1.807619137899674E-01   1.753177053075012E-01   1.699597335391204E-01
   1.646890945527334E-01   1.595068188219031E-01   1.544138711771961E-01
   1.494111505815771E-01   1.444994897378643E-01   1.396796545394797E-01
   1.349523433787639E-01   1.303181863299364E-01   1.257777442263100E-01
   1.213315076535733E-01   1.169798958828080E-01   1.127232557683543E-01
   1.085618606366810E-01   1.044959091930206E-01   1.005255244726950E-01
   9.665075286379007E-02   9.287156322714472E-02   8.918784613852468E-02
   8.559941327638576E-02   8.210599697682706E-02   7.870724997523963E-02
   7.540274535181174E-02   7.219197669551536E-02   6.907435849851364E-02
   6.604922679015454E-02   6.311584001689845E-02   6.027338017171616E-02
   5.752095417373406E-02   5.485759549623554E-02   5.228226603858582E-02
   4.979385823526520E-02   4.739119739299456E-02   4.507304424493866E-02
   4.283809770919079E-02   4.068499783718550E-02   3.861232893635929E-02
   3.661862285028338E-02   3.470236237862184E-02   3.286198481862020E-02
   3.109588560939044E-02   2.940242206001987E-02   2.777991714247915E-02
   2.622666333042521E-02   2.474092646527220E-02   2.332094963132370E-02
   2.196495702230536E-02   2.067115778229467E-02   1.943774980479762E-02
   1.826292347455756E-02   1.714486533758385E-02   1.608176168584581E-02
   1.507180204407759E-02   1.411318254717081E-02   1.320410919768435E-02
   1.234280099406362E-02   1.152749292122806E-02   1.075643879624579E-02
   1.002791396286308E-02   9.340217829685520E-03   8.691676247813557E-03
   8.080643724711315E-03   7.505505472030835E-03   6.964679286020115E-03
   6.456617260007646E-03   5.979807329293943E-03   5.532774649489968E-03
   5.114082810290796E-03   4.722334886955793E-03   4.356174332780060E-03
   4.014285716341821E-03   3.695395307719206E-03   3.398271518435385E-03
   3.121725200333663E-03   2.864609808960593E-03   2.625821437373353E-03
   2.404298726577961E-03   2.199022659048546E-03   2.009016241975149E-03
   1.833344087047469E-03   1.671111893663347E-03   1.521465842613724E-03
   1.383591907153853E-03   1.256715088526511E-03   1.140098582922848E-03
   1.033042886735488E-03   9.348848468845138E-04   8.449966628621671E-04
   7.627848469670228E-04   6.876891490363177E-04   6.191814516930794E-04
   5.567646414016895E-04   4.999714950016085E-04   4.483631593366310E-04
   4.015304306438579E-04   3.590836232757603E-04   3.206712809570731E-04
   2.859668532772252E-04   2.546582727540251E-04   2.264531145969183E-04
   2.010800657688209E-04   1.782877745324422E-04   1.578437314851001E-04
   1.395331835230912E-04   1.231580820949350E-04   1.085360668770779E-04
   9.549948579196646E-05   8.389445207832048E-05   7.357993891769596E-05
   6.442691192066975E-05   5.631749958060732E-05   4.914420161318578E-05
   4.280913491571486E-05   3.722331670100806E-05   3.230598418656065E-05
   2.798395004817849E-05   2.419099267795066E-05   2.086728011676849E-05
   1.795882635815405E-05   1.541697853937548E-05   1.319793334271220E-05
   1.126228071664226E-05   9.574572793230456E-06   8.102915705735615E-06
   6.818579040220608E-06   5.695647658683856E-06   4.710532899277462E-06
   3.845371695382325E-06   3.063300876214939E-06   0.000000000000000E+00
   0.000000000000000E+00   0.000000000000000E+00   0.000000000000000E+00
   0.000000000000000E+00   0.000000000000000E+00   0.000000000000000E+00
   0.000000000000000E+00   0.000000000000000E+00   0.000000000000000E+00
   0.000000000000000E+00   0.000000000000000E+00   0.000000000000000E+00
   0.000000000000000E+00   0.000000000000000E+00   0.000000000000000E+00
   0.000000000000000E+00   0.000000000000000E+00   0.000000000000000E+00
   0.000000000000000E+00   0.000000000000000E+00   0.000000000000000E+00
   0.000000000000000E+00   0.000000000000000E+00   0.000000000000000E+00
   0.000000000000000E+00   0.000000000000000E+00   0.000000000000000E+00
   0.000000000000000E+00   0.000000000000000E+00   0.000000000000000E+00
   0.000000000000000E+00   0.000000000000000E+00   0.000000000000000E+00
   0.000000000000000E+00   0.000000000000000E+00   0.000000000000000E+00
   0.000000000000000E+00   0.000000000000000E+00   0.000000000000000E+00
   0.000000000000000E+00   0.000000000000000E+00   0.000000000000000E+00
   0.000000000000000E+00   0.000000000000000E+00   0.000000000000000E+00
   0.000000000000000E+00   0.000000000000000E+00   0.000000000000000E+00
   0.000000000000000E+00   0.000000000000000E+00   0.000000000000000E+00
   0.000000000000000E+00   0.000000000000000E+00   0.000000000000000E+00
   0.000000000000000E+00   0.000000000000000E+00   0.000000000000000E+00
   0.000000000000000E+00   0.000000000000000E+00   0.000000000000000E+00
   0.000000000000000E+00   0.000000000000000E+00   0.000000000000000E+00
   0.000000000000000E+00   0.000000000000000E+00   0.000000000000000E+00
   0.000000000000000E+00   0.000000000000000E+00   0.000000000000000E+00
   0.000000000000000E+00   0.000000000000000E+00   0.000000000000000E+00
   0.000000000000000E+00   0.000000000000000E+00   0.000000000000000E+00
   0.000000000000000E+00   0.000000000000000E+00   0.000000000000000E+00
   0.000000000000000E+00   0.000000000000000E+00   0.000000000000000E+00
   0.000000000000000E+00   0.000000000000000E+00   0.000000000000000E+00
   0.000000000000000E+00   0.000000000000000E+00   0.000000000000000E+00
   0.000000000000000E+00   0.000000000000000E+00   0.000000000000000E+00
   0.000000000000000E+00   0.000000000000000E+00   0.000000000000000E+00
   0.000000000000000E+00   0.000000000000000E+00   0.000000000000000E+00
   0.000000000000000E+00   0.000000000000000E+00   0.000000000000000E+00
   0.000000000000000E+00   0.000000000000000E+00   0.000000000000000E+00
   0.000000000000000E+00   0.000000000000000E+00   0.000000000000000E+00
   0.000000000000000E+00   0.000000000000000E+00   0.000000000000000E+00
   0.000000000000000E+00   0.000000000000000E+00   0.000000000000000E+00
   0.000000000000000E+00   0.000000000000000E+00   0.000000000000000E+00
   0.000000000000000E+00   0.000000000000000E+00   0.000000000000000E+00
   0.000000000000000E+00   0.000000000000000E+00   0.000000000000000E+00
   0.000000000000000E+00   0.000000000000000E+00
    </PP_AEWFC.3>
    <PP_AEWFC.4 index="4" label="2P" l="1">
   1.737873892004099E-07   1.774445195556932E-07   1.811786094791999E-07
   1.849912784852937E-07   1.888902500596164E-07   1.928902196857446E-07
   1.969901393251835E-07   2.011929437231416E-07   2.055009794766303E-07
   2.099166633793914E-07   2.144424688605964E-07   2.190809306970143E-07
   2.238346907705210E-07   2.287064378225852E-07   2.336988105659192E-07
   2.388145776871642E-07   2.440566633549324E-07   2.494280092422453E-07
   2.549316431081609E-07   2.605706801520013E-07   2.663483073108130E-07
   2.722677863243661E-07   2.783324626516422E-07   2.845457694984296E-07
   2.909112204482298E-07   2.974324190325903E-07   3.041130689372338E-07
   3.109569610020688E-07   3.179679723578134E-07   3.251500826757767E-07
   3.325073790219749E-07   3.400440462180619E-07   3.477643686700381E-07
   3.556727417332037E-07   3.637736691596209E-07   3.720717674800780E-07
   3.805717684803112E-07   3.892785220809720E-07   3.981969992152472E-07
   4.073322951883612E-07   4.166896340352152E-07   4.262743694026965E-07
   4.360919843166161E-07   4.461481020689786E-07   4.564484884837395E-07
   4.669990479900691E-07   4.778058330814421E-07   4.888750478006119E-07
   5.002130509997305E-07   5.118263643141532E-07   5.237216681751207E-07
   5.359058078736823E-07   5.483858057610501E-07   5.611688563026386E-07
   5.742623310975804E-07   5.876737874065987E-07   6.014109702528248E-07
   6.154818179123851E-07   6.298944665900328E-07   6.446572553842297E-07
   6.597787313457342E-07   6.752676546641160E-07   6.911330039958349E-07
   7.073839819207314E-07   7.240300205354247E-07   7.410807871894455E-07
   7.585461903645624E-07   7.764363857024817E-07   7.947617821841778E-07
   8.135330484646824E-07   8.327611193669588E-07   8.524572025391798E-07
   8.726327852768073E-07   8.932996415387356E-07   9.144698391796854E-07
   9.361557471604460E-07   9.583700429310150E-07   9.811257205235855E-07
   1.004436098314531E-06   1.028314827022160E-06   1.052775898390130E-06
   1.077833653708150E-06   1.103502792220006E-06   1.129798380238494E-06
   1.156735860320220E-06   1.184331060538175E-06   1.212600204409485E-06
   1.241559920659173E-06   1.271227253417748E-06   1.301619672622156E-06
   1.332755084686545E-06   1.364651843441026E-06   1.397328761344979E-06
   1.430805120981871E-06   1.465100686842997E-06   1.500235717407060E-06
   1.536230977523165E-06   1.573107751104759E-06   1.610887854142323E-06
   1.649593648042806E-06   1.689248053303961E-06   1.729874563531996E-06
   1.771497259811109E-06   1.814140825433737E-06   1.857830561000529E-06
   1.902592399899308E-06   1.948452924172513E-06   1.995439380782828E-06
   2.043579698286969E-06   2.092902503927835E-06   2.143437141155500E-06
   2.195213687587766E-06   2.248262973421267E-06   2.302616600304399E-06
   2.358306960683623E-06   2.415367257634963E-06   2.473831525192860E-06
   2.533734649188783E-06   2.595112388612347E-06   2.658001397508009E-06
   2.722439247420705E-06   2.788464450404154E-06   2.856116482605896E-06
   2.925435808443431E-06   2.996463905386274E-06   3.069243289359078E-06
   3.143817540780931E-06   3.220231331254958E-06   3.298530450925373E-06
   3.378761836582430E-06   3.460973600111781E-06   3.545215056560408E-06
   3.631536755551600E-06   3.719990516509075E-06   3.810629458857687E-06
   3.903508032486016E-06   3.998682045602998E-06   4.096208700882605E-06
   4.196146638823168E-06   4.298555968913558E-06   4.403498305073327E-06
   4.511036805013016E-06   4.621236208301054E-06   4.734162876112229E-06
   4.849884831860546E-06   4.968471802852299E-06   5.089995262979234E-06
   5.214528476481383E-06   5.342146542802862E-06   5.472926442569114E-06
   5.606947084713201E-06   5.744289354779753E-06   5.885036164435832E-06
   6.029272502218692E-06   6.177085485551145E-06   6.328564414056079E-06
   6.483800824202385E-06   6.642888545315281E-06   6.805923756984958E-06
   6.973005047908224E-06   7.144233476198707E-06   7.319712631202071E-06
   7.499548696853539E-06   7.683850516615936E-06   7.872729660037474E-06
   8.066300490969384E-06   8.264680237484580E-06   8.467989063539361E-06
   8.676350142421428E-06   8.889889732028400E-06   9.108737252022084E-06
   9.333025362904990E-06   9.562890047066538E-06   9.798470691847744E-06
   1.003991017467425E-05   1.028735495030880E-05   1.054095514027556E-05
   1.080086462450984E-05   1.106724113528831E-05   1.134024635349585E-05
   1.162004600728675E-05   1.190680997319938E-05   1.220071237978475E-05
   1.250193171381091E-05   1.281065092910679E-05   1.312705755811045E-05
   1.345134382618821E-05   1.378370676879313E-05   1.412434835153241E-05
   1.447347559321563E-05   1.483130069195679E-05   1.519804115440547E-05
   1.557391992818386E-05   1.595916553760851E-05   1.635401222277740E-05
   1.675870008210493E-05   1.717347521838956E-05   1.759858988850055E-05
   1.803430265677261E-05   1.848087855219951E-05   1.893858922951937E-05
   1.940771313428726E-05   1.988853567203249E-05   2.038134938160066E-05
   2.088645411278270E-05   2.140415720833579E-05   2.193477369050350E-05
   2.247862645214491E-05   2.303604645258525E-05   2.360737291830347E-05
   2.419295354857438E-05   2.479314472618650E-05   2.540831173335895E-05
   2.603882897298422E-05   2.668508019532649E-05   2.734745873030798E-05
   2.802636772551953E-05   2.872222039009431E-05   2.943544024458717E-05
   3.016646137700541E-05   3.091572870514031E-05   3.168369824535218E-05
   3.247083738796526E-05   3.327762517943275E-05   3.410455261143579E-05
   3.495212291708428E-05   3.582085187439110E-05   3.671126811719558E-05
   3.762391345371636E-05   3.855934319291742E-05   3.951812647887608E-05
   4.050084663334584E-05   4.150810150671118E-05   4.254050383753692E-05
   4.359868162091846E-05   4.468327848584473E-05   4.579495408179048E-05
   4.693438447475928E-05   4.810226255300425E-05   4.929929844265854E-05
   5.052621993351280E-05   5.178377291518296E-05   5.307272182391644E-05
   5.439385010029167E-05   5.574796065807075E-05   5.713587636447167E-05
   5.855844053213236E-05   6.001651742304548E-05   6.151099276474865E-05
   6.304277427906209E-05   6.461279222367170E-05   6.622199994686298E-05
   6.787137445571768E-05   6.956191699809258E-05   7.129465365870694E-05
   7.307063596967250E-05   7.489094153580770E-05   7.675667467508538E-05
   7.866896707457118E-05   8.062897846221825E-05   8.263789729489126E-05
   8.469694146300244E-05   8.680735901214975E-05   8.897042888215676E-05
   9.118746166392265E-05   9.345980037449979E-05   9.578882125082570E-05
   9.817593456254591E-05   1.006225854443736E-04   1.031302547484424E-04
   1.057004599171178E-04   1.083347558767448E-04   1.110347359528175E-04
   1.138020328070691E-04   1.166383193969914E-04   1.195453099583022E-04
   1.225247610108935E-04   1.255784723888031E-04   1.287082882947627E-04
   1.319160983798920E-04   1.352038388491154E-04   1.385734935928951E-04
   1.420270953458833E-04   1.455667268731118E-04   1.491945221843510E-04
   1.529126677772797E-04   1.567234039101266E-04   1.606290259044552E-04
   1.646318854787764E-04   1.687343921136929E-04   1.729390144492896E-04
   1.772482817155010E-04   1.816647851962025E-04   1.861911797277880E-04
   1.908301852330102E-04   1.955845882908805E-04   2.004572437434365E-04
   2.054510763402067E-04   2.105690824212155E-04   2.158143316393927E-04
   2.211899687232642E-04   2.266992152808250E-04   2.323453716455073E-04
   2.381318187651816E-04   2.440620201351408E-04   2.501395237760436E-04
   2.563679642578065E-04   2.627510647704582E-04   2.692926392429883E-04
   2.759965945112429E-04   2.828669325359402E-04   2.899077526719018E-04
   2.971232539896143E-04   3.045177376502608E-04   3.120956093353795E-04
   3.198613817323350E-04   3.278196770768039E-04   3.359752297535052E-04
   3.443328889564249E-04   3.528976214098116E-04   3.616745141512400E-04
   3.706687773780676E-04   3.798857473586306E-04   3.893308894095535E-04
   3.990098009405688E-04   4.089282145682717E-04   4.190920013002588E-04
   4.295071737911255E-04   4.401798896718254E-04   4.511164549539206E-04
   4.623233275102765E-04   4.738071206337871E-04   4.855746066757396E-04
   4.976327207654571E-04   5.099885646128869E-04   5.226494103958279E-04
   5.356227047335224E-04   5.489160727483634E-04   5.625373222174999E-04
   5.764944478161496E-04   5.907956354544612E-04   6.054492667097950E-04
   6.204639233563209E-04   6.358483919938661E-04   6.516116687779692E-04
   6.677629642531340E-04   6.843117082913013E-04   7.012675551375917E-04
   7.186403885653995E-04   7.364403271429514E-04   7.546777296134728E-04
   7.733632003911345E-04   7.925075951749857E-04   8.121220266831073E-04
   8.322178705092528E-04   8.528067711042699E-04   8.739006478846337E-04
   8.955117014704443E-04   9.176524200552797E-04   9.403355859103164E-04
   9.635742820251697E-04   9.873818988879236E-04   1.011772141406860E-03
   1.036759035976417E-03   1.062356937689945E-03   1.088580537701836E-03
   1.115444870741666E-03   1.142965322782964E-03   1.171157638869311E-03
   1.200037931100435E-03   1.229622686781047E-03   1.259928776735141E-03
   1.290973463788545E-03   1.322774411422499E-03   1.355349692601084E-03
   1.388717798775320E-03   1.422897649066808E-03   1.457908599633757E-03
   1.493770453222312E-03   1.530503468906066E-03   1.568128372016684E-03
   1.606666364268572E-03   1.646139134080523E-03   1.686568867097304E-03
   1.727978256914139E-03   1.770390516007055E-03   1.813829386872066E-03
   1.858319153376163E-03   1.903884652323089E-03   1.950551285236875E-03
   1.998345030366098E-03   2.047292454911820E-03   2.097420727482175E-03
   2.148757630776529E-03   2.201331574502146E-03   2.255171608526269E-03
   2.310307436266496E-03   2.366769428322321E-03   2.424588636350673E-03
   2.483796807188258E-03   2.544426397223464E-03   2.606510587020584E-03
   2.670083296199019E-03   2.735179198570113E-03   2.801833737534217E-03
   2.870083141740511E-03   2.939964441012053E-03   3.011515482538473E-03
   3.084774947338648E-03   3.159782366995619E-03   3.236578140665932E-03
   3.315203552365498E-03   3.395700788533977E-03   3.478112955879581E-03
   3.562484099506103E-03   3.648859221323849E-03   3.737284298746041E-03
   3.827806303672133E-03   3.920473221759352E-03   4.015334071983612E-03
   4.112438926490844E-03   4.211838930739572E-03   4.313586323935462E-03
   4.417734459758335E-03   4.524337827381998E-03   4.633452072787044E-03
   4.745134020366542E-03   4.859441694824374E-03   4.976434343365710E-03
   5.096172458178917E-03   5.218717799207918E-03   5.344133417213799E-03
   5.472483677124169E-03   5.603834281668521E-03   5.738252295297530E-03
   5.875806168383949E-03   6.016565761702436E-03   6.160602371185306E-03
   6.307988752950879E-03   6.458799148600742E-03   6.613109310781859E-03
   6.770996529009084E-03   6.932539655743238E-03   7.097819132719506E-03
   7.266917017520460E-03   7.439917010387563E-03   7.616904481264610E-03
   7.797966497065977E-03   7.983191849162173E-03   8.172671081074558E-03
   8.366496516370656E-03   8.564762286750901E-03   8.767564360317058E-03
   8.975000570012043E-03   9.187170642220185E-03   9.404176225516410E-03
   9.626120919552113E-03   9.853110304064898E-03   1.008525196799859E-02
   1.032265553871929E-02   1.056543271131245E-02   1.081369727794520E-02
   1.106756515727750E-02   1.132715442390464E-02   1.159258533781304E-02
   1.186398037383034E-02   1.214146425104987E-02   1.242516396220881E-02
   1.271520880299826E-02   1.301173040128265E-02   1.331486274620500E-02
   1.362474221715314E-02   1.394150761256167E-02   1.426530017852267E-02
   1.459626363717760E-02   1.493454421486157E-02   1.528029066996990E-02
   1.563365432051602E-02   1.599478907134828E-02   1.636385144099227E-02
   1.674100058808387E-02   1.712639833735710E-02   1.752020920514938E-02
   1.792260042438569E-02   1.833374196900172E-02   1.875380657776455E-02
   1.918296977744832E-02   1.962140990532057E-02   2.006930813089393E-02
   2.052684847689561E-02   2.099421783940674E-02   2.147160600712082E-02
   2.195920567967000E-02   2.245721248496578E-02   2.296582499549922E-02
   2.348524474354418E-02   2.401567623520535E-02   2.455732696325130E-02
   2.511040741867076E-02   2.567513110088901E-02   2.625171452657910E-02
   2.684037723700116E-02   2.744134180380111E-02   2.805483383319816E-02
   2.868108196848888E-02   2.932031789079358E-02   2.997277631796897E-02
   3.063869500160910E-02   3.131831472205463E-02   3.201187928132888E-02
   3.271963549391657E-02   3.344183317530002E-02   3.417872512816479E-02
   3.493056712618554E-02   3.569761789530037E-02   3.648013909238033E-02
   3.727839528119857E-02   3.809265390560188E-02   3.892318525978519E-02
   3.977026245556788E-02   4.063416138656874E-02   4.151516068917453E-02
   4.241354170019505E-02   4.332958841109630E-02   4.426358741870069E-02
   4.521582787224215E-02   4.618660141666200E-02   4.717620213202947E-02
   4.818492646896965E-02   4.921307317997948E-02   5.026094324651117E-02
   5.132883980170094E-02   5.241706804861936E-02   5.352593517391852E-02
   5.465575025674975E-02   5.580682417282463E-02   5.697946949349102E-02
   5.817400037969476E-02   5.939073247069689E-02   6.062998276741586E-02
   6.189206951026325E-02   6.317731205134131E-02   6.448603072087070E-02
   6.581854668771618E-02   6.717518181387876E-02   6.855625850282257E-02
   6.996209954150603E-02   7.139302793598679E-02   7.284936674047163E-02
   7.433143887968366E-02   7.583956696442028E-02   7.737407310017796E-02
   7.893527868872131E-02   8.052350422247671E-02   8.213906907163383E-02
   8.378229126384081E-02   8.545348725638302E-02   8.715297170073902E-02
   8.888105719941132E-02   9.063805405493469E-02   9.242427001096962E-02
   9.424000998539403E-02   9.608557579531257E-02   9.796126587390898E-02
   9.986737497907416E-02   1.018041938937501E-01   1.037720091179371E-01
   1.057711025523209E-01   1.078017511734844E-01   1.098642267006784E-01
   1.119587952541361E-01   1.140857170049240E-01   1.162452458163362E-01
   1.184376288768465E-01   1.206631063246463E-01   1.229219108638073E-01
   1.252142673721204E-01   1.275403925006729E-01   1.299004942652409E-01
   1.322947716295844E-01   1.347234140807448E-01   1.371866011964586E-01
   1.396845022048103E-01   1.422172755362624E-01   1.447850683682077E-01
   1.473880161622036E-01   1.500262421940534E-01   1.526998570769116E-01
   1.554089582775955E-01   1.581536296262923E-01   1.609339408198526E-01
   1.637499469188693E-01   1.666016878387322E-01   1.694891878348568E-01
   1.724124549822715E-01   1.753714806497478E-01   1.783662389686433E-01
   1.813966862966161E-01   1.844627606763520E-01   1.875643812894280E-01
   1.907014479054112E-01   1.938738403262678E-01   1.970814178261290E-01
   2.003240185864293E-01   2.036014591263998E-01   2.069135337288667E-01
   2.102600138612680E-01   2.136406475917712E-01   2.170551590003388E-01
   2.205032475845619E-01   2.239845876600574E-01   2.274988277552061E-01
   2.310455900000027E-01   2.346244695087902E-01   2.382350337566716E-01
   2.418768219494265E-01   2.455493443868168E-01   2.492520818192505E-01
   2.529844847978832E-01   2.567459730183826E-01   2.605359346587681E-01
   2.643537257119671E-01   2.681986693140123E-01   2.720700550691456E-01
   2.759671383735040E-01   2.798891397395465E-01   2.838352441239594E-01
   2.878046002624584E-01   2.917963200157092E-01   2.958094777315340E-01
   2.998431096296933E-01   3.038962132168501E-01   3.079677467408918E-01
   3.120566286956318E-01   3.161617373891074E-01   3.202819105912741E-01
   3.244159452799399E-01   3.285625975073367E-01   3.327205824138367E-01
   3.368885744200032E-01   3.410652076333911E-01   3.452490765121776E-01
   3.494387368335770E-01   3.536327070206894E-01   3.578294698863188E-01
   3.620274748554295E-01   3.662251407279707E-01   3.704208590389810E-01
   3.746129980609058E-01   3.787999074711519E-01   3.829799236729483E-01
   3.871513757064791E-01   3.913125916174292E-01   3.954619050603607E-01
   3.995976618061437E-01   4.037182257013173E-01   4.078219835033957E-01
   4.119073479065454E-01   4.159727579995918E-01   4.200166763899346E-01
   4.240375823098343E-01   4.280339602167580E-01   4.320042837148441E-01
   4.359469950477645E-01   4.398604809083989E-01   4.437430458195616E-01
   4.475928847891775E-01   4.514080572558775E-01   4.551864644499714E-01
   4.589258321559136E-01   4.626237004645841E-01   4.662774214762454E-01
   4.698841651300776E-01   4.734409325034071E-01   4.769445751739617E-01
   4.803918186963190E-01   4.837792879959879E-01   4.871035325558299E-01
   4.903610496160422E-01   4.935483041342260E-01   4.966617448378645E-01
   4.996978162407815E-01   5.026529669152695E-01   5.055236545822169E-01
   5.083063487086775E-01   5.109975313148363E-01   5.135936966279279E-01
   5.160913501151383E-01   5.184870073088252E-01   5.207771927240002E-01
   5.229584390699294E-01   5.250272868786193E-01   5.269802846125804E-01
   5.288139892702545E-01   5.305249674767613E-01   5.321097970271357E-01
   5.335650688363678E-01   5.348873892432483E-01   5.360733826117275E-01
   5.371196941730511E-01   5.380229930535415E-01   5.387799754359329E-01
   5.393873678061942E-01   5.398419302424344E-01   5.401404597074906E-01
   5.402797933119237E-01   5.402568115192037E-01   5.400684412697040E-01
   5.397116590046372E-01   5.391834935751706E-01   5.384810290256211E-01
   5.376014072428194E-01   5.365418304664618E-01   5.352995636575545E-01
   5.338719367239296E-01   5.322563466033295E-01   5.304502592057386E-01
   5.284512112175643E-01   5.262568117709578E-01   5.238647439820663E-01
   5.212727663623721E-01   5.184787141075131E-01   5.154805002681426E-01
   5.122761168074835E-01   5.088636355502842E-01   5.052412090279095E-01
   5.014070712243053E-01   4.973595382275675E-01   4.930970087918288E-01
   4.886179648141568E-01   4.839209717311269E-01   4.790046788396975E-01
   4.738678195469592E-01   4.685092115532703E-01   4.629277569732314E-01
   4.571224423988493E-01   4.510923389091083E-01   4.448366020300281E-01
   4.383544716491073E-01   4.316452718878437E-01   4.247084109357777E-01
   4.175433808492245E-01   4.101497573175481E-01   4.025271993994756E-01
   3.946754492315723E-01   3.865943317105827E-01   3.782837541509045E-01
   3.697437059180123E-01   3.609742580381758E-01   3.519755627843594E-01
   3.427478532377302E-01   3.332914428237823E-01   3.236067248216966E-01
   3.136941718452382E-01   3.035543352932514E-01   2.931878447676807E-01
   2.825954074570418E-01   2.717778074834143E-01   2.607359052113634E-01
   2.494706365177425E-01   2.379830120220974E-01   2.262741162783847E-01
   2.143451069300719E-01   2.021972138322913E-01   1.898317381465579E-01
   1.772500514157885E-01   1.644535946298772E-01   1.514438772948345E-01
   1.382224765214900E-01   1.247910361530376E-01   1.111512659541076E-01
   9.730494088745928E-02   8.325390050789683E-02   6.900004850641749E-02
   5.454535244079836E-02   3.989184369175173E-02   2.504161768629084E-02
   9.996834431945106E-03  -5.240280593167368E-03  -2.066743514876167E-02
  -3.628226849383438E-02  -5.208234915674793E-02  -6.806517217159394E-02
  -8.422815574150389E-02  -1.005686372936103E-01  -1.170838688953932E-01
  -1.337710120081453E-01  -1.506271315601956E-01  -1.676491893302661E-01
  -1.848340366398078E-01  -2.021784063622432E-01  -2.196789042666165E-01
  -2.373319997230758E-01  -2.551340158077338E-01  -2.730811188546364E-01
  -2.911693075126497E-01  -3.093944013749240E-01  -3.277520292580462E-01
  -3.462376172169339E-01  -3.648463763898071E-01  -3.835732907750870E-01
  -4.024131050486955E-01  -4.213603125358597E-01  -4.404091434560662E-01
  -4.595535535631592E-01  -4.787872133046185E-01  -4.981034976248701E-01
  -5.174954765368911E-01  -5.369559065838899E-01  -5.564772233092703E-01
  -5.760515348482238E-01  -5.956706167469827E-01  -6.153259081073447E-01
  -6.350085091442099E-01  -6.547091802320617E-01  -6.744183425032088E-01
  -6.941260800459864E-01  -7.138221437351826E-01  -7.334959567098512E-01
  -7.531366214955841E-01  -7.727329287494478E-01  -7.922733675864104E-01
  -8.117461374264755E-01  -8.311391612821968E-01  -8.504401003871290E-01
  -8.696363700473866E-01  -8.887151565812083E-01  -9.076634351955887E-01
  -9.264679886349584E-01  -9.451154264248869E-01  -9.635922045240783E-01
  -9.818846451907751E-01  -9.999789568652061E-01  -1.017861253868031E+00
  -1.035517575715876E+00  -1.052933905858976E+00  -1.070096189652593E+00
  -1.086990351383034E+00  -1.103602310180636E+00  -1.119917994665699E+00
  -1.135923356188755E+00  -1.151604380543513E+00  -1.166947098048847E+00
  -1.181937591915167E+00  -1.196562004829882E+00  -1.210806543716326E+00
  -1.224657482639987E+00  -1.238101163855089E+00  -1.251123997003096E+00
  -1.263712456492556E+00  -1.275853077106512E+00  -1.287532447899560E+00
  -1.298737204461285E+00  -1.309454019636361E+00  -1.319669592803893E+00
  -1.329370637829797E+00  -1.338543869816041E+00  -1.347175990779591E+00
  -1.355253674401915E+00  -1.362763549997083E+00  -1.369692185852842E+00
  -1.376026072104751E+00  -1.381751603308636E+00  -1.386855060881273E+00
  -1.391322595583588E+00  -1.395140210224746E+00  -1.398293742769475E+00
  -1.400768850034819E+00  -1.402550992166474E+00  -1.403625418088787E+00
  -1.403977152126645E+00  -1.403590982001784E+00  -1.402451448410544E+00
  -1.400542836394901E+00  -1.397849168723579E+00  -1.394354201505380E+00
  -1.390041422262370E+00  -1.384894050696364E+00  -1.378895042388117E+00
  -1.372027095674832E+00  -1.364272661957815E+00  -1.355613959698556E+00
  -1.346032992367772E+00  -1.335511570618329E+00  -1.324031338958986E+00
  -1.311573807211830E+00  -1.298120387041699E+00  -1.283652433850897E+00
  -1.268151294339080E+00  -1.251598360029906E+00  -1.233975127051320E+00
  -1.215263262488804E+00  -1.195444677647354E+00  -1.174501608468615E+00
  -1.152416703444341E+00  -1.129173119308670E+00  -1.104754624801816E+00
  -1.079145712784720E+00  -1.052331720972301E+00  -1.024298961537599E+00
  -9.950348598203814E-01  -9.645281023513527E-01  -9.327687943789683E-01
  -8.997486270528892E-01  -8.654610543639023E-01  -8.299014799321093E-01
  -7.930674537053286E-01  -7.549588784828790E-01  -7.155782262248375E-01
  -6.749307639825954E-01  -6.330247892307451E-01  -5.898718742942290E-01
  -5.454871194742258E-01  -4.998894143760343E-01  -4.531017068340533E-01
  -4.051512786899269E-01  -3.560700274615309E-01  -3.058968970053670E-01
  -2.546824994180277E-01  -2.024792470453993E-01  -1.493322877217811E-01
  -9.530022975837271E-02  -4.044598999334795E-02   1.516031878025299E-02
   7.144147862156462E-02   1.283128734194912E-01   1.856822352935625E-01
   2.434494074435595E-01   3.015061255283511E-01   3.597358212850673E-01
   4.180134521934845E-01   4.762053612953249E-01   5.341691715667766E-01
   5.917537195328991E-01   6.487990331004159E-01   7.051363588677453E-01
   7.605882444450314E-01   8.149686815723342E-01   8.680833160609863E-01
   9.197297308036175E-01   9.696978082713077E-01   1.017770179062615E+00
   1.063722763162587E+00   1.107325410609014E+00   1.148342648236552E+00
   1.186534539067010E+00   1.221657660724857E+00   1.253466208969014E+00
   1.281713232032664E+00   1.306152000938869E+00   1.326537520297454E+00
   1.342628183273585E+00   1.354187573436157E+00   1.360986415029876E+00
   1.362804671854029E+00   1.359433793359366E+00   1.350679104778647E+00
   1.336362336073353E+00   1.316324282198275E+00   1.290427584649122E+00
   1.258559621456796E+00   1.220635489725353E+00   1.176601061477672E+00
   1.126436089979513E+00   1.070157339869596E+00   1.007821710347943E+00
   9.395293163914957E-01   8.654264885081974E-01   7.857086469507170E-01
   7.006230016420318E-01   6.104710243819313E-01   5.156106352837377E-01
   4.164580409254224E-01   3.134891574948196E-01   2.072405483861662E-01
   9.830980240216264E-02  -1.264472391415246E-02  -1.249048780801381E-01
  -2.376944766269699E-01  -3.501819417535523E-01  -4.614838863123126E-01
  -5.706697201722738E-01  -6.767673455156682E-01  -7.787700009943677E-01
  -8.756443046646463E-01  -9.663395330033411E-01  -1.049798157869732E+00
  -1.124967644822912E+00  -1.190813494574723E+00  -1.246333484438762E+00
  -1.290573038369710E+00  -1.322641622589018E+00  -1.341730028965698E+00
  -1.347128370471095E+00  -1.338244572482589E+00  -1.314623100940845E+00
  -1.275963623993286E+00  -1.222139258581427E+00  -1.153214008439314E+00
  -1.069458956354043E+00  -9.713667326974994E-01  -8.596637457862134E-01
  -7.353196293912773E-01  -5.995533407321780E-01  -4.538353307586631E-01
  -2.998852098146794E-01  -1.396643483540478E-01   2.463711325096855E-02
   1.906193171226543E-01   3.556981965612572E-01   5.171377330559899E-01
   6.720891252355378E-01   8.176368772744026E-01   9.508516300298667E-01
   1.068849346187734E+00   1.168856222416430E+00   1.248278439724027E+00
   1.304775582115696E+00   1.336336259155987E+00   1.341354167864957E+00
   1.318702533166139E+00   1.267804585493608E+00   1.188697482758920E+00
   1.082086877129152E+00   9.493891820358007E-01   7.927585298098047E-01
   6.150954442935997E-01   4.200344046533616E-01   2.119077643913325E-01
  -4.316070826650356E-03  -2.231216988730955E-01  -4.385637264918041E-01
  -6.444114905411338E-01  -8.343201447202520E-01  -1.002025494193252E+00
  -1.141558570653080E+00  -1.247474468152449E+00  -1.315088459435917E+00
  -1.340710951489877E+00  -1.321871499186227E+00  -1.257520971196855E+00
  -1.148200156716838E+00  -9.961627251052355E-01  -8.054406145653529E-01
  -5.818407361005136E-01  -3.328634271518281E-01  -6.753544434245899E-02
   2.038465182470540E-01   4.700617694377115E-01   7.193962075016728E-01
   9.401473074357392E-01   1.121187398258628E+00   1.252563104310156E+00
   1.326103018914271E+00   1.336000513908642E+00   1.279334552808551E+00
   1.156488991861559E+00   9.714306478697077E-01   7.318088718128705E-01
   4.488448920227738E-01   1.369880340538062E-01  -1.866718642442046E-01
  -5.032311589003630E-01  -7.930155542195844E-01  -1.036797299492181E+00
  -1.217123792416270E+00  -1.319675821588150E+00  -1.334557530870726E+00
  -1.257409093070573E+00  -1.090229144421364E+00  -8.417991920616661E-01
  -5.276179899627823E-01  -1.692811293138464E-01
    </PP_AEWFC.4>
    <PP_PSWFC.1 size="1073" index="1" label="2S" l="0">
  -1.579966324285531E-04  -1.599839853905716E-04  -1.619963361746547E-04
  -1.640339992146627E-04  -1.660972928995461E-04  -1.681865396230940E-04
  -1.703020658343085E-04  -1.724442020884136E-04  -1.746132830985042E-04
  -1.768096477878469E-04  -1.790336393428360E-04  -1.812856052666179E-04
  -1.835658974333884E-04  -1.858748721433744E-04  -1.882128901785061E-04
  -1.905803168587898E-04  -1.929775220993898E-04  -1.954048804684281E-04
  -1.978627712455116E-04  -2.003515784809956E-04  -2.028716910559915E-04
  -2.054235027431305E-04  -2.080074122680913E-04  -2.106238233719019E-04
  -2.132731448740245E-04  -2.159557907362340E-04  -2.186721801273011E-04
  -2.214227374884871E-04  -2.242078925998641E-04  -2.270280806474693E-04
  -2.298837422913025E-04  -2.327753237341806E-04  -2.357032767914575E-04
  -2.386680589616208E-04  -2.416701334977771E-04  -2.447099694800353E-04
  -2.477880418888017E-04  -2.509048316789963E-04  -2.540608258552026E-04
  -2.572565175477635E-04  -2.604924060898325E-04  -2.637689970953963E-04
  -2.670868025382774E-04  -2.704463408321302E-04  -2.738481369114456E-04
  -2.772927223135709E-04  -2.807806352617641E-04  -2.843124207492923E-04
  -2.878886306245871E-04  -2.915098236774728E-04  -2.951765657264766E-04
  -2.988894297072395E-04  -3.026489957620383E-04  -3.064558513304327E-04
  -3.103105912410555E-04  -3.142138178045530E-04  -3.181661409076984E-04
  -3.221681781086867E-04  -3.262205547336290E-04  -3.303239039742618E-04
  -3.344788669868816E-04  -3.386860929925281E-04  -3.429462393784255E-04
  -3.472599718006991E-04  -3.516279642883869E-04  -3.560508993487550E-04
  -3.605294680739415E-04  -3.650643702489402E-04  -3.696563144609419E-04
  -3.743060182100544E-04  -3.790142080214092E-04  -3.837816195586840E-04
  -3.886089977390503E-04  -3.934970968495670E-04  -3.984466806650401E-04
  -4.034585225673606E-04  -4.085334056663479E-04  -4.136721229221107E-04
  -4.188754772689477E-04  -4.241442817408078E-04  -4.294793595983250E-04
  -4.348815444574553E-04  -4.403516804197289E-04  -4.458906222041418E-04
  -4.514992352807069E-04  -4.571783960056827E-04  -4.629289917585051E-04
  -4.687519210804414E-04  -4.746480938149867E-04  -4.806184312500291E-04
  -4.866638662617987E-04  -4.927853434606323E-04  -4.989838193385668E-04
  -5.052602624187925E-04  -5.116156534069867E-04  -5.180509853445455E-04
  -5.245672637637486E-04  -5.311655068448740E-04  -5.378467455752881E-04
  -5.446120239105379E-04  -5.514623989374681E-04  -5.583989410393915E-04
  -5.654227340633353E-04  -5.725348754893927E-04  -5.797364766022044E-04
  -5.870286626645946E-04  -5.944125730933935E-04  -6.018893616374717E-04
  -6.094601965580104E-04  -6.171262608110448E-04  -6.248887522322968E-04
  -6.327488837243377E-04  -6.407078834461023E-04  -6.487669950047886E-04
  -6.569274776501699E-04  -6.651906064713500E-04  -6.735576725959957E-04
  -6.820299833920732E-04  -6.906088626721222E-04  -6.992956509001022E-04
  -7.080917054008346E-04  -7.169984005720844E-04  -7.260171280993067E-04
  -7.351492971730952E-04  -7.443963347093680E-04  -7.537596855723158E-04
  -7.632408128001626E-04  -7.728411978337601E-04  -7.825623407480609E-04
  -7.924057604865015E-04  -8.023729950983323E-04  -8.124656019789332E-04
  -8.226851581131555E-04  -8.330332603217166E-04  -8.435115255107044E-04
  -8.541215909242079E-04  -8.648651144001344E-04  -8.757437746292401E-04
  -8.867592714174200E-04  -8.979133259512978E-04  -9.092076810671511E-04
  -9.206441015232259E-04  -9.322243742754710E-04  -9.439503087567430E-04
  -9.558237371595233E-04  -9.678465147221869E-04  -9.800205200188768E-04
  -9.923476552530213E-04  -1.004829846554542E-03  -1.017469044280808E-03
  -1.030267223321356E-03  -1.043226383406471E-03  -1.056348549419617E-03
  -1.069635771713825E-03  -1.083090126432044E-03  -1.096713715831520E-03
  -1.110508668612265E-03  -1.124477140249653E-03  -1.138621313331190E-03
  -1.152943397897537E-03  -1.167445631787805E-03  -1.182130280989200E-03
  -1.196999639991071E-03  -1.212056032143395E-03  -1.227301810019794E-03
  -1.242739355785088E-03  -1.258371081567500E-03  -1.274199429835519E-03
  -1.290226873779517E-03  -1.306455917698159E-03  -1.322889097389671E-03
  -1.339528980548036E-03  -1.356378167164164E-03  -1.373439289932112E-03
  -1.390715014660419E-03  -1.408208040688588E-03  -1.425921101308848E-03
  -1.443856964193180E-03  -1.462018431825732E-03  -1.480408341940678E-03
  -1.499029567965559E-03  -1.517885019470234E-03  -1.536977642621439E-03
  -1.556310420643096E-03  -1.575886374282388E-03  -1.595708562281698E-03
  -1.615780081856501E-03  -1.636104069179238E-03  -1.656683699869295E-03
  -1.677522189489137E-03  -1.698622794046673E-03  -1.719988810503961E-03
  -1.741623577292277E-03  -1.763530474833686E-03  -1.785712926069173E-03
  -1.808174396993380E-03  -1.830918397196124E-03  -1.853948480410666E-03
  -1.877268245068913E-03  -1.900881334863592E-03  -1.924791439317471E-03
  -1.949002294359778E-03  -1.973517682909829E-03  -1.998341435468013E-03
  -2.023477430714213E-03  -2.048929596113722E-03  -2.074701908530825E-03
  -2.100798394850047E-03  -2.127223132605238E-03  -2.153980250616572E-03
  -2.181073929635526E-03  -2.208508402998004E-03  -2.236287957285646E-03
  -2.264416932995456E-03  -2.292899725217869E-03  -2.321740784323295E-03
  -2.350944616657360E-03  -2.380515785244822E-03  -2.410458910502378E-03
  -2.440778670960423E-03  -2.471479803993861E-03  -2.502567106562140E-03
  -2.534045435958554E-03  -2.565919710568979E-03  -2.598194910640164E-03
  -2.630876079057626E-03  -2.663968322133394E-03  -2.697476810403599E-03
  -2.731406779436102E-03  -2.765763530648303E-03  -2.800552432135167E-03
  -2.835778919507736E-03  -2.871448496742105E-03  -2.907566737039108E-03
  -2.944139283694818E-03  -2.981171850981932E-03  -3.018670225042311E-03
  -3.056640264790663E-03  -3.095087902829620E-03  -3.134019146376329E-03
  -3.173440078200614E-03  -3.213356857575037E-03  -3.253775721236788E-03
  -3.294702984361729E-03  -3.336145041550658E-03  -3.378108367827948E-03
  -3.420599519652763E-03  -3.463625135942946E-03  -3.507191939111793E-03
  -3.551306736117848E-03  -3.595976419527868E-03  -3.641207968593168E-03
  -3.687008450339459E-03  -3.733385020670396E-03  -3.780344925484977E-03
  -3.827895501808971E-03  -3.876044178940578E-03  -3.924798479610444E-03
  -3.974166021156271E-03  -4.024154516712172E-03  -4.074771776412944E-03
  -4.126025708613494E-03  -4.177924321123542E-03  -4.230475722457851E-03
  -4.283688123102144E-03  -4.337569836794914E-03  -4.392129281825333E-03
  -4.447374982347437E-03  -4.503315569710829E-03  -4.559959783808069E-03
  -4.617316474438977E-03  -4.675394602692081E-03  -4.734203242343351E-03
  -4.793751581272550E-03  -4.854048922897312E-03  -4.915104687625222E-03
  -4.976928414324140E-03  -5.039529761810937E-03  -5.102918510358927E-03
  -5.167104563224216E-03  -5.232097948191176E-03  -5.297908819137311E-03
  -5.364547457617768E-03  -5.432024274469681E-03  -5.500349811436681E-03
  -5.569534742813716E-03  -5.639589877112572E-03  -5.710526158748181E-03
  -5.782354669746149E-03  -5.855086631471651E-03  -5.928733406379985E-03
  -6.003306499789097E-03  -6.078817561674285E-03  -6.155278388485410E-03
  -6.232700924986886E-03  -6.311097266120671E-03  -6.390479658892670E-03
  -6.470860504282686E-03  -6.552252359178352E-03  -6.634667938333253E-03
  -6.718120116349551E-03  -6.802621929685479E-03  -6.888186578687903E-03
  -6.974827429650375E-03  -7.062558016896921E-03  -7.151392044891889E-03
  -7.241343390376239E-03  -7.332426104530496E-03  -7.424654415164811E-03
  -7.518042728936391E-03  -7.612605633594640E-03  -7.708357900254406E-03
  -7.805314485697610E-03  -7.903490534703652E-03  -8.002901382408972E-03
  -8.103562556696029E-03  -8.205489780612191E-03  -8.308698974818783E-03
  -8.413206260070740E-03  -8.519027959727251E-03  -8.626180602293681E-03
  -8.734680923995269E-03  -8.844545871382925E-03  -8.955792603971518E-03
  -9.068438496911108E-03  -9.182501143691485E-03  -9.297998358880373E-03
  -9.414948180895836E-03  -9.533368874813200E-03  -9.653278935206944E-03
  -9.774697089028027E-03  -9.897642298516961E-03  -1.002213376415326E-02
  -1.014819092764152E-02  -1.027583347493467E-02  -1.040508133929491E-02
  -1.053595470439255E-02  -1.066847400744355E-02  -1.080265994238595E-02
  -1.093853346309577E-02  -1.107611578664299E-02  -1.121542839658769E-02
  -1.135649304631742E-02  -1.149933176242572E-02  -1.164396684813271E-02
  -1.179042088674809E-02  -1.193871674517691E-02  -1.208887757746897E-02
  -1.224092682841207E-02  -1.239488823716981E-02  -1.255078584096437E-02
  -1.270864397880484E-02  -1.286848729526171E-02  -1.303034074428793E-02
  -1.319422959308729E-02  -1.336017942603050E-02  -1.352821614861954E-02
  -1.369836599150107E-02  -1.387065551452921E-02  -1.404511161087846E-02
  -1.422176151120725E-02  -1.440063278787272E-02  -1.458175335919744E-02
  -1.476515149378853E-02  -1.495085581490989E-02  -1.513889530490817E-02
  -1.532929930969298E-02  -1.552209754327213E-02  -1.571732009234249E-02
  -1.591499742093699E-02  -1.611516037512870E-02  -1.631784018779222E-02
  -1.652306848342348E-02  -1.673087728301831E-02  -1.694129900901063E-02
  -1.715436649027088E-02  -1.737011296716525E-02  -1.758857209667668E-02
  -1.780977795758807E-02  -1.803376505572853E-02  -1.826056832928340E-02
  -1.849022315416859E-02  -1.872276534947022E-02  -1.895823118294998E-02
  -1.919665737661731E-02  -1.943808111236873E-02  -1.968254003769544E-02
  -1.993007227145957E-02  -2.018071640974023E-02  -2.043451153174974E-02
  -2.069149720582116E-02  -2.095171349546753E-02  -2.121520096551384E-02
  -2.148200068830250E-02  -2.175215424997287E-02  -2.202570375681603E-02
  -2.230269184170518E-02  -2.258316167060259E-02  -2.286715694914412E-02
  -2.315472192930182E-02  -2.344590141612556E-02  -2.374074077456447E-02
  -2.403928593636903E-02  -2.434158340707454E-02  -2.464768027306694E-02
  -2.495762420873163E-02  -2.527146348368636E-02  -2.558924697009856E-02
  -2.591102415008852E-02  -2.623684512321881E-02  -2.656676061407095E-02
  -2.690082197991019E-02  -2.723908121843902E-02  -2.758159097564051E-02
  -2.792840455371219E-02  -2.827957591909125E-02  -2.863515971057192E-02
  -2.899521124751598E-02  -2.935978653815689E-02  -2.972894228799884E-02
  -3.010273590831110E-02  -3.048122552471879E-02  -3.086446998589059E-02
  -3.125252887232445E-02  -3.164546250523202E-02  -3.204333195552247E-02
  -3.244619905288677E-02  -3.285412639498273E-02  -3.326717735672202E-02
  -3.368541609965980E-02  -3.410890758148752E-02  -3.453771756562993E-02
  -3.497191263094661E-02  -3.541156018153926E-02  -3.585672845666490E-02
  -3.630748654075609E-02  -3.676390437354864E-02  -3.722605276031725E-02
  -3.769400338222025E-02  -3.816782880675350E-02  -3.864760249831426E-02
  -3.913339882887580E-02  -3.962529308877260E-02  -4.012336149759765E-02
  -4.062768121521142E-02  -4.113833035286345E-02  -4.165538798442701E-02
  -4.217893415774671E-02  -4.270904990610001E-02  -4.324581725977281E-02
  -4.378931925774900E-02  -4.433963995951481E-02  -4.489686445697761E-02
  -4.546107888649956E-02  -4.603237044104649E-02  -4.661082738245138E-02
  -4.719653905379322E-02  -4.778959589189038E-02  -4.839008943990920E-02
  -4.899811236008702E-02  -4.961375844656962E-02  -5.023712263836302E-02
  -5.086830103239841E-02  -5.150739089671110E-02  -5.215449068373170E-02
  -5.280970004368953E-02  -5.347311983812778E-02  -5.414485215352872E-02
  -5.482500031504930E-02  -5.551366890036519E-02  -5.621096375362251E-02
  -5.691699199949646E-02  -5.763186205735472E-02  -5.835568365552486E-02
  -5.908856784566406E-02  -5.983062701722937E-02  -6.058197491204695E-02
  -6.134272663897768E-02  -6.211299868867809E-02  -6.289290894845352E-02
  -6.368257671720140E-02  -6.448212272044226E-02  -6.529166912543528E-02
  -6.611133955637585E-02  -6.694125910967205E-02  -6.778155436929614E-02
  -6.863235342220875E-02  -6.949378587385019E-02  -7.036598286369686E-02
  -7.124907708087744E-02  -7.214320277984433E-02  -7.304849579609679E-02
  -7.396509356194891E-02  -7.489313512233918E-02  -7.583276115067474E-02
  -7.678411396470509E-02  -7.774733754241929E-02  -7.872257753795901E-02
  -7.970998129754239E-02  -8.070969787539016E-02  -8.172187804964696E-02
  -8.274667433829024E-02  -8.378424101501740E-02  -8.483473412510381E-02
  -8.589831150122161E-02  -8.697513277920947E-02  -8.806535941378456E-02
  -8.916915469418385E-02  -9.028668375972609E-02  -9.141811361528104E-02
  -9.256361314663476E-02  -9.372335313573754E-02  -9.489750627582137E-02
  -9.608624718637303E-02  -9.728975242794805E-02  -9.850820051680986E-02
  -9.974177193937928E-02  -1.009906491664753E-01  -1.022550166673322E-01
  -1.035350609233730E-01  -1.048309704417203E-01  -1.061429357684257E-01
  -1.074711495013940E-01  -1.088158063029843E-01  -1.101771029122619E-01
  -1.115552381568782E-01  -1.129504129645551E-01  -1.143628303741446E-01
  -1.157926955462406E-01  -1.172402157733115E-01  -1.187056004893249E-01
  -1.201890612788351E-01  -1.216908118854982E-01  -1.232110682199847E-01
  -1.247500483672517E-01  -1.263079725931408E-01  -1.278850633502615E-01
  -1.294815452831221E-01  -1.310976452324656E-01  -1.327335922387687E-01
  -1.343896175448579E-01  -1.360659545975975E-01  -1.377628390485978E-01
  -1.394805087538975E-01  -1.412192037725620E-01  -1.429791663641471E-01
  -1.447606409849678E-01  -1.465638742831138E-01  -1.483891150921487E-01
  -1.502366144234296E-01  -1.521066254569765E-01  -1.539994035308255E-01
  -1.559152061287886E-01  -1.578542928665460E-01  -1.598169254759923E-01
  -1.618033677877513E-01  -1.638138857117772E-01  -1.658487472159479E-01
  -1.679082223025631E-01  -1.699925829826459E-01  -1.721021032479475E-01
  -1.742370590405544E-01  -1.763977282199816E-01  -1.785843905276453E-01
  -1.807973275485931E-01  -1.830368226703691E-01  -1.853031610388881E-01
  -1.875966295111818E-01  -1.899175166048840E-01  -1.922661124443066E-01
  -1.946427087029582E-01  -1.970475985423510E-01  -1.994810765469303E-01
  -2.019434386549641E-01  -2.044349820852118E-01  -2.069560052591936E-01
  -2.095068077188720E-01  -2.120876900395440E-01  -2.146989537377458E-01
  -2.173409011739526E-01  -2.200138354498548E-01  -2.227180602999812E-01
  -2.254538799774277E-01  -2.282215991334478E-01  -2.310215226906434E-01
  -2.338539557094899E-01  -2.367192032479176E-01  -2.396175702136573E-01
  -2.425493612090545E-01  -2.455148803680364E-01  -2.485144311849080E-01
  -2.515483163346437E-01  -2.546168374843191E-01  -2.577202950953263E-01
  -2.608589882159913E-01  -2.640332142642034E-01  -2.672432687996519E-01
  -2.704894452852441E-01  -2.737720348372720E-01  -2.770913259638698E-01
  -2.804476042912925E-01  -2.838411522775250E-01  -2.872722489127163E-01
  -2.907411694059105E-01  -2.942481848575298E-01  -2.977935619170445E-01
  -3.013775624252412E-01  -3.050004430404808E-01  -3.086624548483201E-01
  -3.123638429538372E-01  -3.161048460559899E-01  -3.198856960033035E-01
  -3.237066173301592E-01  -3.275678267729397E-01  -3.314695327652447E-01
  -3.354119349113777E-01  -3.393952234372697E-01  -3.434195786179757E-01
  -3.474851701808581E-01  -3.515921566835333E-01  -3.557406848656304E-01
  -3.599308889733829E-01  -3.641628900560331E-01  -3.684367952330078E-01
  -3.727526969307824E-01  -3.771106720883201E-01  -3.815107813299373E-01
  -3.859530681044118E-01  -3.904375577891184E-01  -3.949642567579340E-01
  -3.995331514116247E-01  -4.041442071693919E-01  -4.087973674202073E-01
  -4.134925524325491E-01  -4.182296582210973E-01  -4.230085553689224E-01
  -4.278290878036612E-01  -4.326910715261371E-01  -4.375942932898544E-01
  -4.425385092297554E-01  -4.475234434386025E-01  -4.525487864893155E-01
  -4.576141939015559E-01  -4.627192845508492E-01  -4.678636390184711E-01
  -4.730467978803378E-01  -4.782682599331051E-01  -4.835274803556560E-01
  -4.888238688041695E-01  -4.941567874389242E-01  -4.995255488810100E-01
  -5.049294140971204E-01  -5.103675902105850E-01  -5.158392282368497E-01
  -5.213434207416014E-01  -5.268791994197827E-01  -5.324455325937781E-01
  -5.380413226290895E-01  -5.436654032658977E-01  -5.493165368649501E-01
  -5.549934115663190E-01  -5.606946383596698E-01  -5.664187480647611E-01
  -5.721641882210748E-01  -5.779293198855654E-01  -5.837124143377169E-01
  -5.895116496912737E-01  -5.953251074121901E-01  -6.011507687426173E-01
  -6.069865110309487E-01  -6.128301039682644E-01  -6.186792057318091E-01
  -6.245313590364633E-01  -6.303839870955726E-01  -6.362343894928674E-01
  -6.420797379676711E-01  -6.479170721160852E-01  -6.537432950113204E-01
  -6.595551687469675E-01  -6.653493099075505E-01  -6.711221849714132E-01
  -6.768701056516728E-01  -6.825892241817269E-01  -6.882755285526436E-01
  -6.939248377106014E-01  -6.995327967234869E-01  -7.050948719267597E-01
  -7.106063460597040E-01  -7.160623134043418E-01  -7.214576749404183E-01
  -7.267871335311271E-01  -7.320451891555508E-01  -7.372261342051346E-01
  -7.423240488629699E-01  -7.473327965861379E-01  -7.522460197129212E-01
  -7.570571352183226E-01  -7.617593306429572E-01  -7.663455602221559E-01
  -7.708085412438340E-01  -7.751407506655100E-01  -7.793344220227019E-01
  -7.833815426627543E-01  -7.872738513400709E-01  -7.910028362105600E-01
  -7.945597332649954E-01  -7.979355252428277E-01  -8.011209410697713E-01
  -8.041064558642554E-01  -8.068822915594623E-01  -8.094384181892600E-01
  -8.117645558877687E-01  -8.138501776535756E-01  -8.156845129307523E-01
  -8.172565520597092E-01  -8.185550516516149E-01  -8.195685409405075E-01
  -8.202853291673278E-01  -8.206935140498914E-01  -8.207830372483262E-01
  -8.205519964477680E-01  -8.200008015590805E-01  -8.191301711608886E-01
  -8.179411327904220E-01  -8.164350227213736E-01  -8.146134852335630E-01
  -8.124784713799681E-01  -8.100322372574199E-01  -8.072773417879850E-01
  -8.042166440187440E-01  -8.008532999483663E-01  -7.971907588895339E-01
  -7.932327593768999E-01  -7.889833246308771E-01  -7.844467575881712E-01
  -7.796276355105139E-01  -7.745308041835485E-01  -7.691613717182992E-01
  -7.635247019680819E-01  -7.576264075740754E-01  -7.514723426530919E-01
  -7.450685951413316E-01  -7.384214788080987E-01  -7.315375249535824E-01
  -7.244234738048617E-01  -7.170862656242970E-01  -7.095330315443966E-01
  -7.017710841431282E-01  -6.938079077734546E-01  -6.856511486606547E-01
  -6.773086047807043E-01  -6.687882155326986E-01  -6.600980512179645E-01
  -6.512463023381820E-01  -6.422412687245037E-01  -6.330913485093613E-01
  -6.238050269523849E-01  -6.143908651316619E-01  -6.048574885114486E-01
  -5.952135753943020E-01  -5.854678452856841E-01  -5.756290471468090E-01
  -5.657059475853303E-01  -5.557073189766986E-01  -5.456419275336457E-01
  -5.355185213382427E-01  -5.253458183523038E-01  -5.151324944231859E-01
  -5.048871713037745E-01  -4.946184047074392E-01  -4.843346724206444E-01
  -4.740443624980076E-01  -4.637557615668271E-01  -4.534770432703140E-01
  -4.432162568809127E-01  -4.329813161171364E-01  -4.227799881991778E-01
  -4.126198831801373E-01  -4.025084435909281E-01  -3.924529344377450E-01
  -3.824604335913171E-01  -3.725378226069895E-01  -3.626917780139345E-01
  -3.529287631104617E-01  -3.432550203004800E-01  -3.336765640036640E-01
  -3.241991741688241E-01  -3.148283904164226E-01  -3.055695068321743E-01
  -2.964275674292862E-01  -2.874073622922269E-01  -2.785134244100433E-01
  -2.697500272022690E-01  -2.611211827354867E-01  -2.526306406237100E-01
  -2.442818876010236E-01  -2.360781477504557E-01  -2.280223833689140E-01
  -2.201172964442635E-01  -2.123653307173085E-01  -2.047686742985987E-01
  -1.973292628076361E-01  -1.900487830002080E-01  -1.829286768482840E-01
  -1.759701460360272E-01  -1.691741568351221E-01  -1.625414453228530E-01
  -1.560725229067375E-01  -1.497676821204059E-01  -1.436270026568089E-01
  -1.376503576062926E-01  -1.318374198688435E-01  -1.261876687118154E-01
  -1.207003964465959E-01  -1.153747151999178E-01  -1.102095637578429E-01
  -1.052037144627877E-01  -1.003557801462916E-01  -9.566422108250447E-02
  -9.112735194956220E-02  -8.674334878808622E-02  -8.251025594796745E-02
  -7.842599301634025E-02  -7.448836172120063E-02  -7.069505280645486E-02
  -6.704365287528333E-02  -6.353165119955993E-02  -6.015644649367307E-02
  -5.691535365144838E-02  -5.380561044497989E-02  -5.082438418404397E-02
  -4.796877833441290E-02  -4.523583909282227E-02  -4.262256191560231E-02
  -4.012589799708419E-02  -3.774276069287416E-02  -3.547003188198023E-02
  -3.330456826062000E-02  -3.124320755936661E-02  -2.928277467414374E-02
  -2.742008770049278E-02  -2.565196385954232E-02  -2.397522530323951E-02
  -2.238670478568409E-02  -2.088325118685936E-02  -1.946173487469702E-02
  -1.811905289125879E-02  -1.685213394887055E-02  -1.565794322230872E-02
  -1.453348692360832E-02  -1.347581664673105E-02  -1.248203347018606E-02
  -1.154929180672210E-02  -1.067480299038747E-02  -9.855838592563544E-03
  -9.089733459996349E-03  -8.373888469355521E-03  -7.705772994416364E-03
  -7.082927083566788E-03  -6.502963346962001E-03  -5.963568554265226E-03
  -5.462504945501262E-03  -4.997611259092699E-03  -4.566803482628869E-03
  -4.168075333319944E-03  -3.799498476400057E-03  -3.459222490952659E-03
  -3.145474593729777E-03  -2.856559132517426E-03  -2.590856861457135E-03
  -2.346824011465320E-03  -2.122991169496694E-03  -1.917961980875220E-03
  -1.730411689268041E-03  -1.559085529107326E-03  -1.402796985376235E-03
  -1.260425935673434E-03  -1.130916689361832E-03  -1.013275938398296E-03
  -9.065706341393667E-04  -8.099258040313919E-04  -7.225223216301116E-04
  -6.435946428631121E-04  -5.724285208571657E-04  -5.083587110099385E-04
  -4.507666773002054E-04  -3.990783101120697E-04  -3.527616650986658E-04
  -3.113247318600624E-04  -2.743132404102676E-04  -2.413085126530400E-04
  -2.119253653046268E-04  -1.858100699267334E-04  -1.626383749857248E-04
  -1.421135941218567E-04  -1.239647641034508E-04  -1.079448752611176E-04
  -9.382917654920794E-05  -8.141355676861270E-05  -7.051300290919283E-05
  -6.096013603365657E-05  -5.260382462768210E-05  -4.530787488923008E-05
  -3.894979701198425E-05  -3.341964615201057E-05  -2.861893643622596E-05
  -2.445962608114469E-05  -2.086317144272900E-05  -1.775964760792488E-05
  -1.508693296481943E-05  -1.278995504929313E-05  -1.081999486608106E-05
  -9.134046760073755E-06  -7.694231479954761E-06  -6.467253821273970E-06
  -5.423941488018705E-06  -4.538690017708156E-06  -3.789295890503064E-06
  -3.156437442960540E-06  -2.623235128595602E-06  -2.175033179455980E-06
  -1.799161758216154E-06  -1.484693909367756E-06  -1.222228483599396E-06
  -1.003696764430517E-06  -8.221906622555769E-07  -6.718104744606024E-07
  -5.475303425402241E-07  -4.450796669953052E-07  -3.608388673258637E-07
  -2.917479968518432E-07  -2.352268396912790E-07  -1.891052293715399E-07
  -1.515624347196509E-07  -1.210745581205686E-07  -9.636898486537236E-08
  -7.638500050456497E-08  -6.023981345821798E-08  -4.719903020079633E-08
  -3.665207207210875E-08  -2.808681431246875E-08  -2.111396190338393E-08
  -1.518862537994312E-08   0.000000000000000E+00   0.000000000000000E+00
   0.000000000000000E+00   0.000000000000000E+00   0.000000000000000E+00
   0.000000000000000E+00   0.000000000000000E+00   0.000000000000000E+00
   0.000000000000000E+00   0.000000000000000E+00   0.000000000000000E+00
   0.000000000000000E+00   0.000000000000000E+00   0.000000000000000E+00
   0.000000000000000E+00   0.000000000000000E+00   0.000000000000000E+00
   0.000000000000000E+00   0.000000000000000E+00   0.000000000000000E+00
   0.000000000000000E+00   0.000000000000000E+00   0.000000000000000E+00
   0.000000000000000E+00   0.000000000000000E+00   0.000000000000000E+00
   0.000000000000000E+00   0.000000000000000E+00   0.000000000000000E+00
   0.000000000000000E+00   0.000000000000000E+00   0.000000000000000E+00
   0.000000000000000E+00   0.000000000000000E+00   0.000000000000000E+00
   0.000000000000000E+00   0.000000000000000E+00   0.000000000000000E+00
   0.000000000000000E+00   0.000000000000000E+00   0.000000000000000E+00
   0.000000000000000E+00   0.000000000000000E+00   0.000000000000000E+00
   0.000000000000000E+00   0.000000000000000E+00   0.000000000000000E+00
   0.000000000000000E+00   0.000000000000000E+00   0.000000000000000E+00
   0.000000000000000E+00   0.000000000000000E+00   0.000000000000000E+00
   0.000000000000000E+00   0.000000000000000E+00   0.000000000000000E+00
   0.000000000000000E+00   0.000000000000000E+00   0.000000000000000E+00
   0.000000000000000E+00   0.000000000000000E+00   0.000000000000000E+00
   0.000000000000000E+00   0.000000000000000E+00   0.000000000000000E+00
   0.000000000000000E+00   0.000000000000000E+00   0.000000000000000E+00
   0.000000000000000E+00   0.000000000000000E+00   0.000000000000000E+00
   0.000000000000000E+00   0.000000000000000E+00   0.000000000000000E+00
   0.000000000000000E+00   0.000000000000000E+00   0.000000000000000E+00
   0.000000000000000E+00   0.000000000000000E+00   0.000000000000000E+00
   0.000000000000000E+00   0.000000000000000E+00   0.000000000000000E+00
   0.000000000000000E+00   0.000000000000000E+00   0.000000000000000E+00
   0.000000000000000E+00   0.000000000000000E+00   0.000000000000000E+00
   0.000000000000000E+00   0.000000000000000E+00   0.000000000000000E+00
   0.000000000000000E+00   0.000000000000000E+00   0.000000000000000E+00
   0.000000000000000E+00   0.000000000000000E+00   0.000000000000000E+00
   0.000000000000000E+00   0.000000000000000E+00   0.000000000000000E+00
   0.000000000000000E+00   0.000000000000000E+00   0.000000000000000E+00
   0.000000000000000E+00   0.000000000000000E+00   0.000000000000000E+00
   0.000000000000000E+00   0.000000000000000E+00   0.000000000000000E+00
   0.000000000000000E+00   0.000000000000000E+00   0.000000000000000E+00
   0.000000000000000E+00   0.000000000000000E+00   0.000000000000000E+00
   0.000000000000000E+00   0.000000000000000E+00   0.000000000000000E+00
   0.000000000000000E+00   0.000000000000000E+00   0.000000000000000E+00
   0.000000000000000E+00   0.000000000000000E+00   0.000000000000000E+00
   0.000000000000000E+00   0.000000000000000E+00   0.000000000000000E+00
   0.000000000000000E+00   0.000000000000000E+00
    </PP_PSWFC.1>
    <PP_PSWFC.2 size="1073" index="2" label="2S" l="0">
  -2.013873992773179E-04  -2.039205408628782E-04  -2.064855454449345E-04
  -2.090828138105605E-04  -2.117127517881081E-04  -2.143757703106175E-04
  -2.170722854800273E-04  -2.198027186321901E-04  -2.225674964027075E-04
  -2.253670507935932E-04  -2.282018192407726E-04  -2.310722446824336E-04
  -2.339787756282364E-04  -2.369218662293935E-04  -2.399019763496328E-04
  -2.429195716370499E-04  -2.459751235968676E-04  -2.490691096651097E-04
  -2.522020132831994E-04  -2.553743239735003E-04  -2.585865374158023E-04
  -2.618391555247740E-04  -2.651326865283869E-04  -2.684676450473268E-04
  -2.718445521754049E-04  -2.752639355609776E-04  -2.787263294893939E-04
  -2.822322749664773E-04  -2.857823198030591E-04  -2.893770187005749E-04
  -2.930169333377364E-04  -2.967026324582951E-04  -3.004346919599092E-04
  -3.042136949841280E-04  -3.080402320075092E-04  -3.119149009338809E-04
  -3.158383071877644E-04  -3.198110638089738E-04  -3.238337915484024E-04
  -3.279071189650181E-04  -3.320316825240738E-04  -3.362081266965574E-04
  -3.404371040598906E-04  -3.447192753998945E-04  -3.490553098140394E-04
  -3.534458848159898E-04  -3.578916864414678E-04  -3.623934093554469E-04
  -3.669517569606931E-04  -3.715674415076740E-04  -3.762411842058459E-04
  -3.809737153363456E-04  -3.857657743660961E-04  -3.906181100633490E-04
  -3.955314806146812E-04  -4.005066537434606E-04  -4.055444068298034E-04
  -4.106455270320413E-04  -4.158108114097142E-04  -4.210410670481127E-04
  -4.263371111843836E-04  -4.316997713352251E-04  -4.371298854261854E-04
  -4.426283019225900E-04  -4.481958799621142E-04  -4.538334894890233E-04
  -4.595420113901015E-04  -4.653223376322916E-04  -4.711753714020630E-04
  -4.771020272465375E-04  -4.831032312163842E-04  -4.891799210105174E-04
  -4.953330461226101E-04  -5.015635679894529E-04  -5.078724601411803E-04
  -5.142607083533804E-04  -5.207293108011257E-04  -5.272792782149358E-04
  -5.339116340387035E-04  -5.406274145896093E-04  -5.474276692200429E-04
  -5.543134604815654E-04  -5.612858642909314E-04  -5.683459700982006E-04
  -5.754948810569643E-04  -5.827337141967107E-04  -5.900636005973597E-04
  -5.974856855659945E-04  -6.050011288158124E-04  -6.126111046473313E-04
  -6.203168021318697E-04  -6.281194252973395E-04  -6.360201933163721E-04
  -6.440203406968136E-04  -6.521211174746149E-04  -6.603237894091451E-04
  -6.686296381809669E-04  -6.770399615920947E-04  -6.855560737687750E-04
  -6.941793053668159E-04  -7.029110037794971E-04  -7.117525333480989E-04
  -7.207052755750761E-04  -7.297706293399144E-04  -7.389500111177033E-04
  -7.482448552004537E-04  -7.576566139212023E-04  -7.671867578809355E-04
  -7.768367761783652E-04  -7.866081766425968E-04  -7.965024860687198E-04
  -8.065212504563664E-04  -8.166660352512665E-04  -8.269384255898434E-04
  -8.373400265468862E-04  -8.478724633863332E-04  -8.585373818152136E-04
  -8.693364482407829E-04  -8.802713500308890E-04  -8.913437957776192E-04
  -9.025555155642538E-04  -9.139082612355870E-04  -9.254038066716401E-04
  -9.370439480648228E-04  -9.488305042005777E-04  -9.607653167415526E-04
  -9.728502505153510E-04  -9.850871938058988E-04  -9.974780586484754E-04
  -1.010024781128459E-03  -1.022729321683823E-03  -1.035593665411443E-03
  -1.048619822377249E-03  -1.061809827930289E-03  -1.075165743020732E-03
  -1.088689654521875E-03  -1.102383675556198E-03  -1.116249945825525E-03
  -1.130290631945328E-03  -1.144507927783247E-03  -1.158904054801851E-03
  -1.173481262405730E-03  -1.188241828292935E-03  -1.203188058810847E-03
  -1.218322289316518E-03  -1.233646884541544E-03  -1.249164238961529E-03
  -1.264876777170192E-03  -1.280786954258179E-03  -1.296897256196646E-03
  -1.313210200225651E-03  -1.329728335247447E-03  -1.346454242224709E-03
  -1.363390534583775E-03  -1.380539858622957E-03  -1.397904893925982E-03
  -1.415488353780638E-03  -1.433292985602684E-03  -1.451321571365086E-03
  -1.469576928032660E-03  -1.488061908002167E-03  -1.506779399547952E-03
  -1.525732327273187E-03  -1.544923652566784E-03  -1.564356374066060E-03
  -1.584033528125200E-03  -1.603958189289649E-03  -1.624133470776426E-03
  -1.644562524960505E-03  -1.665248543867310E-03  -1.686194759671381E-03
  -1.707404445201347E-03  -1.728880914451212E-03  -1.750627523098090E-03
  -1.772647669026449E-03  -1.794944792858932E-03  -1.817522378493878E-03
  -1.840383953649574E-03  -1.863533090415364E-03  -1.886973405809694E-03
  -1.910708562345148E-03  -1.934742268600623E-03  -1.959078279800663E-03
  -1.983720398402102E-03  -2.008672474688074E-03  -2.033938407369473E-03
  -2.059522144194019E-03  -2.085427682562928E-03  -2.111659070155373E-03
  -2.138220405560781E-03  -2.165115838919071E-03  -2.192349572568964E-03
  -2.219925861704411E-03  -2.247849015039301E-03  -2.276123395480514E-03
  -2.304753420809420E-03  -2.333743564371975E-03  -2.363098355777465E-03
  -2.392822381606039E-03  -2.422920286125154E-03  -2.453396772014982E-03
  -2.484256601102993E-03  -2.515504595107717E-03  -2.547145636391884E-03
  -2.579184668725033E-03  -2.611626698055665E-03  -2.644476793293164E-03
  -2.677740087099487E-03  -2.711421776690830E-03  -2.745527124649378E-03
  -2.780061459745217E-03  -2.815030177768628E-03  -2.850438742372788E-03
  -2.886292685927092E-03  -2.922597610381199E-03  -2.959359188139890E-03
  -2.996583162948998E-03  -3.034275350792382E-03  -3.072441640800230E-03
  -3.111087996168760E-03  -3.150220455091443E-03  -3.189845131701987E-03
  -3.229968217029103E-03  -3.270595979963297E-03  -3.311734768235823E-03
  -3.353391009409871E-03  -3.395571211884288E-03  -3.438281965909836E-03
  -3.481529944618244E-03  -3.525321905064196E-03  -3.569664689280356E-03
  -3.614565225345721E-03  -3.660030528467306E-03  -3.706067702075460E-03
  -3.752683938932951E-03  -3.799886522257897E-03  -3.847682826860911E-03
  -3.896080320296418E-03  -3.945086564028484E-03  -3.994709214611277E-03
  -4.044956024884300E-03  -4.095834845182710E-03  -4.147353624562740E-03
  -4.199520412042554E-03  -4.252343357858676E-03  -4.305830714738152E-03
  -4.359990839186711E-03  -4.414832192793068E-03  -4.470363343549603E-03
  -4.526592967189615E-03  -4.583529848541331E-03  -4.641182882898925E-03
  -4.699561077410722E-03  -4.758673552484811E-03  -4.818529543212310E-03
  -4.879138400808447E-03  -4.940509594071741E-03  -5.002652710861462E-03
  -5.065577459593628E-03  -5.129293670755757E-03  -5.193811298440591E-03
  -5.259140421899081E-03  -5.325291247112786E-03  -5.392274108386037E-03
  -5.460099469958014E-03  -5.528777927635030E-03  -5.598320210443282E-03
  -5.668737182302286E-03  -5.740039843719297E-03  -5.812239333504946E-03
  -5.885346930510340E-03  -5.959374055385969E-03  -6.034332272362574E-03
  -6.110233291054356E-03  -6.187088968284755E-03  -6.264911309935054E-03
  -6.343712472816154E-03  -6.423504766563750E-03  -6.504300655557219E-03
  -6.586112760862546E-03  -6.668953862199500E-03  -6.752836899933471E-03
  -6.837774977092169E-03  -6.923781361407568E-03  -7.010869487383378E-03
  -7.099052958388319E-03  -7.188345548775630E-03  -7.278761206028978E-03
  -7.370314052935247E-03  -7.463018389784432E-03  -7.556888696597002E-03
  -7.651939635379118E-03  -7.748186052405949E-03  -7.845642980533519E-03
  -7.944325641539435E-03  -8.044249448492746E-03  -8.145430008153447E-03
  -8.247883123401837E-03  -8.351624795698223E-03  -8.456671227573272E-03
  -8.563038825149376E-03  -8.670744200693482E-03  -8.779804175201680E-03
  -8.890235781016003E-03  -9.002056264473830E-03  -9.115283088590205E-03
  -9.229933935773628E-03  -9.346026710575541E-03  -9.463579542474086E-03
  -9.582610788692447E-03  -9.703139037052206E-03  -9.825183108862216E-03
  -9.948762061843291E-03  -1.007389519308927E-02  -1.020060204206485E-02
  -1.032890239364056E-02  -1.045881628116545E-02  -1.059036398957790E-02
  -1.072356605855492E-02  -1.085844328570056E-02  -1.099501672977378E-02
  -1.113330771395629E-02  -1.127333782916086E-02  -1.141512893738057E-02
  -1.155870317507944E-02  -1.170408295662506E-02  -1.185129097776354E-02
  -1.200035021913747E-02  -1.215128394984724E-02  -1.230411573105640E-02
  -1.245886941964137E-02  -1.261556917188624E-02  -1.277423944722305E-02
  -1.293490501201814E-02  -1.309759094340509E-02  -1.326232263316489E-02
  -1.342912579165362E-02  -1.359802645177866E-02  -1.376905097302346E-02
  -1.394222604552188E-02  -1.411757869418244E-02  -1.429513628286309E-02
  -1.447492651859713E-02  -1.465697745587086E-02  -1.484131750095353E-02
  -1.502797541628028E-02  -1.521698032488842E-02  -1.540836171490807E-02
  -1.560214944410737E-02  -1.579837374449321E-02  -1.599706522696790E-02
  -1.619825488604238E-02  -1.640197410460688E-02  -1.660825465875939E-02
  -1.681712872269272E-02  -1.702862887364080E-02  -1.724278809688480E-02
  -1.745963979081987E-02  -1.767921777208303E-02  -1.790155628074297E-02
  -1.812668998555247E-02  -1.835465398926389E-02  -1.858548383400883E-02
  -1.881921550674222E-02  -1.905588544475185E-02  -1.929553054123390E-02
  -1.953818815093513E-02  -1.978389609586260E-02  -2.003269267106148E-02
  -2.028461665046177E-02  -2.053970729279459E-02  -2.079800434757876E-02
  -2.105954806117844E-02  -2.132437918293255E-02  -2.159253897135665E-02
  -2.186406920041819E-02  -2.213901216588550E-02  -2.241741069175174E-02
  -2.269930813673417E-02  -2.298474840084963E-02  -2.327377593206714E-02
  -2.356643573303792E-02  -2.386277336790406E-02  -2.416283496918634E-02
  -2.446666724475204E-02  -2.477431748486329E-02  -2.508583356930711E-02
  -2.540126397460739E-02  -2.572065778131998E-02  -2.604406468141141E-02
  -2.637153498572203E-02  -2.670311963151444E-02  -2.703887019010751E-02
  -2.737883887459747E-02  -2.772307854766602E-02  -2.807164272947673E-02
  -2.842458560566026E-02  -2.878196203538895E-02  -2.914382755954180E-02
  -2.951023840896039E-02  -2.988125151279637E-02  -3.025692450695132E-02
  -3.063731574260953E-02  -3.102248429486458E-02  -3.141248997144006E-02
  -3.180739332150534E-02  -3.220725564458708E-02  -3.261213899957657E-02
  -3.302210621383415E-02  -3.343722089239103E-02  -3.385754742724882E-02
  -3.428315100677799E-02  -3.471409762521477E-02  -3.515045409225817E-02
  -3.559228804276664E-02  -3.603966794655541E-02  -3.649266311829479E-02
  -3.695134372750964E-02  -3.741578080868068E-02  -3.788604627144797E-02
  -3.836221291091661E-02  -3.884435441806545E-02  -3.933254539025832E-02
  -3.982686134185884E-02  -4.032737871494844E-02  -4.083417489014789E-02
  -4.134732819754244E-02  -4.186691792771062E-02  -4.239302434285668E-02
  -4.292572868804675E-02  -4.346511320254832E-02  -4.401126113127345E-02
  -4.456425673632469E-02  -4.512418530864420E-02  -4.569113317976533E-02
  -4.626518773366626E-02  -4.684643741872573E-02  -4.743497175977913E-02
  -4.803088137027581E-02  -4.863425796453593E-02  -4.924519437010613E-02
  -4.986378454021374E-02  -5.049012356631765E-02  -5.112430769075570E-02
  -5.176643431948664E-02  -5.241660203492585E-02  -5.307491060887354E-02
  -5.374146101553302E-02  -5.441635544461867E-02  -5.509969731455096E-02
  -5.579159128573685E-02  -5.649214327393385E-02  -5.720146046369481E-02
  -5.791965132189194E-02  -5.864682561131714E-02  -5.938309440435581E-02
  -6.012857009673198E-02  -6.088336642132057E-02  -6.164759846202497E-02
  -6.242138266771537E-02  -6.320483686622480E-02  -6.399808027839926E-02
  -6.480123353219673E-02  -6.561441867683242E-02  -6.643775919696433E-02
  -6.727138002691498E-02  -6.811540756492439E-02  -6.896996968742795E-02
  -6.983519576335495E-02  -7.071121666844080E-02  -7.159816479954695E-02
  -7.249617408898218E-02  -7.340538001881761E-02  -7.432591963518906E-02
  -7.525793156257832E-02  -7.620155601806547E-02  -7.715693482554427E-02
  -7.812421142989036E-02  -7.910353091107467E-02  -8.009503999821077E-02
  -8.109888708352662E-02  -8.211522223624976E-02  -8.314419721639418E-02
  -8.418596548843758E-02  -8.524068223487627E-02  -8.630850436964453E-02
  -8.738959055138518E-02  -8.848410119655613E-02  -8.959219849235912E-02
  -9.071404640947395E-02  -9.184981071458204E-02  -9.299965898266276E-02
  -9.416376060904302E-02  -9.534228682118281E-02  -9.653541069017622E-02
  -9.774330714194743E-02  -9.896615296812032E-02  -1.002041268365384E-01
  -1.014574093014127E-01  -1.027261828130722E-01  -1.040106317272910E-01
  -1.053109423141662E-01  -1.066273027665165E-01  -1.079599032077745E-01
  -1.093089356993409E-01  -1.106745942473677E-01  -1.120570748089387E-01
  -1.134565752976105E-01  -1.148732955882795E-01  -1.163074375213346E-01
  -1.177592049060577E-01  -1.192288035232291E-01  -1.207164411268950E-01
  -1.222223274452516E-01  -1.237466741805991E-01  -1.252896950083145E-01
  -1.268516055747949E-01  -1.284326234943129E-01  -1.300329683447326E-01
  -1.316528616620247E-01  -1.332925269335201E-01  -1.349521895898395E-01
  -1.366320769954301E-01  -1.383324184376415E-01  -1.400534451142688E-01
  -1.417953901194853E-01  -1.435584884280875E-01  -1.453429768779685E-01
  -1.471490941507363E-01  -1.489770807503840E-01  -1.508271789799211E-01
  -1.526996329158671E-01  -1.545946883805048E-01  -1.565125929117888E-01
  -1.584535957307963E-01  -1.604179477066064E-01  -1.624059013184857E-01
  -1.644177106152544E-01  -1.664536311717029E-01  -1.685139200419195E-01
  -1.705988357093889E-01  -1.727086380337100E-01  -1.748435881937773E-01
  -1.770039486272662E-01  -1.791899829662492E-01  -1.814019559687686E-01
  -1.836401334461809E-01  -1.859047821860788E-01  -1.881961698705927E-01
  -1.905145649898593E-01  -1.928602367504421E-01  -1.952334549784733E-01
  -1.976344900172786E-01  -2.000636126192404E-01  -2.025210938316369E-01
  -2.050072048761881E-01  -2.075222170220291E-01  -2.100664014518117E-01
  -2.126400291206328E-01  -2.152433706074680E-01  -2.178766959587735E-01
  -2.205402745239146E-01  -2.232343747820493E-01  -2.259592641600961E-01
  -2.287152088413848E-01  -2.315024735645810E-01  -2.343213214124544E-01
  -2.371720135900379E-01  -2.400548091917169E-01  -2.429699649567536E-01
  -2.459177350127419E-01  -2.488983706064603E-01  -2.519121198215679E-01
  -2.549592272825694E-01  -2.580399338444437E-01  -2.611544762673110E-01
  -2.643030868754825E-01  -2.674859932002101E-01  -2.707034176054274E-01
  -2.739555768957367E-01  -2.772426819058739E-01  -2.805649370708436E-01
  -2.839225399758833E-01  -2.873156808853894E-01  -2.907445422498868E-01
  -2.942092981900992E-01  -2.977101139571309E-01  -3.012471453677287E-01
  -3.048205382135586E-01  -3.084304276433800E-01  -3.120769375169555E-01
  -3.157601797294967E-01  -3.194802535053810E-01  -3.232372446598429E-01
  -3.270312248272786E-01  -3.308622506547536E-01  -3.347303629592480E-01
  -3.386355858471156E-01  -3.425779257941783E-01  -3.465573706848118E-01
  -3.505738888083207E-01  -3.546274278108356E-01  -3.587179136008996E-01
  -3.628452492068469E-01  -3.670093135840063E-01  -3.712099603696929E-01
  -3.754470165838812E-01  -3.797202812733776E-01  -3.840295240972459E-01
  -3.883744838511523E-01  -3.927548669282324E-01  -3.971703457140033E-01
  -4.016205569127640E-01  -4.061050998028616E-01  -4.106235344181147E-01
  -4.151753796526169E-01  -4.197601112860668E-01  -4.243771599266970E-01
  -4.290259088688092E-01  -4.337056918618469E-01  -4.384157907878755E-01
  -4.431554332442796E-01  -4.479237900284226E-01  -4.527199725209710E-01
  -4.575430299645304E-01  -4.623919466342057E-01  -4.672656388966671E-01
  -4.721629521542711E-01  -4.770826576707944E-01  -4.820234492753117E-01
  -4.869839399407852E-01  -4.919626582339482E-01  -4.969580446331076E-01
  -5.019684477105703E-01  -5.069921201764591E-01  -5.120272147808124E-01
  -5.170717800709781E-01  -5.221237560014800E-01  -5.271809693937316E-01
  -5.322411292431847E-01  -5.373018218717738E-01  -5.423605059238207E-01
  -5.474145072038978E-01  -5.524610133555762E-01  -5.574970683803963E-01
  -5.625195669969352E-01  -5.675252488404138E-01  -5.725106925038985E-01
  -5.774723094229079E-01  -5.824063376059800E-01  -5.873088352146635E-01
  -5.921756739973635E-01  -5.970025325825086E-01  -6.017848896377288E-01
  -6.065180169029742E-01  -6.111969721069360E-01  -6.158165917776802E-01
  -6.203714839600378E-01  -6.248560208541749E-01  -6.292643313916885E-01
  -6.335902937677529E-01  -6.378275279501524E-01  -6.419693881885064E-01
  -6.460089555497378E-01  -6.499390305086710E-01  -6.537521256257974E-01
  -6.574404583475495E-01  -6.609959439679776E-01  -6.644101887945286E-01
  -6.676744835646483E-01  -6.707797971642199E-01  -6.737167707034051E-01
  -6.764757120102359E-01  -6.790465906074090E-01  -6.814190332430312E-01
  -6.835823200516954E-01  -6.855253814281175E-01  -6.872367957016685E-01
  -6.887047877065294E-01  -6.899172283487606E-01  -6.908616352784203E-01
  -6.915251747818639E-01  -6.918946650165395E-01  -6.919565807179165E-01
  -6.916970595156041E-01  -6.911019100031891E-01  -6.901566217137960E-01
  -6.888463771608000E-01  -6.871560661103943E-01  -6.850703022598120E-01
  -6.825734425017667E-01  -6.796496089620589E-01  -6.762827140031644E-01
  -6.724564883918238E-01  -6.681545128331066E-01  -6.633602530769105E-01
  -6.580570988052385E-01  -6.522284065097148E-01  -6.458575465683648E-01
  -6.389279547286101E-01  -6.314231881993428E-01  -6.233269865486881E-01
  -6.146233375953815E-01  -6.052965484701786E-01  -5.953313220092828E-01
  -5.847128386239087E-01  -5.734268437686244E-01  -5.614597411056850E-01
  -5.487986914327602E-01  -5.354317174071136E-01  -5.213478140599184E-01
  -5.065370650497670E-01  -4.909907645543209E-01  -4.747015446429419E-01
  -4.576635079111606E-01  -4.398723650894262E-01  -4.213255772637892E-01
  -4.020225022649951E-01  -3.819645446945583E-01  -3.611562234659824E-01
  -3.396078321062431E-01  -3.173323930889986E-01  -2.943447529563519E-01
  -2.706616468490818E-01  -2.463017627435475E-01  -2.212858051841582E-01
  -1.956365582780141E-01  -1.693789476945839E-01  -1.425401013880789E-01
  -1.151494087334852E-01  -8.723857773902020E-02  -5.884168996807248E-02
  -2.999525277248183E-02  -7.382484063358708E-04   2.888782044466030E-02
   5.883888921869979E-02   8.906829465555968E-02   1.195267431717796E-01
   1.501622850477882E-01   1.809202950815028E-01   2.117434604037546E-01
   2.425717761922546E-01   2.733425500624647E-01   3.039904159553720E-01
   3.344473583834530E-01   3.646427479366695E-01   3.945033889897318E-01
   4.239535805896159E-01   4.529151915378922E-01   4.813077507152335E-01
   5.090485537248606E-01   5.360527869569603E-01   5.622336701965174E-01
   5.875026189116861E-01   6.117694273679516E-01   6.349424737139038E-01
   6.569289481765087E-01   6.776351054862161E-01   6.969665426239923E-01
   7.148285029422544E-01   7.311262076583949E-01   7.457652156518222E-01
   7.586518124121062E-01   7.696934288852524E-01   7.787990908456942E-01
   7.858798992822328E-01   7.908495421250606E-01   7.936248374563273E-01
   7.941263081368182E-01   7.922787875448299E-01   7.880120558579794E-01
   7.812615060122365E-01   7.719688381437517E-01   7.600827809556636E-01
   7.455598380519105E-01   7.283650568414464E-01   7.084728171372128E-01
   6.858676360530961E-01   6.605449852374787E-01   6.325121158728042E-01
   6.017888862162127E-01   5.684085857567923E-01   5.324187493210828E-01
   4.938819536718992E-01   4.528765883191186E-01   4.094975913989465E-01
   3.638571405860035E-01   3.160852880877100E-01   2.663305278422128E-01
   2.147602821109003E-01   1.615612937381393E-01   1.069399094604717E-01
   5.112223880399731E-02  -5.645827666280424E-03  -6.309875766325972E-02
  -1.209516915401564E-01  -1.789009495884295E-01  -2.366247503873593E-01
  -2.937841583274417E-01  -3.500242781769545E-01  -4.049757140085172E-01
  -4.582563089074347E-01  -5.094731806018873E-01  -5.582250664416839E-01
  -6.041049889623662E-01  -6.467032505609029E-01  -6.856107625362647E-01
  -7.204227098740069E-01  -7.507425486441014E-01  -7.761863277092010E-01
  -7.963873205868268E-01  -8.110009467629673E-01  -8.197099545214456E-01
  -8.222298294508408E-01  -8.183143842534328E-01  -8.077614763646377E-01
  -7.904187902741358E-01  -7.661896114244358E-01  -7.350385082796438E-01
  -6.969968287676400E-01  -6.521679069959513E-01  -6.007318661528974E-01
  -5.429498940941774E-01  -4.791678595804449E-01  -4.098191298094329E-01
  -3.354264441480064E-01  -2.566026952196149E-01  -1.740504671751564E-01
  -8.856018252918367E-02  -1.006713855372510E-03   8.765567460917015E-02
   1.764001773186327E-01   2.641361937236010E-01   3.497200514128482E-01
   4.319677582620405E-01   5.096698011241295E-01   5.816079678325875E-01
   6.465741223157162E-01   7.033908095152464E-01   7.509335078337903E-01
   7.881542824974181E-01   8.141065242662560E-01   8.279703854068798E-01
   8.290784501317747E-01   8.169411015447511E-01   7.912709736156092E-01
   7.520058073413987E-01   6.993289679258838E-01   6.336868277918706E-01
   5.558021821474260E-01   4.666828435630405E-01   3.676245637005721E-01
   2.602074581871818E-01   1.462851688304762E-01   2.796608989213783E-02
  -9.241388448263342E-02  -2.123274634764737E-01  -3.291010715043269E-01
  -4.399688698336325E-01  -5.421352895771346E-01  -6.328453389025864E-01
  -7.094615742118278E-01  -7.695462254343459E-01  -8.109465500884578E-01
  -8.318810730838576E-01  -8.310239662301535E-01  -8.075844530503049E-01
  -7.613778136422003E-01  -6.928843363095271E-01  -6.032924445872636E-01
  -4.945222480088597E-01  -3.692259499146666E-01  -2.307619211255868E-01
  -8.313983576728853E-02   6.906491986739004E-02   2.208283061517809E-01
   3.668256197059934E-01   5.016083879097634E-01   6.198064766202179E-01
   7.163499285552835E-01   7.867032056013178E-01   8.271027020214242E-01
   8.347867375036795E-01   8.082058562171943E-01   7.472002901176433E-01
   6.531310376079816E-01   5.289513062372839E-01   3.792062017179453E-01
   2.099506212274702E-01   2.857839331688778E-02  -1.564401883234056E-01
  -3.359102224019439E-01  -5.003453453678955E-01  -6.404675873941410E-01
  -7.477526397077545E-01  -8.149926997511666E-01  -8.368432405780442E-01
  -8.103155407906767E-01  -7.351742439200748E-01  -6.141992156373589E-01
  -4.532740914976325E-01  -2.612705805433190E-01  -4.970802513731104E-02
   1.678181564909719E-01   3.764281276549673E-01   5.609385524486880E-01
   7.069809577079545E-01   8.021852701373653E-01   8.373383993850642E-01
   8.074147596202056E-01   7.123698843855949E-01   5.575919673106418E-01
   3.539209549891087E-01   1.171716303308274E-01  -1.328642627474411E-01
  -3.739130065367733E-01  -5.831313844021381E-01  -7.393041989835091E-01
  -8.251365044862090E-01  -8.293669462369945E-01  -7.484734286061904E-01
  -5.877921301948761E-01  -3.617065495207211E-01  -9.283430441875191E-02
   1.898613895441895E-01   4.539499185952151E-01   6.671782099528061E-01
   8.015185003064229E-01   8.371380760411272E-01   7.657389554445755E-01
   5.927112767541266E-01   3.376225622957898E-01   3.273226177586042E-02
  -2.805299560051111E-01  -5.568754381365961E-01  -7.536817622233239E-01
  -8.378590155056028E-01  -7.919777824449373E-01  -6.185216640322060E-01
  -3.412621492875342E-01  -3.099613806180622E-03   3.397477848260431E-01
   6.266579769711974E-01   8.033801825345600E-01   8.328502763384406E-01
   7.039052342941773E-01   4.358231931374408E-01   7.714373461488350E-02
  -3.018029642470388E-01  -6.219326533202018E-01  -8.118963523920014E-01
  -8.247454074374315E-01  -6.508916239583512E-01  -3.237185608673296E-01
   8.459307203258803E-02   4.773838271757717E-01   7.557470223450414E-01
   8.439433674630670E-01   7.115852897777668E-01   3.859821940945883E-01
  -5.027258461752479E-02  -4.778997135152344E-01  -7.725177564904693E-01
  -8.414628210116388E-01  -6.551090802844398E-01  -2.618850517147150E-01
   2.202857423879651E-01   6.366573554066768E-01   8.447134074833181E-01
   7.647132645236375E-01   4.137353813021127E-01  -9.173984769539704E-02
  -5.702499209953167E-01  -8.388191910792555E-01  -7.845251291994210E-01
  -4.162605450453194E-01   1.277428116897910E-01   6.263001140881933E-01
   8.631963208042476E-01   7.233926279118349E-01   2.546304392308473E-01
  -3.395952851067651E-01  -7.824463901981138E-01  -8.520740467844405E-01
  -4.978799276336436E-01   1.172542313901405E-01   6.822331555284190E-01
   8.911983665268851E-01   6.130419972243458E-01  -1.728109496574557E-02
  -6.509419234426951E-01  -9.116588411092317E-01  -6.225964868808256E-01
   6.276175901752955E-02   7.252199189044271E-01   9.280916446224926E-01
   5.100314633885076E-01  -2.738457291920164E-01  -8.877766362016469E-01
  -8.744364537963337E-01  -2.054824745372660E-01   6.472346942109142E-01
   1.023838766499133E+00   5.864745887196622E-01  -3.606542395300502E-01
  -1.047988489613390E+00  -8.515485005799344E-01   1.273555562518971E-01
   1.052957383788805E+00   1.038433771073008E+00   7.473796254352138E-04
  -1.128091762870635E+00  -1.189169978777290E+00   1.900875447443346E-02
   1.345545697943301E+00   1.310120154002106E+00  -2.645687467313609E-01
  -1.761530043437867E+00  -1.322393886418389E+00   8.896447982801560E-01
   2.377794441090349E+00   9.707509304250767E-01  -2.132190967547874E+00
  -2.990643995623516E+00   3.240246475431868E-01   4.177251331565568E+00
   2.803955300493152E+00  -3.564600688396840E+00  -6.548836051511566E+00
   2.809371868056791E-01   9.681691921776043E+00   6.387052264114574E+00
  -1.019408674637525E+01  -1.675742843617132E+01   4.821784605231863E+00
   3.006415510785687E+01   1.163579059489133E+01  -4.278952737718620E+01
  -4.698591792277926E+01   4.498974210962069E+01   1.114347139189089E+02
  -1.270966018852606E+01  -2.137324054219414E+02  -1.066152364441561E+02
   3.458237151158253E+02   4.193402547157661E+02  -4.354619407503951E+02
  -1.119672662562272E+03   2.168569891875936E+02   2.501421450925498E+03
   1.090955604003107E+03  -4.802820158460252E+03  -5.503511499593962E+03
   7.368713734790406E+03   1.761987267190295E+04  -5.541630665694548E+03
  -4.616044942600684E+04  -1.897437410631334E+04   1.012230041693793E+05
   1.234807270906063E+05  -1.662281520796445E+05  -4.559761703307157E+05
   6.911233250015293E+04   1.297267060536145E+06   9.581373663562313E+05
  -2.760700828954155E+06  -5.390284171008951E+06   2.605724962543968E+06
   1.864214385261772E+07   1.267022031778859E+07  -4.219885116088757E+07
  -9.021578174582225E+07   1.798138679055397E+07
    </PP_PSWFC.2>
    <PP_PSWFC.3 size="1073" index="3" label="2P" l="1">
   4.134637127999127E-08   4.239305962647511E-08   4.346624501328317E-08
   4.456659821611712E-08   4.569480699144312E-08   4.685157650636129E-08
   4.803762977935814E-08   4.925370813221628E-08   5.050057165336423E-08
   5.177899967295653E-08   5.308979124997964E-08   5.443376567168960E-08
   5.581176296569302E-08   5.722464442499098E-08   5.867329314631540E-08
   6.015861458209198E-08   6.168153710637757E-08   6.324301259512349E-08
   6.484401702112838E-08   6.648555106405293E-08   6.816864073587596E-08
   6.989433802218533E-08   7.166372153970208E-08   7.347789721045070E-08
   7.533799895299586E-08   7.724518939117699E-08   7.920066058078607E-08
   8.120563475464004E-08   8.326136508651522E-08   8.536913647442154E-08
   8.753026634370371E-08   8.974610547047467E-08   9.201803882589327E-08
   9.434748644181538E-08   9.673590429835932E-08   9.918478523393881E-08
   1.016956598783348E-07   1.042700976093878E-07   1.069097075339082E-07
   1.096161394934199E-07   1.123910850953621E-07   1.152362787703987E-07
   1.181534988564915E-07   1.211445687104175E-07   1.242113578474255E-07
   1.273557831097404E-07   1.305798098646510E-07   1.338854532329263E-07
   1.372747793483287E-07   1.407499066490137E-07   1.443130072016189E-07
   1.479663080588743E-07   1.517120926515801E-07   1.555527022158219E-07
   1.594905372563176E-07   1.635280590468062E-07   1.676677911684214E-07
   1.719123210870089E-07   1.762643017703719E-07   1.807264533464599E-07
   1.853015648035316E-07   1.899924957333599E-07   1.948021781185651E-07
   1.997336181651943E-07   2.047898981816945E-07   2.099741785054482E-07
   2.152896994780831E-07   2.207397834707851E-07   2.263278369608811E-07
   2.320573526609943E-07   2.379319117020939E-07   2.439551858718123E-07
   2.501309399094251E-07   2.564630338589261E-07   2.629554254816752E-07
   2.696121727301158E-07   2.764374362841201E-07   2.834354821515394E-07
   2.906106843345875E-07   2.979675275637249E-07   3.055106101007484E-07
   3.132446466128438E-07   3.211744711193936E-07   3.293050400133833E-07
   3.376414351592962E-07   3.461888670694272E-07   3.549526781606093E-07
   3.639383460933815E-07   3.731514871956879E-07   3.825978599732503E-07
   3.922833687087997E-07   4.022140671524277E-07   4.123961623053572E-07
   4.228360182994972E-07   4.335401603752141E-07   4.445152789597892E-07
   4.557682338491336E-07   4.673060584953557E-07   4.791359644028701E-07
   4.912653456357965E-07   5.037017834394555E-07   5.164530509788647E-07
   5.295271181971853E-07   5.429321567971600E-07   5.566765453486600E-07
   5.707688745255190E-07   5.852179524749464E-07   6.000328103228620E-07
   6.152227078185980E-07   6.307971391224987E-07   6.467658387400250E-07
   6.631387876060881E-07   6.799262193234006E-07   6.971386265587548E-07
   7.147867676012222E-07   7.328816730863636E-07   7.514346528906725E-07
   7.704573032005433E-07   7.899615137601904E-07   8.099594753030487E-07
   8.304636871712934E-07   8.514869651282493E-07   8.730424493685689E-07
   8.951436127311854E-07   9.178042691201798E-07   9.410385821388041E-07
   9.648610739420906E-07   9.892866343135517E-07   1.014330529971655E-06
   1.040008414111894E-06   1.066336336190402E-06   1.093330751955247E-06
   1.121008533731653E-06   1.149386980967598E-06   1.178483831046371E-06
   1.208317270372827E-06   1.238905945740306E-06   1.270268975985289E-06
   1.302425963937091E-06   1.335397008670060E-06   1.369202718065911E-06
   1.403864221694104E-06   1.439403184018254E-06   1.475841817936869E-06
   1.513202898666861E-06   1.551509777978505E-06   1.590786398790752E-06
   1.631057310136021E-06   1.672347682503796E-06   1.714683323572665E-06
   1.758090694340572E-06   1.802596925663420E-06   1.848229835212328E-06
   1.895017944860154E-06   1.942990498508139E-06   1.992177480363817E-06
   2.042609633681625E-06   2.094318479977909E-06   2.147336338732345E-06
   2.201696347588095E-06   2.257432483063282E-06   2.314579581786791E-06
   2.373173362271618E-06   2.433250447239384E-06   2.494848386510011E-06
   2.558005680470743E-06   2.622761804139382E-06   2.689157231836539E-06
   2.757233462482510E-06   2.827033045534514E-06   2.898599607580423E-06
   2.971977879605816E-06   3.047213724951127E-06   3.124354167976577E-06
   3.203447423452721E-06   3.284542926694890E-06   3.367691364460603E-06
   3.452944706628932E-06   3.540356238681899E-06   3.629980595008074E-06
   3.721873793049124E-06   3.816093268310872E-06   3.912697910260452E-06
   4.011748099132245E-06   4.113305743665484E-06   4.217434319797014E-06
   4.324198910333697E-06   4.433666245628823E-06   4.545904745288317E-06
   4.660984560932646E-06   4.778977620041034E-06   4.899957670905715E-06
   5.024000328723892E-06   5.151183122856556E-06   5.281585545283546E-06
   5.415289100285007E-06   5.552377355380647E-06   5.692935993558178E-06
   5.837052866823905E-06   5.984818051108852E-06   6.136323902564511E-06
   6.291665115283848E-06   6.450938780483078E-06   6.614244447181640E-06
   6.781684184418103E-06   6.953362645040698E-06   7.129387131112837E-06
   7.309867660973860E-06   7.494917037997371E-06   7.684650921089998E-06
   7.879187896974384E-06   8.078649554302110E-06   8.283160559642171E-06
   8.492848735393059E-06   8.707845139666871E-06   8.928284148195185E-06
   9.154303538308420E-06   9.386044575040405E-06   9.623652099412611E-06
   9.867274618952845E-06   1.011706440050488E-05   1.037317756538747E-05
   1.063577418696155E-05   1.090501839066706E-05   1.118107845659179E-05
   1.146412692463593E-05   1.175434070233884E-05   1.205190117543438E-05
   1.235699432120461E-05   1.266981082470259E-05   1.299054619791614E-05
   1.331940090194833E-05   1.365658047228950E-05   1.400229564726026E-05
   1.435676249970516E-05   1.472020257201897E-05   1.509284301459097E-05
   1.547491672775225E-05   1.586666250731601E-05   1.626832519380101E-05
   1.668015582543117E-05   1.710241179500806E-05   1.753535701075243E-05
   1.797926206121692E-05   1.843440438437192E-05   1.890106844097039E-05
   1.937954589230023E-05   1.987013578243449E-05   2.037314472509403E-05
   2.088888709523871E-05   2.141768522550690E-05   2.195986960762613E-05
   2.251577909892027E-05   2.308576113404250E-05   2.367017194206616E-05
   2.426937676906870E-05   2.488375010634832E-05   2.551367592441494E-05
   2.615954791290227E-05   2.682176972655047E-05   2.750075523741260E-05
   2.819692879344295E-05   2.891072548362788E-05   2.964259140982539E-05
   3.039298396548244E-05   3.116237212140423E-05   3.195123671875391E-05
   3.276007076946504E-05   3.358937976425493E-05   3.443968198843050E-05
   3.531150884568387E-05   3.620540519007990E-05   3.712192966644220E-05
   3.806165505935068E-05   3.902516865096806E-05   4.001307258791804E-05
   4.102598425744492E-05   4.206453667308832E-05   4.312937887011417E-05
   4.422117631094854E-05   4.534061130086648E-05   4.648838341419602E-05
   4.766520993130233E-05   4.887182628662479E-05   5.010898652804651E-05
   5.137746378788188E-05   5.267805076577703E-05   5.401156022382266E-05
   5.537882549418913E-05   5.678070099959968E-05   5.821806278696560E-05
   5.969180907451716E-05   6.120286081276964E-05   6.275216225967511E-05
   6.434068157031834E-05   6.596941140152266E-05   6.763936953174470E-05
   6.935159949664169E-05   7.110717124070918E-05   7.290718178539370E-05
   7.475275591409627E-05   7.664504687449477E-05   7.858523709862006E-05
   8.057453894113603E-05   8.261419543628259E-05   8.470548107395140E-05
   8.684970259537943E-05   8.904819980895358E-05   9.130234642663469E-05
   9.361355092152166E-05   9.598325740708757E-05   9.841294653863665E-05
   1.009041364375406E-04   1.034583836388303E-04   1.060772840627318E-04
   1.087624740107489E-04   1.115156311869150E-04   1.143384757448430E-04
   1.172327713612308E-04   1.202003263364833E-04   1.232429947231374E-04
   1.263626774827908E-04   1.295613236722514E-04   1.328409316596451E-04
   1.362035503712366E-04   1.396512805697364E-04   1.431862761648866E-04
   1.468107455571401E-04   1.505269530152664E-04   1.543372200887358E-04
   1.582439270557620E-04   1.622495144078949E-04   1.663564843720901E-04
   1.705674024711929E-04   1.748848991238059E-04   1.793116712845324E-04
   1.838504841256050E-04   1.885041727609492E-04   1.932756440137426E-04
   1.981678782285639E-04   2.031839311292572E-04   2.083269357236526E-04
   2.136001042563285E-04   2.190067302106181E-04   2.245501903610969E-04
   2.302339468778022E-04   2.360615494836172E-04   2.420366376657400E-04
   2.481629429433256E-04   2.544442911918817E-04   2.608846050264902E-04
   2.674879062449134E-04   2.742583183324645E-04   2.812000690296792E-04
   2.883174929648952E-04   2.956150343531660E-04   3.030972497628006E-04
   3.107688109519915E-04   3.186345077765367E-04   3.266992511708553E-04
   3.349680762041354E-04   3.434461452131482E-04   3.521387510140553E-04
   3.610513201950604E-04   3.701894164915630E-04   3.795587442466061E-04
   3.891651519580668E-04   3.990146359149785E-04   4.091133439254689E-04
   4.194675791381543E-04   4.300838039597857E-04   4.409686440708988E-04
   4.521288925428677E-04   4.635715140577966E-04   4.753036492347829E-04
   4.873326190644354E-04   4.996659294548712E-04   5.123112758917140E-04
   5.252765482149042E-04   5.385698355153776E-04   5.521994311543964E-04
   5.661738379089204E-04   5.805017732455718E-04   5.951921747268780E-04
   6.102542055531079E-04   6.256972602424387E-04   6.415309704535854E-04
   6.577652109541210E-04   6.744101057379984E-04   6.914760342959963E-04
   7.089736380431264E-04   7.269138269065489E-04   7.453077860780234E-04
   7.641669829350738E-04   7.835031741349500E-04   8.033284128855429E-04
   8.236550563979135E-04   8.444957735243735E-04   8.658635525871427E-04
   8.877717094021135E-04   9.102338955024515E-04   9.332641065668220E-04
   9.568766910576071E-04   9.810863590737949E-04   1.005908191424042E-03
   1.031357648925519E-03   1.057450581933194E-03   1.084203240106337E-03
   1.111632282416815E-03   1.139754787406351E-03   1.168588263697341E-03
   1.198150660764525E-03   1.228460379973278E-03   1.259536285891348E-03
   1.291397717880029E-03   1.324064501971541E-03   1.357556963041463E-03
   1.391895937279860E-03   1.427102784970245E-03   1.463199403585926E-03
   1.500208241205202E-03   1.538152310260429E-03   1.577055201624027E-03
   1.616941099039850E-03   1.657834793910137E-03   1.699761700445881E-03
   1.742747871188153E-03   1.786820012908918E-03   1.832005502903716E-03
   1.878332405679324E-03   1.925829490054053E-03   1.974526246670328E-03
   2.024452905938969E-03   2.075640456418973E-03   2.128120663643567E-03
   2.181926089406819E-03   2.237090111517492E-03   2.293646944031588E-03
   2.351631657977119E-03   2.411080202579721E-03   2.472029427001757E-03
   2.534517102606597E-03   2.598581945760575E-03   2.664263641183083E-03
   2.731602865860948E-03   2.800641313535036E-03   2.871421719775656E-03
   2.943987887659028E-03   3.018384714057729E-03   3.094658216559429E-03
   3.172855561027811E-03   3.253025089818791E-03   3.335216350670495E-03
   3.419480126274837E-03   3.505868464553602E-03   3.594434709648109E-03
   3.685233533640920E-03   3.778320969025394E-03   3.873754441939201E-03
   3.971592806175876E-03   4.071896377994086E-03   4.174726971741332E-03
   4.280147936304438E-03   4.388224192413024E-03   4.499022270803604E-03
   4.612610351270105E-03   4.729058302616012E-03   4.848437723524408E-03
   4.970821984369310E-03   5.096286269982317E-03   5.224907623398136E-03
   5.356764990594198E-03   5.491939266247542E-03   5.630513340526229E-03
   5.772572146936236E-03   5.918202711244834E-03   6.067494201499830E-03
   6.220537979163447E-03   6.377427651386724E-03   6.538259124439639E-03
   6.703130658321324E-03   6.872142922569846E-03   7.045399053295091E-03
   7.223004711451185E-03   7.405068142376925E-03   7.591700236617658E-03
   7.783014592056735E-03   7.979127577373960E-03   8.180158396852644E-03
   8.386229156559333E-03   8.597464931912846E-03   8.813993836668269E-03
   9.035947093332653E-03   9.263459105036544E-03   9.496667528878107E-03
   9.735713350763871E-03   9.980740961761960E-03   1.023189823598989E-02
   1.048933661005392E-02   1.075321116406060E-02   1.102368070421418E-02
   1.130090784702216E-02   1.158505910512199E-02   1.187630497474481E-02
   1.217482002483162E-02   1.248078298781737E-02   1.279437685209294E-02
   1.311578895615748E-02   1.344521108447368E-02   1.378283956503354E-02
   1.412887536864133E-02   1.448352420992218E-02   1.484699665006208E-02
   1.521950820127537E-02   1.560127943301120E-02   1.599253607988795E-02
   1.639350915135880E-02   1.680443504309961E-02   1.722555565011178E-02
   1.765711848153062E-02   1.809937677712220E-02   1.855258962545673E-02
   1.901702208373169E-02   1.949294529922963E-02   1.998063663237467E-02
   2.048037978136302E-02   2.099246490832955E-02   2.151718876701052E-02
   2.205485483185646E-02   2.260577342855133E-02   2.317026186587473E-02
   2.374864456885422E-02   2.434125321313672E-02   2.494842686050862E-02
   2.557051209548337E-02   2.620786316287232E-02   2.686084210624377E-02
   2.752981890716771E-02   2.821517162514033E-02   2.891728653806222E-02
   2.963655828315293E-02   3.037338999815390E-02   3.112819346268088E-02
   3.190138923956038E-02   3.269340681598701E-02   3.350468474431582E-02
   3.433567078229675E-02   3.518682203254792E-02   3.605860508103972E-02
   3.695149613436397E-02   3.786598115552856E-02   3.880255599802088E-02
   3.976172653784973E-02   4.074400880326991E-02   4.174992910187215E-02
   4.278002414469834E-02   4.383484116702591E-02   4.491493804544625E-02
   4.602088341083359E-02   4.715325675678535E-02   4.831264854308553E-02
   4.949966029372342E-02   5.071490468896717E-02   5.195900565097365E-02
   5.323259842237960E-02   5.453632963729552E-02   5.587085738409132E-02
   5.723685125933192E-02   5.863499241218877E-02   6.006597357861534E-02
   6.153049910454829E-02   6.302928495734861E-02   6.456305872466740E-02
   6.613255959988001E-02   6.773853835318630E-02   6.938175728744400E-02
   7.106299017774623E-02   7.278302219372018E-02   7.454264980347194E-02
   7.634268065805773E-02   7.818393345531222E-02   8.006723778181578E-02
   8.199343393172917E-02   8.396337270117535E-02   8.597791515679112E-02
   8.803793237701651E-02   9.014430516463795E-02   9.229792372903739E-02
   9.449968733654887E-02   9.675050392726173E-02   9.905128969654652E-02
   1.014029686395294E-01   1.038064720566683E-01   1.062627380185338E-01
   1.087727107878277E-01   1.113373401966200E-01   1.139575809767167E-01
   1.166343920410139E-01   1.193687357136375E-01   1.221615769066031E-01
   1.250138822406808E-01   1.279266191080896E-01   1.309007546745956E-01
   1.339372548185418E-01   1.370370830042814E-01   1.402011990874565E-01
   1.434305580495129E-01   1.467261086588145E-01   1.500887920556943E-01
   1.535195402587513E-01   1.570192745896892E-01   1.605889040139919E-01
   1.642293233947213E-01   1.679414116567439E-01   1.717260298587123E-01
   1.755840191701549E-01   1.795161987510870E-01   1.835233635316026E-01
   1.876062818889971E-01   1.917656932200530E-01   1.960023054062408E-01
   2.003167921697166E-01   2.047097903181477E-01   2.091818968765848E-01
   2.137336661047903E-01   2.183656063986709E-01   2.230781770747176E-01
   2.278717850366431E-01   2.327467813237412E-01   2.377034575408392E-01
   2.427420421701222E-01   2.478626967655415E-01   2.530655120309995E-01
   2.583505037840357E-01   2.637176088073124E-01   2.691666805908166E-01
   2.746974849683903E-01   2.803096956529178E-01   2.860028896753154E-01
   2.917765427333053E-01   2.976300244568879E-01   3.035625935984162E-01
   3.095733931562145E-01   3.156614454418436E-01   3.218256471022772E-01
   3.280647641095589E-01   3.343774267318557E-01   3.407621245012363E-01
   3.472172011950448E-01   3.537408498492860E-01   3.603311078241374E-01
   3.669858519434392E-01   3.737027937317998E-01   3.804794747749033E-01
   3.873132622305011E-01   3.942013445196392E-01   4.011407272297445E-01
   4.081282292633028E-01   4.151604792680854E-01   4.222339123870385E-01
   4.293447673682129E-01   4.364890840773450E-01   4.436627014578917E-01
   4.508612559855675E-01   4.580801806665235E-01   4.653147046304098E-01
   4.725598533715276E-01   4.798104496930743E-01   4.870611154112059E-01
   4.943062738770395E-01   5.015401533759758E-01   5.087567914646248E-01
   5.159500403061706E-01   5.231135730652350E-01   5.302408914229579E-01
   5.373253342722457E-01   5.443600876517352E-01   5.513381959749097E-01
   5.582525746080454E-01   5.650960238469529E-01   5.718612443379301E-01
   5.785408539827458E-01   5.851274063607096E-01   5.916134106929937E-01
   5.979913533650315E-01   6.042537210121295E-01   6.103930251611380E-01
   6.164018284070422E-01   6.222727720876381E-01   6.279986054017755E-01
   6.335722158970249E-01   6.389866612308709E-01   6.442352020855544E-01
   6.493113360904629E-01   6.542088325773281E-01   6.589217679624974E-01
   6.634445615170732E-01   6.677720112497955E-01   6.718993295892323E-01
   6.758221785111442E-01   6.795367037139496E-01   6.830395674002064E-01
   6.863279791750754E-01   6.893997245242454E-01   6.922531902839836E-01
   6.948873864653882E-01   6.973019637439839E-01   6.994972258751883E-01
   7.014741362466048E-01   7.032343177303907E-01   7.047800449541132E-01
   7.061142280676354E-01   7.072403870479064E-01   7.081626155545363E-01
   7.088855333282036E-01   7.094142261130887E-01   7.097541720854976E-01
   7.099111537857419E-01   7.098911545814004E-01   7.097002387396999E-01
   7.093444142574783E-01   7.088294776916876E-01   7.081608403544628E-01
   7.073433353872719E-01   7.063810054114703E-01   7.052768706706266E-01
   7.040326778360327E-01   7.026486299436192E-01   7.011230982704580E-01
   6.994523173443392E-01   6.976300647122792E-01   6.956492950320210E-01
   6.935088534970784E-01   6.912094017179766E-01   6.887517208422864E-01
   6.861367108653839E-01   6.833653898296349E-01   6.804388929164733E-01
   6.773584714357541E-01   6.741254917166496E-01   6.707414339041977E-01
   6.672078906654162E-01   6.635265658086529E-01   6.596992728195487E-01
   6.557279333166480E-01   6.516145754292941E-01   6.473613320999896E-01
   6.429704393129040E-01   6.384442342496407E-01   6.337851533727671E-01
   6.289957304369527E-01   6.240785944268522E-01   6.190364674201414E-01
   6.138721623733409E-01   6.085885808272981E-01   6.031887105284119E-01
   5.976756229609341E-01   5.920524707849536E-01   5.863224851740056E-01
   5.804889730456939E-01   5.745553141782144E-01   5.685249582052676E-01
   5.624014214817660E-01   5.561882838128005E-01   5.498891850384225E-01
   5.435078214673356E-01   5.370479421464655E-01   5.305133449959185E-01
   5.239078727365274E-01   5.172354086763041E-01   5.104998723216979E-01
   5.037052148222796E-01   4.968554142532763E-01   4.899544707430625E-01
   4.830064014555642E-01   4.760152354405127E-01   4.689850083675117E-01
   4.619197571628952E-01   4.548235145712726E-01   4.477003036663913E-01
   4.405541323384354E-01   4.333889877870228E-01   4.262088310509075E-01
   4.190175916066651E-01   4.118191620693963E-01   4.046173930286779E-01
   3.974160880526137E-01   3.902189988918678E-01   3.830298209140272E-01
   3.758521887965472E-01   3.686896725039391E-01   3.615457735718050E-01
   3.544239217168826E-01   3.473274717884994E-01   3.402597010728359E-01
   3.332238069572338E-01   3.262229049575484E-01   3.192600271073076E-01
   3.123381207032849E-01   3.054600473980823E-01   2.986285826265243E-01
   2.918464153491400E-01   2.851161480927764E-01   2.784402972655760E-01
   2.718212937209975E-01   2.652614835434675E-01   2.587631290268047E-01
   2.523284098150765E-01   2.459594241747243E-01   2.396581903666232E-01
   2.334266480866654E-01   2.272666599438334E-01   2.211800129455928E-01
   2.151684199616170E-01   2.092335211383933E-01   2.033768852391141E-01
   1.976000108854346E-01   1.919043276801189E-01   1.862911971922963E-01
   1.807619137899674E-01   1.753177053075012E-01   1.699597335391204E-01
   1.646890945527334E-01   1.595068188219031E-01   1.544138711771961E-01
   1.494111505815771E-01   1.444994897378643E-01   1.396796545394797E-01
   1.349523433787639E-01   1.303181863299364E-01   1.257777442263100E-01
   1.213315076535733E-01   1.169798958828080E-01   1.127232557683543E-01
   1.085618606366810E-01   1.044959091930206E-01   1.005255244726950E-01
   9.665075286379007E-02   9.287156322714472E-02   8.918784613852468E-02
   8.559941327638576E-02   8.210599697682706E-02   7.870724997523963E-02
   7.540274535181174E-02   7.219197669551536E-02   6.907435849851364E-02
   6.604922679015454E-02   6.311584001689845E-02   6.027338017171616E-02
   5.752095417373406E-02   5.485759549623554E-02   5.228226603858582E-02
   4.979385823526520E-02   4.739119739299456E-02   4.507304424493866E-02
   4.283809770919079E-02   4.068499783718550E-02   3.861232893635929E-02
   3.661862285028338E-02   3.470236237862184E-02   3.286198481862020E-02
   3.109588560939044E-02   2.940242206001987E-02   2.777991714247915E-02
   2.622666333042521E-02   2.474092646527220E-02   2.332094963132370E-02
   2.196495702230536E-02   2.067115778229467E-02   1.943774980479762E-02
   1.826292347455756E-02   1.714486533758385E-02   1.608176168584581E-02
   1.507180204407759E-02   1.411318254717081E-02   1.320410919768435E-02
   1.234280099406362E-02   1.152749292122806E-02   1.075643879624579E-02
   1.002791396286308E-02   9.340217829685520E-03   8.691676247813557E-03
   8.080643724711315E-03   7.505505472030835E-03   6.964679286020115E-03
   6.456617260007646E-03   5.979807329293943E-03   5.532774649489968E-03
   5.114082810290796E-03   4.722334886955793E-03   4.356174332780060E-03
   4.014285716341821E-03   3.695395307719206E-03   3.398271518435385E-03
   3.121725200333663E-03   2.864609808960593E-03   2.625821437373353E-03
   2.404298726577961E-03   2.199022659048546E-03   2.009016241975149E-03
   1.833344087047469E-03   1.671111893663347E-03   1.521465842613724E-03
   1.383591907153853E-03   1.256715088526511E-03   1.140098582922848E-03
   1.033042886735488E-03   9.348848468845138E-04   8.449966628621671E-04
   7.627848469670228E-04   6.876891490363177E-04   6.191814516930794E-04
   5.567646414016895E-04   4.999714950016085E-04   4.483631593366310E-04
   4.015304306438579E-04   3.590836232757603E-04   3.206712809570731E-04
   2.859668532772252E-04   2.546582727540251E-04   2.264531145969183E-04
   2.010800657688209E-04   1.782877745324422E-04   1.578437314851001E-04
   1.395331835230912E-04   1.231580820949350E-04   1.085360668770779E-04
   9.549948579196646E-05   8.389445207832048E-05   7.357993891769596E-05
   6.442691192066975E-05   5.631749958060732E-05   4.914420161318578E-05
   4.280913491571486E-05   3.722331670100806E-05   3.230598418656065E-05
   2.798395004817849E-05   2.419099267795066E-05   2.086728011676849E-05
   1.795882635815405E-05   1.541697853937548E-05   1.319793334271220E-05
   1.126228071664226E-05   9.574572793230456E-06   8.102915705735615E-06
   6.818579040220608E-06   5.695647658683856E-06   4.710532899277462E-06
   3.845371695382325E-06   3.063300876214939E-06   0.000000000000000E+00
   0.000000000000000E+00   0.000000000000000E+00   0.000000000000000E+00
   0.000000000000000E+00   0.000000000000000E+00   0.000000000000000E+00
   0.000000000000000E+00   0.000000000000000E+00   0.000000000000000E+00
   0.000000000000000E+00   0.000000000000000E+00   0.000000000000000E+00
   0.000000000000000E+00   0.000000000000000E+00   0.000000000000000E+00
   0.000000000000000E+00   0.000000000000000E+00   0.000000000000000E+00
   0.000000000000000E+00   0.000000000000000E+00   0.000000000000000E+00
   0.000000000000000E+00   0.000000000000000E+00   0.000000000000000E+00
   0.000000000000000E+00   0.000000000000000E+00   0.000000000000000E+00
   0.000000000000000E+00   0.000000000000000E+00   0.000000000000000E+00
   0.000000000000000E+00   0.000000000000000E+00   0.000000000000000E+00
   0.000000000000000E+00   0.000000000000000E+00   0.000000000000000E+00
   0.000000000000000E+00   0.000000000000000E+00   0.000000000000000E+00
   0.000000000000000E+00   0.000000000000000E+00   0.000000000000000E+00
   0.000000000000000E+00   0.000000000000000E+00   0.000000000000000E+00
   0.000000000000000E+00   0.000000000000000E+00   0.000000000000000E+00
   0.000000000000000E+00   0.000000000000000E+00   0.000000000000000E+00
   0.000000000000000E+00   0.000000000000000E+00   0.000000000000000E+00
   0.000000000000000E+00   0.000000000000000E+00   0.000000000000000E+00
   0.000000000000000E+00   0.000000000000000E+00   0.000000000000000E+00
   0.000000000000000E+00   0.000000000000000E+00   0.000000000000000E+00
   0.000000000000000E+00   0.000000000000000E+00   0.000000000000000E+00
   0.000000000000000E+00   0.000000000000000E+00   0.000000000000000E+00
   0.000000000000000E+00   0.000000000000000E+00   0.000000000000000E+00
   0.000000000000000E+00   0.000000000000000E+00   0.000000000000000E+00
   0.000000000000000E+00   0.000000000000000E+00   0.000000000000000E+00
   0.000000000000000E+00   0.000000000000000E+00   0.000000000000000E+00
   0.000000000000000E+00   0.000000000000000E+00   0.000000000000000E+00
   0.000000000000000E+00   0.000000000000000E+00   0.000000000000000E+00
   0.000000000000000E+00   0.000000000000000E+00   0.000000000000000E+00
   0.000000000000000E+00   0.000000000000000E+00   0.000000000000000E+00
   0.000000000000000E+00   0.000000000000000E+00   0.000000000000000E+00
   0.000000000000000E+00   0.000000000000000E+00   0.000000000000000E+00
   0.000000000000000E+00   0.000000000000000E+00   0.000000000000000E+00
   0.000000000000000E+00   0.000000000000000E+00   0.000000000000000E+00
   0.000000000000000E+00   0.000000000000000E+00   0.000000000000000E+00
   0.000000000000000E+00   0.000000000000000E+00   0.000000000000000E+00
   0.000000000000000E+00   0.000000000000000E+00   0.000000000000000E+00
   0.000000000000000E+00   0.000000000000000E+00   0.000000000000000E+00
   0.000000000000000E+00   0.000000000000000E+00   0.000000000000000E+00
   0.000000000000000E+00   0.000000000000000E+00
    </PP_PSWFC.3>
    <PP_PSWFC.4 size="1073" index="4" label="2P" l="1">
   3.432618151940729E-08   3.519515291950331E-08   3.608612243418625E-08
   3.699964694831974E-08   3.793629744437204E-08   3.889665935929808E-08
   3.988133295045662E-08   4.089093367079033E-08   4.192609255350354E-08
   4.298745660647861E-08   4.407568921667618E-08   4.519147056477353E-08
   4.633549805029934E-08   4.750848672753055E-08   4.871116975242475E-08
   4.994429884086543E-08   5.120864473850893E-08   5.250499770252501E-08
   5.383416799553283E-08   5.519698639204133E-08   5.659430469770940E-08
   5.802699628175187E-08   5.949595662282311E-08   6.100210386871982E-08
   6.254637941025295E-08   6.412974846964634E-08   6.575320070383203E-08
   6.741775082301702E-08   6.912443922490944E-08   7.087433264500070E-08
   7.266852482330844E-08   7.450813718799924E-08   7.639431955631668E-08
   7.832825085325362E-08   8.031113984841815E-08   8.234422591155217E-08
   8.442877978717722E-08   8.656610438885013E-08   8.875753561352470E-08
   9.100444317653064E-08   9.330823146768744E-08   9.567034042909339E-08
   9.809224645513461E-08   1.005754633152777E-07   1.031215431002241E-07
   1.057320771920150E-07   1.084086972586950E-07   1.111530762741565E-07
   1.139669295638005E-07   1.168520158766692E-07   1.198101384847184E-07
   1.228431463099197E-07   1.259529350798942E-07   1.291414485128011E-07
   1.324106795322238E-07   1.357626715128068E-07   1.391995195574302E-07
   1.427233718067137E-07   1.463364307816708E-07   1.500409547603538E-07
   1.538392591893463E-07   1.577337181309895E-07   1.617267657472445E-07
   1.658208978211186E-07   1.700186733166071E-07   1.743227159781234E-07
   1.787357159704208E-07   1.832604315600277E-07   1.878996908392483E-07
   1.926563934938079E-07   1.975335126152438E-07   2.025340965591783E-07
   2.076612708506346E-07   2.129182401375831E-07   2.183082901939466E-07
   2.238347899733050E-07   2.295011937145950E-07   2.353110431011131E-07
   2.412679694741739E-07   2.473756961028088E-07   2.536380405109189E-07
   2.600589168633420E-07   2.666423384123233E-07   2.733924200059159E-07
   2.803133806598853E-07   2.874095461947167E-07   2.946853519393817E-07
   3.021453455035497E-07   3.097941896199766E-07   3.176366650588522E-07
   3.256776736159173E-07   3.339222411762309E-07   3.423755208554949E-07
   3.510427962208988E-07   3.599294845935050E-07   3.690411404342261E-07
   3.783834588155252E-07   3.879622789809978E-07   3.977835879950654E-07
   4.078535244850626E-07   4.181783824780493E-07   4.287646153347573E-07
   4.396188397831203E-07   4.507478400539151E-07   4.621585721210952E-07
   4.738581680494644E-07   4.858539404524156E-07   4.981533870625161E-07
   5.107641954177919E-07   5.236942476666536E-07   5.369516254944467E-07
   5.505446151747250E-07   5.644817127483935E-07   5.787716293339590E-07
   5.934232965722133E-07   6.084458722087396E-07   6.238487458177434E-07
   6.396415446707838E-07   6.558341397540636E-07   6.724366519380528E-07
   6.894594583032862E-07   7.069131986263046E-07   7.248087820297803E-07
   7.431573938009923E-07   7.619705023829106E-07   7.812598665422472E-07
   8.010375427189788E-07   8.213158925619082E-07   8.421075906549927E-07
   8.634256324392616E-07   8.852833423352684E-07   9.076943820711647E-07
   9.306727592215946E-07   9.542328359627479E-07   9.783893380490499E-07
   1.003157364017075E-06   1.028552394622471E-06   1.054590302515770E-06
   1.081287362163128E-06   1.108660260018226E-06   1.136726104951633E-06
   1.165502438944220E-06   1.195007248051243E-06   1.225258973643994E-06
   1.256276523936020E-06   1.288079285801122E-06   1.320687136890515E-06
   1.354120458056742E-06   1.388400146092068E-06   1.423547626789367E-06
   1.459584868333604E-06   1.496534395032337E-06   1.534419301393785E-06
   1.573263266561279E-06   1.613090569113110E-06   1.653926102237007E-06
   1.695795389288768E-06   1.738724599744730E-06   1.782740565558066E-06
   1.827870797929133E-06   1.874143504500330E-06   1.921587606986241E-06
   1.970232759250071E-06   2.020109365837648E-06   2.071248600980637E-06
   2.123682428080727E-06   2.177443619687139E-06   2.232565777979741E-06
   2.289083355770736E-06   2.347031678037979E-06   2.406446964003322E-06
   2.467366349769949E-06   2.529827911532642E-06   2.593870689375652E-06
   2.659534711672967E-06   2.726861020106191E-06   2.795891695315819E-06
   2.866669883201716E-06   2.939239821889434E-06   3.013646869379132E-06
   3.089937531894316E-06   3.168159492948303E-06   3.248361643146324E-06
   3.330594110742107E-06   3.414908292967922E-06   3.501356888157632E-06
   3.589993928683006E-06   3.680874814723609E-06   3.774056348891601E-06
   3.869596771732997E-06   3.967555798127460E-06   4.067994654609656E-06
   4.170976117635141E-06   4.276564552814963E-06   4.384825955143416E-06
   4.495827990243924E-06   4.609640036659184E-06   4.726333229211564E-06
   4.845980503461182E-06   4.968656641289347E-06   5.094438317635641E-06
   5.223404148418313E-06   5.355634739667339E-06   5.491212737901352E-06
   5.630222881779664E-06   5.772752055061572E-06   5.918889340906402E-06
   6.068726077547766E-06   6.222355915377114E-06   6.379874875472229E-06
   6.541381409606974E-06   6.706976461780229E-06   6.876763531301974E-06
   7.050848737476276E-06   7.229340885921517E-06   7.412351536569050E-06
   7.599995073383282E-06   7.792388775846098E-06   7.989652892250840E-06
   8.191910714851336E-06   8.399288656912853E-06   8.611916331713528E-06
   8.829926633545023E-06   9.053455820763516E-06   9.282643600942726E-06
   9.517633218181900E-06   9.758571542623949E-06   1.000560916223886E-05
   1.025890047693030E-05   1.051860379502405E-05   1.078488143219816E-05
   1.105789981291743E-05   1.133782957443457E-05   1.162484567342383E-05
   1.191912749531333E-05   1.222085896638411E-05   1.253022866870677E-05
   1.284742995798632E-05   1.317266108438984E-05   1.350612531643192E-05
   1.384803106799506E-05   1.419859202856514E-05   1.455802729676218E-05
   1.492656151725078E-05   1.530442502111509E-05   1.569185396978622E-05
   1.608909050261198E-05   1.649638288816087E-05   1.691398567935504E-05
   1.734215987252903E-05   1.778117307051333E-05   1.823129964984506E-05
   1.869282093220953E-05   1.916602536022042E-05   1.965120867764766E-05
   2.014867411420591E-05   2.065873257501898E-05   2.118170283487798E-05
   2.171791173741524E-05   2.226769439931774E-05   2.283139441970738E-05
   2.340936409481949E-05   2.400196463811272E-05   2.460956640594822E-05
   2.523254912897877E-05   2.587130214939217E-05   2.652622466415708E-05
   2.719772597442282E-05   2.788622574122917E-05   2.859215424768532E-05
   2.931595266778148E-05   3.005807334200149E-05   3.081898005990734E-05
   3.159914834987273E-05   3.239906577614615E-05   3.321923224342844E-05
   3.406016030915521E-05   3.492237550367857E-05   3.580641665854803E-05
   3.671283624309534E-05   3.764220070953263E-05   3.859509084677977E-05
   3.957210214324097E-05   4.057384515875691E-05   4.160094590596465E-05
   4.265404624130220E-05   4.373380426590252E-05   4.484089473662566E-05
   4.597600948748635E-05   4.713985786173875E-05   4.833316715488781E-05
   4.955668306890394E-05   5.081117017792257E-05   5.209741240572020E-05
   5.341621351526363E-05   5.476839761063679E-05   5.615480965165916E-05
   5.757631598151453E-05   5.903380486772032E-05   6.052818705677299E-05
   6.206039634281522E-05   6.363139015067960E-05   6.524215013367019E-05
   6.689368278645552E-05   6.858702007345372E-05   7.032322007310032E-05
   7.210336763840083E-05   7.392857507417749E-05   7.579998283143272E-05
   7.771876021926048E-05   7.968610613474803E-05   8.170324981132281E-05
   8.377145158600837E-05   8.589200368606760E-05   8.806623103552148E-05
   9.029549208204403E-05   9.258117964474903E-05   9.492472178339236E-05
   9.732758268953285E-05   9.979126360020333E-05   1.023173037346590E-04
   1.049072812547865E-04   1.075628142497667E-04   1.102855617456066E-04
   1.130772247401623E-04   1.159395472642990E-04   1.188743174698427E-04
   1.218833687450015E-04   1.249685808579462E-04   1.281318811292591E-04
   1.313752456339797E-04   1.347007004339884E-04   1.381103228414952E-04
   1.416062427144147E-04   1.451906437844289E-04   1.488657650185611E-04
   1.526339020151015E-04   1.564974084347519E-04   1.604586974678713E-04
   1.645202433387307E-04   1.686845828477106E-04   1.729543169523863E-04
   1.773321123884883E-04   1.818207033317311E-04   1.864228931015393E-04
   1.911415559077213E-04   1.959796386411832E-04   2.009401627097927E-04
   2.060262259203703E-04   2.112410044083212E-04   2.165877546158024E-04
   2.220698153195671E-04   2.276906097101299E-04   2.334536475231124E-04
   2.393625272244294E-04   2.454209382502496E-04   2.516326633037068E-04
   2.580015807089357E-04   2.645316668250012E-04   2.712269985197870E-04
   2.780917557068951E-04   2.851302239458475E-04   2.923467971079114E-04
   2.997459801088347E-04   3.073323917105471E-04   3.151107673929328E-04
   3.230859622980730E-04   3.312629542484511E-04   3.396468468407168E-04
   3.482428726176415E-04   3.570563963192805E-04   3.660929182160637E-04
   3.753580775254886E-04   3.848576559145185E-04   3.945975810900203E-04
   4.045839304790315E-04   4.148229350017180E-04   4.253209829384981E-04
   4.360846238945766E-04   4.471205728634817E-04   4.584357143927082E-04
   4.700371068535213E-04   4.819319868178291E-04   4.941277735446123E-04
   5.066320735786479E-04   5.194526854643295E-04   5.325976045774205E-04
   5.460750280776316E-04   5.598933599850987E-04   5.740612163836581E-04
   5.885874307541014E-04   6.034810594407784E-04   6.187513872546903E-04
   6.344079332162181E-04   6.504604564414207E-04   6.669189621749628E-04
   6.837937079735938E-04   7.010952100436897E-04   7.188342497364685E-04
   7.370218802053960E-04   7.556694332289223E-04   7.747885262030690E-04
   7.943910693082864E-04   8.144892728532353E-04   8.350956548037549E-04
   8.562230484947192E-04   8.778846105374158E-04   9.000938289202412E-04
   9.228645313121514E-04   9.462108935702528E-04   9.701474484596962E-04
   9.946890945879594E-04   1.019851105561442E-03   1.045649139368024E-03
   1.072099247991000E-03   1.099217887260854E-03   1.127021926950630E-03
   1.155528661119054E-03   1.184755818710364E-03   1.214721574413226E-03
   1.245444559788334E-03   1.276943874669540E-03   1.309239098843876E-03
   1.342350304020393E-03   1.376298066091543E-03   1.411103477694212E-03
   1.446788161080546E-03   1.483374281302679E-03   1.520884559719573E-03
   1.559342287833961E-03   1.598771341467420E-03   1.639196195281142E-03
   1.680641937650200E-03   1.723134285898765E-03   1.766699601907697E-03
   1.811364908099701E-03   1.857157903812252E-03   1.904106982067756E-03
   1.952241246749243E-03   2.001590530191284E-03   2.052185411195615E-03
   2.104057233480411E-03   2.157238124575139E-03   2.211761015168813E-03
   2.267659658922375E-03   2.324968652757035E-03   2.383723457629048E-03
   2.443960419798784E-03   2.505716792609251E-03   2.569030758783991E-03
   2.633941453253443E-03   2.700488986526106E-03   2.768714468611301E-03
   2.838660033509752E-03   2.910368864282494E-03   2.983885218710206E-03
   3.059254455556921E-03   3.136523061450479E-03   3.215738678392850E-03
   3.296950131913638E-03   3.380207459881124E-03   3.465561941982780E-03
   3.553066129892538E-03   3.642773878134771E-03   3.734740375663311E-03
   3.829022178167509E-03   3.925677241121727E-03   4.024764953591402E-03
   4.126346172814232E-03   4.230483259567343E-03   4.337240114339207E-03
   4.446682214322517E-03   4.558876651239711E-03   4.673892170022707E-03
   4.791799208358863E-03   4.912669937121090E-03   5.036578301699452E-03
   5.163600064247659E-03   5.293812846866246E-03   5.427296175733911E-03
   5.564131526206893E-03   5.704402368903355E-03   5.848194216789082E-03
   5.995594673279385E-03   6.146693481379632E-03   6.301582573876004E-03
   6.460356124595487E-03   6.623110600753828E-03   6.789944816405118E-03
   6.960959987011697E-03   7.136259785151328E-03   7.315950397377024E-03
   7.500140582244954E-03   7.688941729530678E-03   7.882467920643404E-03
   8.080835990259145E-03   8.284165589184215E-03   8.492579248466532E-03
   8.706202444766760E-03   8.925163667004778E-03   9.149594484293666E-03
   9.379629615174502E-03   9.615406998164308E-03   9.857067863626454E-03
   1.010475680697770E-02   1.035862186323736E-02   1.061881458292992E-02
   1.088549010934916E-02   1.115880725718758E-02   1.143892859253951E-02
   1.172602051428021E-02   1.202025333682506E-02   1.232180137426827E-02
   1.263084302590249E-02   1.294756086311567E-02   1.327214171766359E-02
   1.360477677130869E-02   1.394566164682082E-02   1.429499650032675E-02
   1.465298611499792E-02   1.501983999605944E-02   1.539577246710380E-02
   1.578100276768734E-02   1.617575515218643E-02   1.658025898988492E-02
   1.699474886626409E-02   1.741946468545784E-02   1.785465177383679E-02
   1.830056098467932E-02   1.875744880387932E-02   1.922557745664250E-02
   1.970521501511327E-02   2.019663550686930E-02   2.070011902421773E-02
   2.121595183421977E-02   2.174442648936379E-02   2.228584193879977E-02
   2.284050364004553E-02   2.340872367106116E-02   2.399082084258603E-02
   2.458712081062192E-02   2.519795618893893E-02   2.582366666146802E-02
   2.646459909444323E-02   2.712110764813429E-02   2.779355388801372E-02
   2.848230689517862E-02   2.918774337584759E-02   2.991024776973023E-02
   3.065021235706518E-02   3.140803736409924E-02   3.218413106677388E-02
   3.297890989236607E-02   3.379279851881824E-02   3.462622997147565E-02
   3.547964571693047E-02   3.635349575365813E-02   3.724823869911179E-02
   3.816434187291989E-02   3.910228137581605E-02   4.006254216390541E-02
   4.104561811785579E-02   4.205201210657054E-02   4.308223604488744E-02
   4.413681094481653E-02   4.521626695980403E-02   4.632114342148982E-02
   4.745198886838906E-02   4.860936106591008E-02   4.979382701708291E-02
   5.100596296334720E-02   5.224635437471413E-02   5.351559592858671E-02
   5.481429147648335E-02   5.614305399788385E-02   5.750250554036851E-02
   5.889327714519638E-02   6.031600875741765E-02   6.177134911958668E-02
   6.325995564809239E-02   6.478249429108510E-02   6.633963936693553E-02
   6.793207338211317E-02   6.956048682733365E-02   7.122557795076878E-02
   7.292805250707278E-02   7.466862348092550E-02   7.644801078374525E-02
   7.826694092217572E-02   8.012614663689506E-02   8.202636651025064E-02
   8.396834454116546E-02   8.595282968571000E-02   8.798057536168608E-02
   9.005233891550628E-02   9.216888104961349E-02   9.433096520861588E-02
   9.653935692227500E-02   9.879482310342710E-02   1.010981312988648E-01
   1.034500488911630E-01   1.058513422493811E-01   1.083027758265301E-01
   1.108051112016468E-01   1.133591060642818E-01   1.159655131391671E-01
   1.186250790487939E-01   1.213385431116039E-01   1.241066360734762E-01
   1.269300787701624E-01   1.298095807183185E-01   1.327458386327738E-01
   1.357395348676685E-01   1.387913357791171E-01   1.419018900070576E-01
   1.450718266739843E-01   1.483017534982959E-01   1.515922548200468E-01
   1.549438895369500E-01   1.583571889485633E-01   1.618326545066835E-01
   1.653707554700846E-01   1.689719264618686E-01   1.726365649278488E-01
   1.763650284945538E-01   1.801576322256420E-01   1.840146457757294E-01
   1.879362904408863E-01   1.919227361053305E-01   1.959740980841537E-01
   2.000904338622503E-01   2.042717397299999E-01   2.085179473166487E-01
   2.128289200228042E-01   2.172044493539248E-01   2.216442511572330E-01
   2.261479617650519E-01   2.307151340481855E-01   2.353452333836507E-01
   2.400376335417795E-01   2.447916124985015E-01   2.496063481794495E-01
   2.544809141434216E-01   2.594142752137007E-01   2.644052830667272E-01
   2.694526717887162E-01   2.745550534119549E-01   2.797109134436961E-01
   2.849186064018802E-01   2.901763513732078E-01   2.954822276105212E-01
   3.008341701879130E-01   3.062299657334819E-01   3.116672482612887E-01
   3.171434951256610E-01   3.226560231227223E-01   3.282019847657589E-01
   3.337783647627985E-01   3.393819767266267E-01   3.450094601492723E-01
   3.506572776748587E-01   3.563217127065885E-01   3.619988673854266E-01
   3.676846609799053E-01   3.733748287282013E-01   3.790649211753406E-01
   3.847503040500045E-01   3.904261587268577E-01   3.960874833217019E-01
   4.017290944678764E-01   4.073456298232994E-01   4.129315513582312E-01
   4.184811494742240E-01   4.239885480048088E-01   4.294477101481095E-01
   4.348524453808153E-01   4.401964174016770E-01   4.454731531508115E-01
   4.506760529486931E-01   4.557984017954840E-01   4.608333818674621E-01
   4.657740862425073E-01   4.706135338808808E-01   4.753446858808420E-01
   4.799604630207964E-01   4.844537645906878E-01   4.888174885050824E-01
   4.930445526787480E-01   4.971279176324925E-01   5.010606102824070E-01
   5.048357488494908E-01   5.084465688087584E-01   5.118864497773195E-01
   5.151489432195475E-01   5.182278008242190E-01   5.211170033834442E-01
   5.238107899763034E-01   5.263036872313468E-01   5.285905384116260E-01
   5.306665320337098E-01   5.325272296983946E-01   5.341685927756651E-01
   5.355870075501339E-01   5.367793083959812E-01   5.377427985126130E-01
   5.384752677143400E-01   5.389750067297635E-01   5.392408174298478E-01
   5.392720183685163E-01   5.390684449867712E-01   5.386304438016937E-01
   5.379588598761771E-01   5.370550168450132E-01   5.359206887591504E-01
   5.345580630039887E-01   5.329696935508460E-01   5.311584438149000E-01
   5.291274184196498E-01   5.268798832090885E-01   5.244191729062959E-01
   5.217485858930685E-01   5.188712656815909E-01   5.157900687682273E-01
   5.125074187033853E-01   5.090251463822657E-01   5.053443167612369E-01
   5.014650424354865E-01   4.973862847773257E-01   4.931056436324674E-01
   4.886191369049869E-01   4.839209717311267E-01   4.790046788396975E-01
   4.738678195469592E-01   4.685092115532703E-01   4.629277569732314E-01
   4.571224423988493E-01   4.510923389091083E-01   4.448366020300281E-01
   4.383544716491073E-01   4.316452718878437E-01   4.247084109357777E-01
   4.175433808492245E-01   4.101497573175481E-01   4.025271993994756E-01
   3.946754492315723E-01   3.865943317105827E-01   3.782837541509045E-01
   3.697437059180123E-01   3.609742580381758E-01   3.519755627843594E-01
   3.427478532377302E-01   3.332914428237823E-01   3.236067248216966E-01
   3.136941718452382E-01   3.035543352932514E-01   2.931878447676807E-01
   2.825954074570418E-01   2.717778074834143E-01   2.607359052113634E-01
   2.494706365177425E-01   2.379830120220974E-01   2.262741162783847E-01
   2.143451069300719E-01   2.021972138322913E-01   1.898317381465579E-01
   1.772500514157885E-01   1.644535946298772E-01   1.514438772948345E-01
   1.382224765214900E-01   1.247910361530376E-01   1.111512659541076E-01
   9.730494088745928E-02   8.325390050789683E-02   6.900004850641749E-02
   5.454535244079836E-02   3.989184369175173E-02   2.504161768629084E-02
   9.996834431945106E-03  -5.240280593167368E-03  -2.066743514876167E-02
  -3.628226849383438E-02  -5.208234915674793E-02  -6.806517217159394E-02
  -8.422815574150389E-02  -1.005686372936103E-01  -1.170838688953932E-01
  -1.337710120081453E-01  -1.506271315601956E-01  -1.676491893302661E-01
  -1.848340366398078E-01  -2.021784063622432E-01  -2.196789042666165E-01
  -2.373319997230758E-01  -2.551340158077338E-01  -2.730811188546364E-01
  -2.911693075126497E-01  -3.093944013749240E-01  -3.277520292580462E-01
  -3.462376172169339E-01  -3.648463763898071E-01  -3.835732907750870E-01
  -4.024131050486955E-01  -4.213603125358597E-01  -4.404091434560662E-01
  -4.595535535631592E-01  -4.787872133046185E-01  -4.981034976248701E-01
  -5.174954765368911E-01  -5.369559065838899E-01  -5.564772233092703E-01
  -5.760515348482238E-01  -5.956706167469827E-01  -6.153259081073447E-01
  -6.350085091442099E-01  -6.547091802320617E-01  -6.744183425032088E-01
  -6.941260800459864E-01  -7.138221437351826E-01  -7.334959567098512E-01
  -7.531366214955841E-01  -7.727329287494478E-01  -7.922733675864104E-01
  -8.117461374264755E-01  -8.311391612821968E-01  -8.504401003871290E-01
  -8.696363700473866E-01  -8.887151565812083E-01  -9.076634351955887E-01
  -9.264679886349584E-01  -9.451154264248869E-01  -9.635922045240783E-01
  -9.818846451907751E-01  -9.999789568652061E-01  -1.017861253868031E+00
  -1.035517575715876E+00  -1.052933905858976E+00  -1.070096189652593E+00
  -1.086990351383034E+00  -1.103602310180636E+00  -1.119917994665699E+00
  -1.135923356188755E+00  -1.151604380543513E+00  -1.166947098048847E+00
  -1.181937591915167E+00  -1.196562004829882E+00  -1.210806543716326E+00
  -1.224657482639987E+00  -1.238101163855089E+00  -1.251123997003096E+00
  -1.263712456492556E+00  -1.275853077106512E+00  -1.287532447899560E+00
  -1.298737204461285E+00  -1.309454019636361E+00  -1.319669592803893E+00
  -1.329370637829797E+00  -1.338543869816041E+00  -1.347175990779591E+00
  -1.355253674401915E+00  -1.362763549997083E+00  -1.369692185852842E+00
  -1.376026072104751E+00  -1.381751603308636E+00  -1.386855060881273E+00
  -1.391322595583588E+00  -1.395140210224746E+00  -1.398293742769475E+00
  -1.400768850034819E+00  -1.402550992166474E+00  -1.403625418088787E+00
  -1.403977152126645E+00  -1.403590982001784E+00  -1.402451448410544E+00
  -1.400542836394901E+00  -1.397849168723579E+00  -1.394354201505380E+00
  -1.390041422262370E+00  -1.384894050696364E+00  -1.378895042388117E+00
  -1.372027095674832E+00  -1.364272661957815E+00  -1.355613959698556E+00
  -1.346032992367772E+00  -1.335511570618329E+00  -1.324031338958986E+00
  -1.311573807211830E+00  -1.298120387041699E+00  -1.283652433850897E+00
  -1.268151294339080E+00  -1.251598360029906E+00  -1.233975127051320E+00
  -1.215263262488804E+00  -1.195444677647354E+00  -1.174501608468615E+00
  -1.152416703444341E+00  -1.129173119308670E+00  -1.104754624801816E+00
  -1.079145712784720E+00  -1.052331720972301E+00  -1.024298961537599E+00
  -9.950348598203814E-01  -9.645281023513527E-01  -9.327687943789683E-01
  -8.997486270528892E-01  -8.654610543639023E-01  -8.299014799321093E-01
  -7.930674537053286E-01  -7.549588784828790E-01  -7.155782262248375E-01
  -6.749307639825954E-01  -6.330247892307451E-01  -5.898718742942290E-01
  -5.454871194742258E-01  -4.998894143760343E-01  -4.531017068340533E-01
  -4.051512786899269E-01  -3.560700274615309E-01  -3.058968970053670E-01
  -2.546824994180277E-01  -2.024792470453993E-01  -1.493322877217811E-01
  -9.530022975837271E-02  -4.044598999334795E-02   1.516031878025299E-02
   7.144147862156462E-02   1.283128734194912E-01   1.856822352935625E-01
   2.434494074435595E-01   3.015061255283511E-01   3.597358212850673E-01
   4.180134521934845E-01   4.762053612953249E-01   5.341691715667766E-01
   5.917537195328991E-01   6.487990331004159E-01   7.051363588677453E-01
   7.605882444450314E-01   8.149686815723342E-01   8.680833160609863E-01
   9.197297308036175E-01   9.696978082713077E-01   1.017770179062615E+00
   1.063722763162587E+00   1.107325410609014E+00   1.148342648236552E+00
   1.186534539067010E+00   1.221657660724857E+00   1.253466208969014E+00
   1.281713232032664E+00   1.306152000938869E+00   1.326537520297454E+00
   1.342628183273585E+00   1.354187573436157E+00   1.360986415029876E+00
   1.362804671854029E+00   1.359433793359366E+00   1.350679104778647E+00
   1.336362336073353E+00   1.316324282198275E+00   1.290427584649122E+00
   1.258559621456796E+00   1.220635489725353E+00   1.176601061477672E+00
   1.126436089979513E+00   1.070157339869596E+00   1.007821710347943E+00
   9.395293163914957E-01   8.654264885081974E-01   7.857086469507170E-01
   7.006230016420318E-01   6.104710243819313E-01   5.156106352837377E-01
   4.164580409254224E-01   3.134891574948196E-01   2.072405483861662E-01
   9.830980240216264E-02  -1.264472391415246E-02  -1.249048780801381E-01
  -2.376944766269699E-01  -3.501819417535523E-01  -4.614838863123126E-01
  -5.706697201722738E-01  -6.767673455156682E-01  -7.787700009943677E-01
  -8.756443046646463E-01  -9.663395330033411E-01  -1.049798157869732E+00
  -1.124967644822912E+00  -1.190813494574723E+00  -1.246333484438762E+00
  -1.290573038369710E+00  -1.322641622589018E+00  -1.341730028965698E+00
  -1.347128370471095E+00  -1.338244572482589E+00  -1.314623100940845E+00
  -1.275963623993286E+00  -1.222139258581427E+00  -1.153214008439314E+00
  -1.069458956354043E+00  -9.713667326974994E-01  -8.596637457862134E-01
  -7.353196293912773E-01  -5.995533407321780E-01  -4.538353307586631E-01
  -2.998852098146794E-01  -1.396643483540478E-01   2.463711325096855E-02
   1.906193171226543E-01   3.556981965612572E-01   5.171377330559899E-01
   6.720891252355378E-01   8.176368772744026E-01   9.508516300298667E-01
   1.068849346187734E+00   1.168856222416430E+00   1.248278439724027E+00
   1.304775582115696E+00   1.336336259155987E+00   1.341354167864957E+00
   1.318702533166139E+00   1.267804585493608E+00   1.188697482758920E+00
   1.082086877129152E+00   9.493891820358007E-01   7.927585298098047E-01
   6.150954442935997E-01   4.200344046533616E-01   2.119077643913325E-01
  -4.316070826650356E-03  -2.231216988730955E-01  -4.385637264918041E-01
  -6.444114905411338E-01  -8.343201447202520E-01  -1.002025494193252E+00
  -1.141558570653080E+00  -1.247474468152449E+00  -1.315088459435917E+00
  -1.340710951489877E+00  -1.321871499186227E+00  -1.257520971196855E+00
  -1.148200156716838E+00  -9.961627251052355E-01  -8.054406145653529E-01
  -5.818407361005136E-01  -3.328634271518281E-01  -6.753544434245899E-02
   2.038465182470540E-01   4.700617694377115E-01   7.193962075016728E-01
   9.401473074357392E-01   1.121187398258628E+00   1.252563104310156E+00
   1.326103018914271E+00   1.336000513908642E+00   1.279334552808551E+00
   1.156488991861559E+00   9.714306478697077E-01   7.318088718128705E-01
   4.488448920227738E-01   1.369880340538062E-01  -1.866718642442046E-01
  -5.032311589003630E-01  -7.930155542195844E-01  -1.036797299492181E+00
  -1.217123792416270E+00  -1.319675821588150E+00  -1.334557530870726E+00
  -1.257409093070573E+00  -1.090229144421364E+00  -8.417991920616661E-01
  -5.276179899627823E-01  -1.692811293138464E-01
    </PP_PSWFC.4>
  </PP_FULL_WFC>
  <PP_RHOATOM size="1073">
   4.363928712603043E-08   4.474402102012387E-08   4.587672139004143E-08
   4.703809621070181E-08   4.822887137950525E-08   4.944979117004345E-08
   5.070161869729576E-08   5.198513639460209E-08   5.330114650270968E-08
   5.465047157120137E-08   5.603395497261623E-08   5.745246142958640E-08
   5.890687755531787E-08   6.039811240775383E-08   6.192709805776716E-08
   6.349479017173586E-08   6.510216860886734E-08   6.675023803364393E-08
   6.844002854377215E-08   7.017259631402956E-08   7.194902425640955E-08
   7.377042269697868E-08   7.563793006986839E-08   7.755271362883575E-08
   7.951597017683718E-08   8.152892681407084E-08   8.359284170495748E-08
   8.570900486453599E-08   8.787873896476771E-08   9.010340016125239E-08
   9.238437894087190E-08   9.472310099089334E-08   9.712102809007304E-08
   9.957965902231898E-08   1.021005305134837E-07   1.046852181918710E-07
   1.073353375730590E-07   1.100525450696544E-07   1.128385390266080E-07
   1.156950607827412E-07   1.186238957591426E-07   1.216268745751209E-07
   1.247058741924058E-07   1.278628190883157E-07   1.310996824586257E-07
   1.344184874508838E-07   1.378213084289511E-07   1.413102722695537E-07
   1.448875596916565E-07   1.485554066194916E-07   1.523161055800912E-07
   1.561720071361995E-07   1.601255213554607E-07   1.641791193167974E-07
   1.683353346549270E-07   1.725967651439737E-07   1.769660743211741E-07
   1.814459931516850E-07   1.860393217355372E-07   1.907489310578033E-07
   1.955777647830666E-07   2.005288410953233E-07   2.056052545844598E-07
   2.108101781804856E-07   2.161468651367363E-07   2.216186510632770E-07
   2.272289560117859E-07   2.329812866132162E-07   2.388792382695729E-07
   2.449264974011795E-07   2.511268437508276E-07   2.574841527462647E-07
   2.640023979224859E-07   2.706856534053461E-07   2.775380964580500E-07
   2.845640100921019E-07   2.917677857443579E-07   2.991539260218467E-07
   3.067270475160778E-07   3.144918836885959E-07   3.224532878295808E-07
   3.306162360913515E-07   3.389858305986610E-07   3.475673026377313E-07
   3.563660159260224E-07   3.653874699647724E-07   3.746373034764148E-07
   3.841212979290123E-07   3.938453811499152E-07   4.038156310309039E-07
   4.140382793271228E-07   4.245197155521958E-07   4.352664909719404E-07
   4.462853226991915E-07   4.575830978922897E-07   4.691668780598474E-07
   4.810439034745038E-07   4.932215976984142E-07   5.057075722233021E-07
   5.185096312279827E-07   5.316357764563228E-07   5.450942122186924E-07
   5.588933505200308E-07   5.730418163177356E-07   5.875484529126609E-07
   6.024223274765865E-07   6.176727367196269E-07   6.333092127011152E-07
   6.493415287875893E-07   6.657797057616208E-07   6.826340180852804E-07
   6.999150003221821E-07   7.176334537221009E-07   7.358004529722901E-07
   7.544273531197150E-07   7.735257966685250E-07   7.931077208572158E-07
   8.131853651200134E-07   8.337712787371528E-07   8.548783286788414E-07
   8.765197076477862E-07   8.987089423253394E-07   9.214599018264013E-07
   9.447868063683712E-07   9.687042361595692E-07   9.932271405126640E-07
   1.018370847188842E-06   1.044151071978518E-06   1.070583928524611E-06
   1.097685938394500E-06   1.125474041406972E-06   1.153965606220606E-06
   1.183178441190232E-06   1.213130805498223E-06   1.243841420567616E-06
   1.275329481764142E-06   1.307614670394549E-06   1.340717166008662E-06
   1.374657659012896E-06   1.409457363603121E-06   1.445138031024909E-06
   1.481721963169533E-06   1.519232026514148E-06   1.557691666414908E-06
   1.597124921761944E-06   1.637556440005352E-06   1.679011492561616E-06
   1.721515990610063E-06   1.765096501289250E-06   1.809780264303408E-06
   1.855595208949297E-06   1.902569971574163E-06   1.950733913475662E-06
   2.000117139254999E-06   2.050750515634698E-06   2.102665690752808E-06
   2.155895113945593E-06   2.210472056031074E-06   2.266430630106120E-06
   2.323805812870081E-06   2.382633466488263E-06   2.442950361008984E-06
   2.504794197348186E-06   2.568203630855939E-06   2.633218295479690E-06
   2.699878828539171E-06   2.768226896128717E-06   2.838305219162601E-06
   2.910157600079887E-06   2.983828950225416E-06   3.059365317923976E-06
   3.136813917265400E-06   3.216223157618362E-06   3.297642673891502E-06
   3.381123357560781E-06   3.466717388482278E-06   3.554478267510691E-06
   3.644460849943534E-06   3.736721379812232E-06   3.831317525041485E-06
   3.928308413498731E-06   4.027754669956591E-06   4.129718453991018E-06
   4.234263498839169E-06   4.341455151241146E-06   4.451360412290477E-06
   4.564047979319140E-06   4.679588288842964E-06   4.798053560594571E-06
   4.919517842671287E-06   5.044057057826133E-06   5.171749050931218E-06
   5.302673637642714E-06   5.436912654298305E-06   5.574550009078124E-06
   5.715671734461044E-06   5.860366041009566E-06   6.008723372516386E-06
   6.160836462547615E-06   6.316800392417845E-06   6.476712650633123E-06
   6.640673193839566E-06   6.808784509315064E-06   6.981151679043742E-06
   7.157882445412987E-06   7.339087278574094E-06   7.524879445509024E-06
   7.715375080845997E-06   7.910693259468643E-06   8.110956070964016E-06
   8.316288695955855E-06   8.526819484371323E-06   8.742680035689657E-06
   8.964005281223369E-06   9.190933568483398E-06   9.423606747680703E-06
   9.662170260419084E-06   9.906773230633989E-06   1.015756855783485E-05
   1.041471301270901E-05   1.067836733514700E-05   1.094869633475095E-05
   1.122586899388851E-05   1.151005857335723E-05   1.180144272072546E-05
   1.210020358141721E-05   1.240652791261135E-05   1.272060720002558E-05
   1.304263777765878E-05   1.337282095056699E-05   1.371136312074883E-05
   1.405847591622087E-05   1.441437632336207E-05   1.477928682261135E-05
   1.515343552760302E-05   1.553705632782669E-05   1.593038903490204E-05
   1.633367953255903E-05   1.674717993041821E-05   1.717114872166750E-05
   1.760585094473335E-05   1.805155834904926E-05   1.850854956502359E-05
   1.897711027831476E-05   1.945753340852229E-05   1.995011929240572E-05
   2.045517587174666E-05   2.097301888597129E-05   2.150397206965430E-05
   2.204836735502829E-05   2.260654507962501E-05   2.317885419917954E-05
   2.376565250592999E-05   2.436730685245046E-05   2.498419338115715E-05
   2.561669775963167E-05   2.626521542190958E-05   2.693015181588482E-05
   2.761192265698611E-05   2.831095418828401E-05   2.902768344719171E-05
   2.976255853892781E-05   3.051603891691171E-05   3.128859567026844E-05
   3.208071181862301E-05   3.289288261436972E-05   3.372561585260609E-05
   3.457943218892585E-05   3.545486546527142E-05   3.635246304404964E-05
   3.727278615072130E-05   3.821641022507991E-05   3.918392528143960E-05
   4.017593627795990E-05   4.119306349533854E-05   4.223594292511063E-05
   4.330522666779907E-05   4.440158334116563E-05   4.552569849882026E-05
   4.667827505945193E-05   4.786003374695077E-05   4.907171354169875E-05
   5.031407214331338E-05   5.158788644513497E-05   5.289395302075735E-05
   5.423308862290694E-05   5.560613069498685E-05   5.701393789560533E-05
   5.845739063642215E-05   5.993739163364991E-05   6.145486647355875E-05
   6.301076419234141E-05   6.460605787070347E-05   6.624174524355525E-05
   6.791884932518941E-05   6.963841905033790E-05   7.140152993151588E-05
   7.320928473306431E-05   7.506281416231975E-05   7.696327757834692E-05
   7.891186371868151E-05   8.090979144454471E-05   8.295831050499818E-05
   8.505870232052481E-05   8.721228078653087E-05   8.942039309727666E-05
   9.168442059076034E-05   9.400577961508627E-05   9.638592241687068E-05
   9.882633805224542E-05   1.013285533210372E-04   1.038941337247174E-04
   1.065246844487269E-04   1.092218513698023E-04   1.119873220889422E-04
   1.148228269906686E-04   1.177301403292591E-04   1.207110813426379E-04
   1.237675153946357E-04   1.269013551463459E-04   1.301145617573203E-04
   1.334091461173723E-04   1.367871701097705E-04   1.402507479066283E-04
   1.438020472973174E-04   1.474432910507512E-04   1.511767583124065E-04
   1.550047860369808E-04   1.589297704575957E-04   1.629541685924888E-04
   1.670804997901585E-04   1.713113473139471E-04   1.756493599670840E-04
   1.800972537592243E-04   1.846578136155543E-04   1.893338951295645E-04
   1.941284263606051E-04   1.990444096773942E-04   2.040849236486501E-04
   2.092531249820747E-04   2.145522505129321E-04   2.199856192435009E-04
   2.255566344347248E-04   2.312687857514030E-04   2.371256514623089E-04
   2.431309006966634E-04   2.492882957584131E-04   2.556016944998241E-04
   2.620750527559214E-04   2.687124268413548E-04   2.755179761113169E-04
   2.824959655881678E-04   2.896507686554877E-04   2.969868698213015E-04
   3.045088675522816E-04   3.122214771807763E-04   3.201295338865619E-04
   3.282379957552691E-04   3.365519469154876E-04   3.450766007565972E-04
   3.538173032294490E-04   3.627795362320457E-04   3.719689210824686E-04
   3.813912220813220E-04   3.910523501660472E-04   4.009583666595249E-04
   4.111154871154295E-04   4.215300852628940E-04   4.322086970530901E-04
   4.431580248104110E-04   4.543849414910211E-04   4.658964950515912E-04
   4.776999129311488E-04   4.898026066490237E-04   5.022121765219634E-04
   5.149364165035842E-04   5.279833191493877E-04   5.413610807106963E-04
   5.550781063609220E-04   5.691430155576939E-04   5.835646475444739E-04
   5.983520669953607E-04   6.135145698069303E-04   6.290616890410323E-04
   6.450032010225878E-04   6.613491315965382E-04   6.781097625482344E-04
   6.952956381916323E-04   7.129175721298424E-04   7.309866541926525E-04
   7.495142575558237E-04   7.685120460470507E-04   7.879919816436525E-04
   8.079663321671958E-04   8.284476791803764E-04   8.494489260916888E-04
   8.709833064735209E-04   8.930643925994918E-04   9.157061042070458E-04
   9.389227174914518E-04   9.627288743375478E-04   9.871395917957731E-04
   1.012170271809192E-03   1.037836711198440E-03   1.064155111911704E-03
   1.091142091547066E-03   1.118814694154771E-03   1.147190401327157E-03
   1.176287143584290E-03   1.206123312063516E-03   1.236717770521418E-03
   1.268089867656946E-03   1.300259449764677E-03   1.333246873727518E-03
   1.367073020358412E-03   1.401759308100855E-03   1.437327707098411E-03
   1.473800753643662E-03   1.511201565017350E-03   1.549553854728883E-03
   1.588881948169564E-03   1.629210798690437E-03   1.670566004116846E-03
   1.712973823712295E-03   1.756461195604555E-03   1.801055754687335E-03
   1.846785851011316E-03   1.893680568678691E-03   1.941769745255941E-03
   1.991083991719875E-03   2.041654712952599E-03   2.093514128801452E-03
   2.146695295720530E-03   2.201232129010978E-03   2.257159425677660E-03
   2.314512887920566E-03   2.373329147279764E-03   2.433645789453332E-03
   2.495501379808470E-03   2.558935489606507E-03   2.623988722963219E-03
   2.690702744566700E-03   2.759120308175579E-03   2.829285285921327E-03
   2.901242698439026E-03   2.975038745851880E-03   3.050720839635574E-03
   3.128337635389426E-03   3.207939066542246E-03   3.289576379021769E-03
   3.373302166917366E-03   3.459170409166963E-03   3.547236507299983E-03
   3.637557324269255E-03   3.730191224406100E-03   3.825198114533688E-03
   3.922639486275329E-03   4.022578459595274E-03   4.125079827611258E-03
   4.230210102719085E-03   4.338037564071064E-03   4.448632306451769E-03
   4.562066290595586E-03   4.678413394992862E-03   4.797749469232278E-03
   4.920152388929374E-03   5.045702112292700E-03   5.174480738380678E-03
   5.306572567104635E-03   5.442064161034954E-03   5.581044409069582E-03
   5.723604592026264E-03   5.869838450221855E-03   6.019842253104576E-03
   6.173714871007328E-03   6.331557849092604E-03   6.493475483562190E-03
   6.659574900207151E-03   6.829966135376998E-03   7.004762219448934E-03
   7.184079262881674E-03   7.368036544941014E-03   7.556756605187660E-03
   7.750365337820911E-03   7.948992088975562E-03   8.152769757072253E-03
   8.361834896326022E-03   8.576327823520550E-03   8.796392728160499E-03
   9.022177786117764E-03   9.253835276891635E-03   9.491521704607882E-03
   9.735397922885063E-03   9.985629263702431E-03   1.024238567040737E-02
   1.050584183500611E-02   1.077617733988620E-02   1.105357680412444E-02
   1.133823003454000E-02   1.163033218165755E-02   1.193008390075128E-02
   1.223769151814695E-02   1.255336720296494E-02   1.287732914449415E-02
   1.320980173539280E-02   1.355101576091939E-02   1.390120859440410E-02
   1.426062439917742E-02   1.462951433718175E-02   1.500813678449788E-02
   1.539675755402699E-02   1.579565012557665E-02   1.620509588360789E-02
   1.662538436290826E-02   1.705681350246562E-02   1.749968990782515E-02
   1.795432912222255E-02   1.842105590679397E-02   1.890020453017517E-02
   1.939211906780989E-02   1.989715371129875E-02   2.041567308812994E-02
   2.094805259214213E-02   2.149467872508286E-02   2.205594944963356E-02
   2.263227455428477E-02   2.322407603045607E-02   2.383178846226460E-02
   2.445585942935908E-02   2.509674992324589E-02   2.575493477754522E-02
   2.643090311262690E-02   2.712515879508520E-02   2.783822091252494E-02
   2.857062426413970E-02   2.932291986757571E-02   3.009567548258380E-02
   3.088947615197304E-02   3.170492476038956E-02   3.254264261145225E-02
   3.340327002378836E-02   3.428746694651856E-02   3.519591359474929E-02
   3.612931110563920E-02   3.708838221561015E-02   3.807387195928210E-02
   3.908654839071228E-02   4.012720332752658E-02   4.119665311852948E-02
   4.229573943538401E-02   4.342533008894819E-02   4.458631987085782E-02
   4.577963142093613E-02   4.700621612100950E-02   4.826705501569910E-02
   4.956315976074693E-02   5.089557359942554E-02   5.226537236756136E-02
   5.367366552768806E-02   5.512159723282190E-02   5.661034742032765E-02
   5.814113293631742E-02   5.971520869098916E-02   6.133386884528080E-02
   6.299844802917143E-02   6.471032259191885E-02   6.647091188447296E-02
   6.828167957424736E-02   7.014413499237646E-02   7.205983451351244E-02
   7.403038296815144E-02   7.605743508739449E-02   7.814269697996551E-02
   8.028792764121927E-02   8.249494049376643E-02   8.476560495924271E-02
   8.710184806062995E-02   8.950565605441296E-02   9.197907609172967E-02
   9.452421790752541E-02   9.714325553657703E-02   9.983842905509289E-02
   1.026120463464247E-01   1.054664848892553E-01   1.084041935664336E-01
   1.114276944924337E-01   1.145395848572114E-01   1.177425387840074E-01
   1.210393091984316E-01   1.244327297059198E-01   1.279257164744087E-01
   1.315212701188320E-01   1.352224775837615E-01   1.390325140202653E-01
   1.429546446527622E-01   1.469922266313750E-01   1.511487108649921E-01
   1.554276438299441E-01   1.598326693489127E-01   1.643675303343714E-01
   1.690360704905559E-01   1.738422359676518E-01   1.787900769615742E-01
   1.838837492524103E-01   1.891275156742797E-01   1.945257475090757E-01
   2.000829257962365E-01   2.058036425504133E-01   2.116926018786099E-01
   2.177546209880876E-01   2.239946310760570E-01   2.304176780919201E-01
   2.370289233625574E-01   2.438336440709263E-01   2.508372335779727E-01
   2.580452015776385E-01   2.654631740745030E-01   2.730968931733533E-01
   2.809522166697488E-01   2.890351174303658E-01   2.973516825516386E-01
   3.059081122848981E-01   3.147107187158388E-01   3.237659241857458E-01
   3.330802594414022E-01   3.426603615000193E-01   3.525129712148099E-01
   3.626449305259692E-01   3.730631793808044E-01   3.837747523054698E-01
   3.947867746092856E-01   4.061064582007943E-01   4.177410969925334E-01
   4.296980618689592E-01   4.419847951888818E-01   4.546088047901998E-01
   4.675776574605199E-01   4.808989718323317E-01   4.945804106557488E-01
   5.086296723952383E-01   5.230544820892410E-01   5.378625814029813E-01
   5.530617177949289E-01   5.686596327063921E-01   5.846640486711389E-01
   6.010826552280779E-01   6.179230935044649E-01   6.351929393198343E-01
   6.528996846419904E-01   6.710507172055254E-01   6.896532980808280E-01
   7.087145369571420E-01   7.282413648769637E-01   7.482405041313640E-01
   7.687184349962644E-01   7.896813589591237E-01   8.111351580537653E-01
   8.330853498887295E-01   8.555370379222931E-01   8.784948565053490E-01
   9.019629101829977E-01   9.259447067175566E-01   9.504430832708720E-01
   9.754601251640913E-01   1.000997076619222E+00   1.027054242881469E+00
   1.053630883125941E+00   1.080725093569328E+00   1.108333680239389E+00
   1.136452020904887E+00   1.165073915739636E+00   1.194191426389570E+00
   1.223794703234883E+00   1.253871800794456E+00   1.284408481410342E+00
   1.315388007580792E+00   1.346790923584731E+00   1.378594827362725E+00
   1.410774133993455E+00   1.443299832533091E+00   1.476139238471135E+00
   1.509255744601558E+00   1.542608573713181E+00   1.576152537167817E+00
   1.609837804155446E+00   1.643609687188609E+00   1.677408450215430E+00
   1.711169146581716E+00   1.744821494943941E+00   1.778289802107683E+00
   1.811492942618386E+00   1.844344405734974E+00   1.876752421138705E+00
   1.908620175331075E+00   1.939846131109847E+00   1.970324462730611E+00
   1.999952011515934E+00   2.028650804087310E+00   2.056354507245186E+00
   2.083003978134186E+00   2.108548598348002E+00   2.132947616341998E+00
   2.156171472053853E+00   2.178203073617678E+00   2.199038992037088E+00
   2.218680406494760E+00   2.237098884539408E+00   2.254258953668709E+00
   2.270127188633615E+00   2.284672319231835E+00   2.297865332228272E+00
   2.309679566887405E+00   2.320090803646691E+00   2.329077345504294E+00
   2.336620091738484E+00   2.342702603619730E+00   2.347311161819702E+00
   2.350434815264167E+00   2.352065421219010E+00   2.352197676440455E+00
   2.350829139261978E+00   2.347960242531419E+00   2.343594297352413E+00
   2.337737487624444E+00   2.330398855415525E+00   2.321590277240620E+00
   2.311326431357398E+00   2.299624756228550E+00   2.286505400336638E+00
   2.271991163573087E+00   2.256107430457294E+00   2.238882095474838E+00
   2.220345480855046E+00   2.200530247137830E+00   2.179471296907612E+00
   2.157205672097764E+00   2.133772445292446E+00   2.109212605473943E+00
   2.083568938682459E+00   2.056885904071627E+00   2.029209505856771E+00
   2.000587161664143E+00   1.971067567797928E+00   1.940700561947709E+00
   1.909536983862451E+00   1.877628534517798E+00   1.845027634301709E+00
   1.811787280739301E+00   1.777960906271177E+00   1.743602236590834E+00
   1.708765150035800E+00   1.673503538514414E+00   1.637871170435524E+00
   1.601921556092152E+00   1.565707815932490E+00   1.529282552132660E+00
   1.492697723865613E+00   1.456004526639600E+00   1.419253276057999E+00
   1.382493296322626E+00   1.345772813827777E+00   1.309138856042889E+00
   1.272637156036255E+00   1.236312062829797E+00   1.200206457809706E+00
   1.164361677384934E+00   1.128817442048010E+00   1.093611792058824E+00
   1.058781029724881E+00   1.024359668527751E+00   9.903803890985656E-01
   9.568740021106026E-01   9.238694181184453E-01   8.913936243486014E-01
   8.594716684211616E-01   8.281266489560287E-01   7.973797129903439E-01
   7.672500601060364E-01   7.377549531379118E-01   7.089097353035519E-01
   6.807278535666598E-01   6.532208880156340E-01   6.263985870093803E-01
   6.002689078130607E-01   5.748380624180454E-01   5.501105682132299E-01
   5.260893031495807E-01   5.027755650167338E-01   4.801691344301799E-01
   4.582683411103987E-01   4.370701330216745E-01   4.165701479284876E-01
   3.967627869215996E-01   3.776412894643406E-01   3.591978095122436E-01
   3.414234922659819E-01   3.243085511284552E-01   3.078423444515975E-01
   2.920134516767831E-01   2.768097484942210E-01   2.622184806710649E-01
   2.482263362246956E-01   2.348195156462443E-01   2.219837999096125E-01
   2.097046160321951E-01   1.979670999851115E-01   1.867561567827695E-01
   1.760565176125586E-01   1.658527938961618E-01   1.561295282039671E-01
   1.468712419722323E-01   1.380624799993995E-01   1.296878517230709E-01
   1.217320693022884E-01   1.141799825508652E-01   1.070166107865157E-01
   1.002271716773833E-01   9.379710718225850E-02   8.771210669332262E-02
   8.195812750070194E-02   7.652141270651883E-02   7.138850672257584E-02
   6.654626849039640E-02   6.198188256518369E-02   5.768286820647033E-02
   5.363708661794440E-02   4.983274647729139E-02   4.625840789402907E-02
   4.290298492937845E-02   3.975574680736193E-02   3.680631794069270E-02
   3.404467688877032E-02   3.146115435836864E-02   2.904643035053433E-02
   2.679153054994109E-02   2.468782204559114E-02   2.272700846443818E-02
   2.090112459232744E-02   1.920253054970241E-02   1.762390558289165E-02
   1.615824152552841E-02   1.479883597882000E-02   1.353928525401191E-02
   1.237347711550308E-02   1.129558335867859E-02   1.030005225262836E-02
   9.381600874507004E-03   8.535207359338789E-03   7.756103086554540E-03
   7.039764822431016E-03   6.381906835849831E-03   5.778473003360619E-03
   5.225628918381012E-03   4.719754018450719E-03   4.257433743737726E-03
   3.835451739431910E-03   3.450782114217989E-03   3.100581766662171E-03
   2.782182791044841E-03   2.493084973898239E-03   2.230948392241291E-03
   1.993586124223843E-03   1.778957082585106E-03   1.585158980983916E-03
   1.410421442863401E-03   1.253099262064345E-03   1.111665823897299E-03
   9.847066948230423E-04   8.709133882761804E-04   7.690773135009387E-04
   6.780839135566713E-04   5.969069978992901E-04   5.246032741608425E-04
   4.603070829404336E-04   4.032253385936772E-04   3.526326781731061E-04
   3.078668198367525E-04   2.683241312144802E-04   2.334554074094369E-04
   2.027618575225362E-04   1.757912978280223E-04   1.521345490041202E-04
   1.314220341400769E-04   1.133205736043510E-04   9.753037227235470E-05
   8.378219407918582E-05   7.183471838615894E-05   6.147207222880403E-05
   5.250153215835909E-05   4.475138907684833E-05   3.806896923170124E-05
   3.231880434577094E-05   2.738094372479860E-05   2.314940110805427E-05
   1.953072900006496E-05   1.644271324066493E-05   1.381318063412920E-05
   1.157891256199261E-05   9.684657644469307E-06   8.082236688198444E-06
   6.729733359394319E-06   5.590764247017117E-06   4.633822227534533E-06
   3.831687304457824E-06   3.160899372958243E-06   2.601287644610856E-06
   2.135551758285642E-06   1.748889897713859E-06   1.428669530662713E-06
   1.164136676617579E-06   9.461598973049155E-07   7.670054848193026E-07
   6.201405934507343E-07   5.000613940244211E-07   4.021426960446278E-07
   3.225122117486149E-07   2.579232964238500E-07   2.056888583879918E-07
   1.635740085412187E-07   1.297154344892067E-07   1.025714877599535E-07
   8.087285966525113E-08   6.357746972747092E-08   4.983227482321302E-08
   3.894103342256713E-08   3.033717836557572E-08   2.356105828491824E-08
   1.824090315201201E-08   1.407695437086317E-08   1.082827523164008E-08
   8.301824193054812E-09   6.343432181355633E-09   4.830376625970455E-09
   3.665290006806991E-09   2.771179930544340E-09   2.087371802487101E-09
   1.566214589934502E-09   1.170415511159576E-09   8.708912144402673E-10
   6.450415750734320E-10   4.753680323054046E-10   3.483717806361235E-10
   2.536783952695862E-10   1.833448883457377E-10   1.313144858685138E-10
   9.298604025547159E-11   6.488080450374179E-11   4.437824039035066E-11
   2.957376695129508E-11   1.876762451643842E-11   0.000000000000000E+00
   0.000000000000000E+00   0.000000000000000E+00   0.000000000000000E+00
   0.000000000000000E+00   0.000000000000000E+00   0.000000000000000E+00
   0.000000000000000E+00   0.000000000000000E+00   0.000000000000000E+00
   0.000000000000000E+00   0.000000000000000E+00   0.000000000000000E+00
   0.000000000000000E+00   0.000000000000000E+00   0.000000000000000E+00
   0.000000000000000E+00   0.000000000000000E+00   0.000000000000000E+00
   0.000000000000000E+00   0.000000000000000E+00   0.000000000000000E+00
   0.000000000000000E+00   0.000000000000000E+00   0.000000000000000E+00
   0.000000000000000E+00   0.000000000000000E+00   0.000000000000000E+00
   0.000000000000000E+00   0.000000000000000E+00   0.000000000000000E+00
   0.000000000000000E+00   0.000000000000000E+00   0.000000000000000E+00
   0.000000000000000E+00   0.000000000000000E+00   0.000000000000000E+00
   0.000000000000000E+00   0.000000000000000E+00   0.000000000000000E+00
   0.000000000000000E+00   0.000000000000000E+00   0.000000000000000E+00
   0.000000000000000E+00   0.000000000000000E+00   0.000000000000000E+00
   0.000000000000000E+00   0.000000000000000E+00   0.000000000000000E+00
   0.000000000000000E+00   0.000000000000000E+00   0.000000000000000E+00
   0.000000000000000E+00   0.000000000000000E+00   0.000000000000000E+00
   0.000000000000000E+00   0.000000000000000E+00   0.000000000000000E+00
   0.000000000000000E+00   0.000000000000000E+00   0.000000000000000E+00
   0.000000000000000E+00   0.000000000000000E+00   0.000000000000000E+00
   0.000000000000000E+00   0.000000000000000E+00   0.000000000000000E+00
   0.000000000000000E+00   0.000000000000000E+00   0.000000000000000E+00
   0.000000000000000E+00   0.000000000000000E+00   0.000000000000000E+00
   0.000000000000000E+00   0.000000000000000E+00   0.000000000000000E+00
   0.000000000000000E+00   0.000000000000000E+00   0.000000000000000E+00
   0.000000000000000E+00   0.000000000000000E+00   0.000000000000000E+00
   0.000000000000000E+00   0.000000000000000E+00   0.000000000000000E+00
   0.000000000000000E+00   0.000000000000000E+00   0.000000000000000E+00
   0.000000000000000E+00   0.000000000000000E+00   0.000000000000000E+00
   0.000000000000000E+00   0.000000000000000E+00   0.000000000000000E+00
   0.000000000000000E+00   0.000000000000000E+00   0.000000000000000E+00
   0.000000000000000E+00   0.000000000000000E+00   0.000000000000000E+00
   0.000000000000000E+00   0.000000000000000E+00   0.000000000000000E+00
   0.000000000000000E+00   0.000000000000000E+00   0.000000000000000E+00
   0.000000000000000E+00   0.000000000000000E+00   0.000000000000000E+00
   0.000000000000000E+00   0.000000000000000E+00   0.000000000000000E+00
   0.000000000000000E+00   0.000000000000000E+00   0.000000000000000E+00
   0.000000000000000E+00   0.000000000000000E+00   0.000000000000000E+00
   0.000000000000000E+00   0.000000000000000E+00   0.000000000000000E+00
   0.000000000000000E+00   0.000000000000000E+00
  </PP_RHOATOM>
  <PP_PAW paw_data_format="2" core_energy="-57.7640971071234">
    <PP_OCCUPATIONS size="4">
   2.000000000000000E+00   0.000000000000000E+00   2.000000000000000E+00
   0.000000000000000E+00
    </PP_OCCUPATIONS>
    <PP_AE_NLCC size="1073">
   1.234145846281171E+02   1.234116258476465E+02   1.234086671381107E+02
   1.234057084995080E+02   1.234027149465293E+02   1.233996137614782E+02
   1.233964246388755E+02   1.233931445058277E+02   1.233897739900380E+02
   1.233863136787212E+02   1.233827641376330E+02   1.233791259095641E+02
   1.233753994277461E+02   1.233715851249188E+02   1.233676836312204E+02
   1.233636954621054E+02   1.233596209380494E+02   1.233554604542161E+02
   1.233512143607518E+02   1.233468829594673E+02   1.233424665374358E+02
   1.233379653653755E+02   1.233333796868855E+02   1.233287097136296E+02
   1.233239556428711E+02   1.233191176453758E+02   1.233141958511346E+02
   1.233091903742808E+02   1.233041013211012E+02   1.232989287663799E+02
   1.232936727493007E+02   1.232883332923041E+02   1.232829104045197E+02
   1.232774040668123E+02   1.232718142406355E+02   1.232661408655686E+02
   1.232603838600181E+02   1.232545431213851E+02   1.232486185263354E+02
   1.232426099304580E+02   1.232365171665114E+02   1.232303400477166E+02
   1.232240783732262E+02   1.232177319178427E+02   1.232113004328107E+02
   1.232047836569297E+02   1.231981813087532E+02   1.231914930865654E+02
   1.231847186694834E+02   1.231778577118134E+02   1.231709098532033E+02
   1.231638747170683E+02   1.231567518996642E+02   1.231495409816029E+02
   1.231422415277895E+02   1.231348530820665E+02   1.231273751704578E+02
   1.231198073002394E+02   1.231121489601683E+02   1.231043996204962E+02
   1.230965587330178E+02   1.230886257311110E+02   1.230806000297595E+02
   1.230724810255773E+02   1.230642680968264E+02   1.230559606034294E+02
   1.230475578869760E+02   1.230390592707255E+02   1.230304640596033E+02
   1.230217715401924E+02   1.230129809807211E+02   1.230040916310448E+02
   1.229951027226261E+02   1.229860134684889E+02   1.229768230631265E+02
   1.229675306825936E+02   1.229581354846216E+02   1.229486366082475E+02
   1.229390331738790E+02   1.229293242833805E+02   1.229195090196818E+02
   1.229095864467189E+02   1.228995556096440E+02   1.228894155346599E+02
   1.228791652289252E+02   1.228688036806341E+02   1.228583298586971E+02
   1.228477427127706E+02   1.228370411731281E+02   1.228262241505671E+02
   1.228152905363089E+02   1.228042392018914E+02   1.227930689990595E+02
   1.227817787596511E+02   1.227703672954787E+02   1.227588333982087E+02
   1.227471758392344E+02   1.227353933695471E+02   1.227234847196020E+02
   1.227114485991801E+02   1.226992836972483E+02   1.226869886818129E+02
   1.226745621997710E+02   1.226620028767576E+02   1.226493093169882E+02
   1.226364801030995E+02   1.226235137959839E+02   1.226104089346222E+02
   1.225971640359115E+02   1.225837775944888E+02   1.225702480825526E+02
   1.225565739496795E+02   1.225427536226372E+02   1.225287855051936E+02
   1.225146679779222E+02   1.225003993980050E+02   1.224859780990297E+02
   1.224714023907843E+02   1.224566705590482E+02   1.224417808653783E+02
   1.224267315468930E+02   1.224115208160513E+02   1.223961468604287E+02
   1.223806078424891E+02   1.223649018993529E+02   1.223490271425618E+02
   1.223329816578399E+02   1.223167635048512E+02   1.223003707169558E+02
   1.222838013009330E+02   1.222670532368561E+02   1.222501244784622E+02
   1.222330129524890E+02   1.222157165565412E+02   1.221982331592152E+02
   1.221805606007301E+02   1.221626966947782E+02   1.221446392279889E+02
   1.221263859561373E+02   1.221079346055360E+02   1.220892828733982E+02
   1.220704284268785E+02   1.220513689030107E+02   1.220321019083646E+02
   1.220126250187396E+02   1.219929357788546E+02   1.219730317020318E+02
   1.219529102698783E+02   1.219325689319625E+02   1.219120051054868E+02
   1.218912161749579E+02   1.218701994918509E+02   1.218489523742712E+02
   1.218274721066115E+02   1.218057559392048E+02   1.217838010879751E+02
   1.217616047340815E+02   1.217391640235605E+02   1.217164760669634E+02
   1.216935379389892E+02   1.216703466781151E+02   1.216468992862215E+02
   1.216231927282135E+02   1.215992239316389E+02   1.215749897863003E+02
   1.215504871438673E+02   1.215257128174784E+02   1.215006635813455E+02
   1.214753361703497E+02   1.214497272796343E+02   1.214238335641960E+02
   1.213976516384674E+02   1.213711780759005E+02   1.213444094085430E+02
   1.213173421266102E+02   1.212899726780571E+02   1.212622974681392E+02
   1.212343128589769E+02   1.212060151691110E+02   1.211774006730548E+02
   1.211484656008449E+02   1.211192061375834E+02   1.210896184229808E+02
   1.210596985508917E+02   1.210294425688465E+02   1.209988464775833E+02
   1.209679062305684E+02   1.209366177335200E+02   1.209049768439240E+02
   1.208729793705459E+02   1.208406210729419E+02   1.208078976609608E+02
   1.207748047942476E+02   1.207413380817393E+02   1.207074930811579E+02
   1.206732652985017E+02   1.206386501875280E+02   1.206036431492372E+02
   1.205682395313506E+02   1.205324346277829E+02   1.204962236781160E+02
   1.204596018670622E+02   1.204225643239309E+02   1.203851061220864E+02
   1.203472222784039E+02   1.203089077527246E+02   1.202701574473017E+02
   1.202309662062481E+02   1.201913288149791E+02   1.201512399996498E+02
   1.201106944265937E+02   1.200696867017522E+02   1.200282113701066E+02
   1.199862629151039E+02   1.199438357580790E+02   1.199009242576779E+02
   1.198575227092722E+02   1.198136253443765E+02   1.197692263300591E+02
   1.197243197683517E+02   1.196788996956577E+02   1.196329600821544E+02
   1.195864948311968E+02   1.195394977787177E+02   1.194919626926231E+02
   1.194438832721917E+02   1.193952531474645E+02   1.193460658786394E+02
   1.192963149554607E+02   1.192459937966062E+02   1.191950957490770E+02
   1.191436140875803E+02   1.190915420139156E+02   1.190388726563582E+02
   1.189855990690398E+02   1.189317142313335E+02   1.188772110472311E+02
   1.188220823447267E+02   1.187663208751957E+02   1.187099193127742E+02
   1.186528702537423E+02   1.185951662159005E+02   1.185367996379538E+02
   1.184777628788921E+02   1.184180482173723E+02   1.183576478511025E+02
   1.182965538962257E+02   1.182347583867071E+02   1.181722532737214E+02
   1.181090304250422E+02   1.180450816244348E+02   1.179803985710502E+02
   1.179149728788224E+02   1.178487960758685E+02   1.177818596038919E+02
   1.177141548175898E+02   1.176456729840627E+02   1.175764052822309E+02
   1.175063428022525E+02   1.174354765449478E+02   1.173637974212286E+02
   1.172912962515324E+02   1.172179637652632E+02   1.171437906002376E+02
   1.170687673021375E+02   1.169928843239704E+02   1.169161320255358E+02
   1.168385006729004E+02   1.167599804378810E+02   1.166805613975349E+02
   1.166002335336611E+02   1.165189867323085E+02   1.164368107832967E+02
   1.163536953797447E+02   1.162696301176112E+02   1.161846044952466E+02
   1.160986079129562E+02   1.160116296725755E+02   1.159236589770597E+02
   1.158346849300839E+02   1.157446965356600E+02   1.156536826977665E+02
   1.155616322199935E+02   1.154685338052042E+02   1.153743760552110E+02
   1.152791474704708E+02   1.151828364497956E+02   1.150854312900831E+02
   1.149869201860651E+02   1.148872912300754E+02   1.147865324118394E+02
   1.146846316182827E+02   1.145815766333629E+02   1.144773551379241E+02
   1.143719547095725E+02   1.142653628225796E+02   1.141575668478069E+02
   1.140485540526585E+02   1.139383116010595E+02   1.138268265534616E+02
   1.137140858668780E+02   1.136000763949461E+02   1.134847848880219E+02
   1.133681979933042E+02   1.132503022549915E+02   1.131310841144724E+02
   1.130105299105487E+02   1.128886258796950E+02   1.127653581563536E+02
   1.126407127732669E+02   1.125146756618478E+02   1.123872326525897E+02
   1.122583694755175E+02   1.121280717606792E+02   1.119963250386806E+02
   1.118631147412656E+02   1.117284262019389E+02   1.115922446566383E+02
   1.114545552444522E+02   1.113153430083877E+02   1.111745928961885E+02
   1.110322897612046E+02   1.108884183633150E+02   1.107429633699050E+02
   1.105959093568990E+02   1.104472408098507E+02   1.102969421250927E+02
   1.101449976109448E+02   1.099913914889855E+02   1.098361078953862E+02
   1.096791308823087E+02   1.095204444193722E+02   1.093600323951851E+02
   1.091978786189479E+02   1.090339668221271E+02   1.088682806602010E+02
   1.087008037144820E+02   1.085315194940129E+02   1.083604114375424E+02
   1.081874629155801E+02   1.080126572325323E+02   1.078359776289227E+02
   1.076574072836960E+02   1.074769293166102E+02   1.072945267907170E+02
   1.071101827149317E+02   1.069238800466985E+02   1.067356016947474E+02
   1.065453305219487E+02   1.063530493482663E+02   1.061587409538098E+02
   1.059623880819909E+02   1.057639734427824E+02   1.055634797160847E+02
   1.053608895551994E+02   1.051561855904142E+02   1.049493504327006E+02
   1.047403666775248E+02   1.045292169087763E+02   1.043158837028145E+02
   1.041003496326358E+02   1.038825972721653E+02   1.036626092006709E+02
   1.034403680073060E+02   1.032158562957815E+02   1.029890566891673E+02
   1.027599518348298E+02   1.025285244095027E+02   1.022947571244956E+02
   1.020586327310437E+02   1.018201340257967E+02   1.015792438564543E+02
   1.013359451275449E+02   1.010902208063542E+02   1.008420539290019E+02
   1.005914276066710E+02   1.003383250319917E+02   1.000827294855797E+02
   9.982462434273239E+01   9.956399308028564E+01   9.930081928362992E+01
   9.903508665389199E+01   9.876677901527965E+01   9.849588032259409E+01
   9.822237466890985E+01   9.794624629342545E+01   9.766747958948449E+01
   9.738605911277102E+01   9.710196958967812E+01   9.681519592585276E+01
   9.652572321491756E+01   9.623353674737047E+01   9.593862201966473E+01
   9.564096474346825E+01   9.534055085510461E+01   9.503736652517669E+01
   9.473139816837200E+01   9.442263245345330E+01   9.411105631343213E+01
   9.379665695592666E+01   9.347942187370535E+01   9.315933885541394E+01
   9.283639599648936E+01   9.251058171025647E+01   9.218188473921062E+01
   9.185029416648354E+01   9.151579942749237E+01   9.117839032177288E+01
   9.083805702499254E+01   9.049479010114526E+01   9.014858051492519E+01
   8.979941964427729E+01   8.944729929312597E+01   8.909221170427550E+01
   8.873414957248372E+01   8.837310605770462E+01   8.800907479849732E+01
   8.764204992560047E+01   8.727202607566578E+01   8.689899840514998E+01
   8.652296260436009E+01   8.614391491164821E+01   8.576185212775285E+01
   8.537677163028029E+01   8.498867138832246E+01   8.459754997720593E+01
   8.420340659336591E+01   8.380624106934130E+01   8.340605388888174E+01
   8.300284620216296E+01   8.259661984110194E+01   8.218737733476472E+01
   8.177512192486076E+01   8.135985758131385E+01   8.094158901790250E+01
   8.052032170796106E+01   8.009606190013086E+01   7.966881663415506E+01
   7.923859375670322E+01   7.880540193721799E+01   7.836925068377226E+01
   7.793015035892461E+01   7.748811219556330E+01   7.704314831272409E+01
   7.659527173137123E+01   7.614449639012753E+01   7.569083716093940E+01
   7.523430986466498E+01   7.477493128656748E+01   7.431271919170173E+01
   7.384769234017611E+01   7.337987050227515E+01   7.290927447342625E+01
   7.243592608899243E+01   7.195984823887460E+01   7.148106488190493E+01
   7.099960106001224E+01   7.051548291214235E+01   7.002873768791093E+01
   6.953939376097134E+01   6.904748064207585E+01   6.855302899180883E+01
   6.805607063297256E+01   6.755663856260081E+01   6.705476696358009E+01
   6.655049121585509E+01   6.604384790719408E+01   6.553487484349336E+01
   6.502361105859281E+01   6.451009682358151E+01   6.399437365556683E+01
   6.347648432588156E+01   6.295647286770551E+01   6.243438458307320E+01
   6.191026604924316E+01   6.138416512440198E+01   6.085613095267560E+01
   6.032621396842334E+01   5.979446589978437E+01   5.926093977145171E+01
   5.872568990664572E+01   5.818877192825904E+01   5.765024275914680E+01
   5.711016062153313E+01   5.656858503550713E+01   5.602557681658110E+01
   5.548119807228282E+01   5.493551219775617E+01   5.438858387034130E+01
   5.384047904310897E+01   5.329126493732220E+01   5.274101003379845E+01
   5.218978406314862E+01   5.163765799486522E+01   5.108470402523664E+01
   5.053099556406313E+01   4.997660722015046E+01   4.942161478555985E+01
   4.886609521859049E+01   4.831012662547504E+01   4.775378824076712E+01
   4.719716040640154E+01   4.664032454941020E+01   4.608336315827518E+01
   4.552635975790391E+01   4.496939888321227E+01   4.441256605130128E+01
   4.385594773221759E+01   4.329963131828489E+01   4.274370509199979E+01
   4.218825819248426E+01   4.163338058048883E+01   4.107916300194447E+01
   4.052569695005995E+01   3.997307462596621E+01   3.942138889790968E+01
   3.887073325899865E+01   3.832120178351071E+01   3.777288908176859E+01
   3.722589025359662E+01   3.668030084037130E+01   3.613621677568184E+01
   3.559373433461988E+01   3.505295008171883E+01   3.451396081756707E+01
   3.397686352412178E+01   3.344175530875174E+01   3.290873334704278E+01
   3.237789482439879E+01   3.184933687647736E+01   3.132315652850039E+01
   3.079945063348260E+01   3.027831580942559E+01   2.975984837552549E+01
   2.924414428744776E+01   2.873129907172374E+01   2.822140775932754E+01
   2.771456481849493E+01   2.721086408684761E+01   2.671039870289079E+01
   2.621326103695354E+01   2.571954262164502E+01   2.522933408190238E+01
   2.474272506470823E+01   2.425980416855916E+01   2.378065887276878E+01
   2.330537546669120E+01   2.283403897895424E+01   2.236673310679235E+01
   2.190354014557301E+01   2.144454091861157E+01   2.098981470737157E+01
   2.053943918215008E+01   2.009349033334809E+01   1.965204240342849E+01
   1.921516781966542E+01   1.878293712778935E+01   1.835541892663421E+01
   1.793267980389282E+01   1.751478427308798E+01   1.710179471186729E+01
   1.669377130172890E+01   1.629077196928714E+01   1.589285232918473E+01
   1.550006562875955E+01   1.511246269457220E+01   1.473009188090000E+01
   1.435299902030229E+01   1.398122737635932E+01   1.361481759868684E+01
   1.325380768032530E+01   1.289823291760103E+01   1.254812587255435E+01
   1.220351633802617E+01   1.186443130549259E+01   1.153089493573303E+01
   1.120292853241419E+01   1.088055051866869E+01   1.056377641674237E+01
   1.025261883078100E+01   9.947087432821915E+00   9.647188952051566E+00
   9.352927167385271E+00   9.064302903419600E+00   8.781314029803168E+00
   8.503955464065438E+00   8.232219177937500E+00   7.966094207193017E+00
   7.705566665030812E+00   7.450619759014749E+00   7.201233811579881E+00
   6.957386284107057E+00   6.719051804561841E+00   6.486202198686206E+00
   6.258806524725043E+00   6.036831111662192E+00   5.820239600933689E+00
   5.608992991579004E+00   5.403049688783529E+00   5.202365555758768E+00
   5.006893968899366E+00   4.816585876148949E+00   4.631389858499833E+00
   4.451252194544330E+00   4.276116927988653E+00   4.105925938033356E+00
   3.940619012517471E+00   3.780133923716875E+00   3.624406506680546E+00
   3.473370739982256E+00   3.326958828758610E+00   3.185101289898264E+00
   3.047727039241215E+00   2.914763480640941E+00   2.786136596736798E+00
   2.661771041278407E+00   2.541590232838577E+00   2.425516449746363E+00
   2.313470926066972E+00   2.205373948450938E+00   2.101144953670711E+00
   2.000702626617653E+00   1.903964998782795E+00   1.810849546594630E+00
   1.721273289864400E+00   1.635152889915135E+00   1.552404747243255E+00
   1.472945098514392E+00   1.396690112695031E+00   1.323555986122423E+00
   1.253459036316744E+00   1.186315794341869E+00   1.122043095524436E+00
   1.060558168344955E+00   1.001778721319702E+00   9.456230276979146E-01
   8.920100078052048E-01   8.408593088711934E-01   7.920913821866499E-01
   7.456275574430707E-01   7.013901141148993E-01   6.593023497515051E-01
   6.192886450520245E-01   5.812745256007490E-01   5.451867201438174E-01
   5.109532152887908E-01   4.785033065074172E-01   4.477676453185138E-01
   4.186782825227279E-01   3.911687073554158E-01   3.651738824194506E-01
   3.406302742595010E-01   3.174758794469321E-01   2.956502460646123E-01
   2.750944905191940E-01   2.557513096699476E-01   2.375649883521767E-01
   2.204814024908203E-01   2.044480181423583E-01   1.894138869607020E-01
   1.753296387377158E-01   1.621474717973410E-01   1.498211420961820E-01
   1.383059518767199E-01   1.275587386146665E-01   1.175378647966461E-01
   1.082032087744802E-01   9.951615660162613E-02   9.143959441186600E-02
   8.393790060026805E-02   7.697693685651172E-02   7.052403701310993E-02
   6.454799272025985E-02   5.901903513891028E-02   5.390881212763695E-02
   4.919036074321016E-02   4.483807522580114E-02   4.082767094509827E-02
   3.713614500314189E-02   3.374173430395472E-02   3.062387191186352E-02
   2.776314245052044E-02   2.514123717316467E-02   2.274090919229006E-02
   2.054592921836742E-02   1.854104203845350E-02   1.671192387354673E-02
   1.504514068885740E-02   1.352810749009751E-02   1.214904861607567E-02
   1.089695902776466E-02   9.761566591843006E-03   8.733295358856768E-03
   7.803229840070447E-03   6.963080291184270E-03   6.205149014482083E-03
   5.522297693225274E-03   4.907915773108938E-03   4.355889905409254E-03
   3.860574465236648E-03   3.416763156256209E-03   3.019661710546359E-03
   2.664861689122711E-03   2.348315385218131E-03   2.066311828823673E-03
   1.815453887369376E-03   1.592636453852182E-03   1.395025710270761E-03
   1.220039450956719E-03   1.065328447338548E-03   9.287588328642050E-04
   8.083954842581344E-04   7.024863730079985E-04   6.094478589681578E-04
   5.278508962304813E-04   4.564081199427863E-04   3.939617815442489E-04
   3.394724989259686E-04   2.920087873025805E-04   2.507373360859008E-04
   2.149139967710366E-04   1.838754467662063E-04   1.570314942058945E-04
   1.338579890688199E-04   1.138903063633861E-04   9.671736772929377E-05
   8.197616852045976E-05   6.934677826693107E-05   5.854778334781733E-05
   4.933214172948211E-05   4.148342071960162E-05   3.481238984502287E-05
   2.915394216688874E-05   2.436431858807882E-05   2.031861097416392E-05
   1.690852118896778E-05   1.404035442946979E-05   1.163322652292881E-05
   9.617466113360182E-06   7.933193907316045E-06   6.529062363597347E-06
   5.361140392227489E-06   4.391928769732997E-06   3.589493076311749E-06
   2.926702012421832E-06   2.380559955030338E-06   1.931623565270051E-06
   1.563493158265203E-06   1.262370391712644E-06   1.016674622304257E-06
   8.167110186041933E-07   6.543842063477217E-07   5.229518584858014E-07
   4.168132291682872E-07   3.313281700222167E-07   2.626626605456813E-07
   2.076573343850837E-07   1.637158920066324E-07   1.287106602137187E-07
   1.009028925536724E-07   7.887570437084803E-08   6.147780455657498E-08
   4.777642533971871E-08   3.701806411332889E-08   2.859583958283993E-08
   2.202243063469308E-08   1.690771234013048E-08   1.294033139143102E-08
   9.872574860332130E-09   7.507983189635405E-09   5.691242372102287E-09
   4.299962803665891E-09   3.238014665601749E-09   2.430143118059186E-09
   1.817632185859364E-09   1.354824987968565E-09   1.006340802589240E-09
   7.448571717537624E-10   5.493485442281241E-10   4.036924621505791E-10
   2.955705679500250E-10   2.156052274288662E-10   1.566837536904881E-10
   1.134314399213403E-10   8.180218181036561E-11   5.876166295398271E-11
   4.204311995579030E-11   2.995979453953947E-11   2.126148413676271E-11
   1.502526017386597E-11   1.057255212811421E-11   7.406493371466546E-12
   5.164773291460464E-12   3.584306469999453E-12   2.474869181451804E-12
   1.699511473143723E-12   1.160066551162717E-12   7.864780664656375E-13
   5.289743334145974E-13   3.523560456116873E-13   2.318453150085413E-13
   1.500869020492296E-13   9.497692262735876E-14   5.827771216032933E-14
   3.360944785627611E-14   0.000000000000000E+00   0.000000000000000E+00
   0.000000000000000E+00   0.000000000000000E+00   0.000000000000000E+00
   0.000000000000000E+00   0.000000000000000E+00   0.000000000000000E+00
   0.000000000000000E+00   0.000000000000000E+00   0.000000000000000E+00
   0.000000000000000E+00   0.000000000000000E+00   0.000000000000000E+00
   0.000000000000000E+00   0.000000000000000E+00   0.000000000000000E+00
   0.000000000000000E+00   0.000000000000000E+00   0.000000000000000E+00
   0.000000000000000E+00   0.000000000000000E+00   0.000000000000000E+00
   0.000000000000000E+00   0.000000000000000E+00   0.000000000000000E+00
   0.000000000000000E+00   0.000000000000000E+00   0.000000000000000E+00
   0.000000000000000E+00   0.000000000000000E+00   0.000000000000000E+00
   0.000000000000000E+00   0.000000000000000E+00   0.000000000000000E+00
   0.000000000000000E+00   0.000000000000000E+00   0.000000000000000E+00
   0.000000000000000E+00   0.000000000000000E+00   0.000000000000000E+00
   0.000000000000000E+00   0.000000000000000E+00   0.000000000000000E+00
   0.000000000000000E+00   0.000000000000000E+00   0.000000000000000E+00
   0.000000000000000E+00   0.000000000000000E+00   0.000000000000000E+00
   0.000000000000000E+00   0.000000000000000E+00   0.000000000000000E+00
   0.000000000000000E+00   0.000000000000000E+00   0.000000000000000E+00
   0.000000000000000E+00   0.000000000000000E+00   0.000000000000000E+00
   0.000000000000000E+00   0.000000000000000E+00   0.000000000000000E+00
   0.000000000000000E+00   0.000000000000000E+00   0.000000000000000E+00
   0.000000000000000E+00   0.000000000000000E+00   0.000000000000000E+00
   0.000000000000000E+00   0.000000000000000E+00   0.000000000000000E+00
   0.000000000000000E+00   0.000000000000000E+00   0.000000000000000E+00
   0.000000000000000E+00   0.000000000000000E+00   0.000000000000000E+00
   0.000000000000000E+00   0.000000000000000E+00   0.000000000000000E+00
   0.000000000000000E+00   0.000000000000000E+00   0.000000000000000E+00
   0.000000000000000E+00   0.000000000000000E+00   0.000000000000000E+00
   0.000000000000000E+00   0.000000000000000E+00   0.000000000000000E+00
   0.000000000000000E+00   0.000000000000000E+00   0.000000000000000E+00
   0.000000000000000E+00   0.000000000000000E+00   0.000000000000000E+00
   0.000000000000000E+00   0.000000000000000E+00   0.000000000000000E+00
   0.000000000000000E+00   0.000000000000000E+00   0.000000000000000E+00
   0.000000000000000E+00   0.000000000000000E+00   0.000000000000000E+00
   0.000000000000000E+00   0.000000000000000E+00   0.000000000000000E+00
   0.000000000000000E+00   0.000000000000000E+00   0.000000000000000E+00
   0.000000000000000E+00   0.000000000000000E+00   0.000000000000000E+00
   0.000000000000000E+00   0.000000000000000E+00   0.000000000000000E+00
   0.000000000000000E+00   0.000000000000000E+00   0.000000000000000E+00
   0.000000000000000E+00   0.000000000000000E+00   0.000000000000000E+00
   0.000000000000000E+00   0.000000000000000E+00   0.000000000000000E+00
   0.000000000000000E+00   0.000000000000000E+00   0.000000000000000E+00
   0.000000000000000E+00   0.000000000000000E+00   0.000000000000000E+00
   0.000000000000000E+00   0.000000000000000E+00   0.000000000000000E+00
   0.000000000000000E+00   0.000000000000000E+00   0.000000000000000E+00
   0.000000000000000E+00   0.000000000000000E+00   0.000000000000000E+00
   0.000000000000000E+00   0.000000000000000E+00   0.000000000000000E+00
   0.000000000000000E+00   0.000000000000000E+00   0.000000000000000E+00
   0.000000000000000E+00   0.000000000000000E+00   0.000000000000000E+00
   0.000000000000000E+00   0.000000000000000E+00   0.000000000000000E+00
   0.000000000000000E+00   0.000000000000000E+00   0.000000000000000E+00
   0.000000000000000E+00   0.000000000000000E+00   0.000000000000000E+00
   0.000000000000000E+00   0.000000000000000E+00   0.000000000000000E+00
   0.000000000000000E+00   0.000000000000000E+00   0.000000000000000E+00
   0.000000000000000E+00   0.000000000000000E+00   0.000000000000000E+00
   0.000000000000000E+00   0.000000000000000E+00   0.000000000000000E+00
   0.000000000000000E+00   0.000000000000000E+00   0.000000000000000E+00
   0.000000000000000E+00   0.000000000000000E+00   0.000000000000000E+00
   0.000000000000000E+00   0.000000000000000E+00   0.000000000000000E+00
   0.000000000000000E+00   0.000000000000000E+00   0.000000000000000E+00
   0.000000000000000E+00   0.000000000000000E+00   0.000000000000000E+00
   0.000000000000000E+00   0.000000000000000E+00   0.000000000000000E+00
   0.000000000000000E+00   0.000000000000000E+00   0.000000000000000E+00
   0.000000000000000E+00   0.000000000000000E+00   0.000000000000000E+00
   0.000000000000000E+00   0.000000000000000E+00   0.000000000000000E+00
   0.000000000000000E+00   0.000000000000000E+00   0.000000000000000E+00
   0.000000000000000E+00   0.000000000000000E+00   0.000000000000000E+00
   0.000000000000000E+00   0.000000000000000E+00   0.000000000000000E+00
   0.000000000000000E+00   0.000000000000000E+00   0.000000000000000E+00
   0.000000000000000E+00   0.000000000000000E+00   0.000000000000000E+00
   0.000000000000000E+00   0.000000000000000E+00   0.000000000000000E+00
   0.000000000000000E+00   0.000000000000000E+00   0.000000000000000E+00
   0.000000000000000E+00   0.000000000000000E+00   0.000000000000000E+00
   0.000000000000000E+00   0.000000000000000E+00   0.000000000000000E+00
   0.000000000000000E+00   0.000000000000000E+00   0.000000000000000E+00
   0.000000000000000E+00   0.000000000000000E+00   0.000000000000000E+00
   0.000000000000000E+00   0.000000000000000E+00   0.000000000000000E+00
   0.000000000000000E+00   0.000000000000000E+00   0.000000000000000E+00
   0.000000000000000E+00   0.000000000000000E+00   0.000000000000000E+00
   0.000000000000000E+00   0.000000000000000E+00   0.000000000000000E+00
   0.000000000000000E+00   0.000000000000000E+00   0.000000000000000E+00
   0.000000000000000E+00   0.000000000000000E+00   0.000000000000000E+00
   0.000000000000000E+00   0.000000000000000E+00   0.000000000000000E+00
   0.000000000000000E+00   0.000000000000000E+00   0.000000000000000E+00
   0.000000000000000E+00   0.000000000000000E+00   0.000000000000000E+00
   0.000000000000000E+00   0.000000000000000E+00   0.000000000000000E+00
   0.000000000000000E+00   0.000000000000000E+00   0.000000000000000E+00
   0.000000000000000E+00   0.000000000000000E+00   0.000000000000000E+00
   0.000000000000000E+00   0.000000000000000E+00
    </PP_AE_NLCC>
    <PP_AE_VLOC size="1073">
  -7.893499528484263E+04  -7.795416838186610E+04  -7.698552550636792E+04
  -7.602891530592869E+04  -7.508418830825854E+04  -7.415119689784228E+04
  -7.322979529287553E+04  -7.231983952247990E+04  -7.142118740422011E+04
  -7.053369852186475E+04  -6.965723420348627E+04  -6.879165749973911E+04
  -6.793683316252728E+04  -6.709262762377136E+04  -6.625890897464883E+04
  -6.543554694493739E+04  -6.462241288264127E+04  -6.381937973390640E+04
  -6.302632202317383E+04  -6.224311583356895E+04  -6.146963878751651E+04
  -6.070577002766415E+04  -5.995139019796353E+04  -5.920638142502634E+04
  -5.847062729972494E+04  -5.774401285897136E+04  -5.702642456778729E+04
  -5.631775030153909E+04  -5.561787932843631E+04  -5.492670229221239E+04
  -5.424411119504835E+04  -5.356999938069628E+04  -5.290426151781907E+04
  -5.224679358351816E+04  -5.159749284709237E+04  -5.095625785398290E+04
  -5.032298840990528E+04  -4.969758556523520E+04  -4.907995159950564E+04
  -4.846999000614788E+04  -4.786760547741832E+04  -4.727270388951954E+04
  -4.668519228785892E+04  -4.610497887255679E+04  -4.553197298409346E+04
  -4.496608508912865E+04  -4.440722676651830E+04  -4.385531069353287E+04
  -4.331025063214586E+04  -4.277196141562399E+04  -4.224035893518335E+04
  -4.171536012684261E+04  -4.119688295848900E+04  -4.068484641699524E+04
  -4.017917049561942E+04  -3.967977618147028E+04  -3.918658544316268E+04
  -3.869952121864988E+04  -3.821850740315159E+04  -3.774346883727754E+04
  -3.727433129529182E+04  -3.681102147349913E+04  -3.635346697879276E+04
  -3.590159631736110E+04  -3.545533888349043E+04  -3.501462494854931E+04
  -3.457938565009108E+04  -3.414955298108346E+04  -3.372505977931240E+04
  -3.330583971683923E+04  -3.289182728967858E+04  -3.248295780755470E+04
  -3.207916738377171E+04  -3.168039292526176E+04  -3.128657212269942E+04
  -3.089764344078925E+04  -3.051354610863096E+04  -3.013422011023662E+04
  -2.975960617514831E+04  -2.938964576917646E+04  -2.902428108525494E+04
  -2.866345503441444E+04  -2.830711123684502E+04  -2.795519401311499E+04
  -2.760764837543080E+04  -2.726442001908549E+04  -2.692545531395491E+04
  -2.659070129610680E+04  -2.626010565955278E+04  -2.593361674805799E+04
  -2.561118354705611E+04  -2.529275567571080E+04  -2.497828337902186E+04
  -2.466771752004467E+04  -2.436100957224367E+04  -2.405811161187848E+04
  -2.375897631052279E+04  -2.346355692768536E+04  -2.317180730348361E+04
  -2.288368185144446E+04  -2.259913555138978E+04  -2.231812394237552E+04
  -2.204060311576994E+04  -2.176652970838296E+04  -2.149586089568420E+04
  -2.122855438512756E+04  -2.096456840952790E+04  -2.070386172053895E+04
  -2.044639358221736E+04  -2.019212376463519E+04  -1.994101253762634E+04
  -1.969302066455345E+04  -1.944810939617482E+04  -1.920624046462110E+04
  -1.896737607737165E+04  -1.873147891138422E+04  -1.849851210725513E+04
  -1.826843926344424E+04  -1.804122443061005E+04  -1.781683210596801E+04
  -1.759522722776689E+04  -1.737637516979654E+04  -1.716024173597653E+04
  -1.694679315502768E+04  -1.673599607517343E+04  -1.652781755894490E+04
  -1.632222507803042E+04  -1.611918650818932E+04  -1.591867012423112E+04
  -1.572064459507093E+04  -1.552507897881750E+04  -1.533194271794913E+04
  -1.514120563453878E+04  -1.495283792552873E+04  -1.476681015808358E+04
  -1.458309326500161E+04  -1.440165854014030E+04  -1.422247763394773E+04
  -1.404552254906182E+04  -1.387076563589380E+04  -1.369817958832523E+04
  -1.352773743943210E+04  -1.335941255728583E+04  -1.319317864079749E+04
  -1.302900971557649E+04  -1.286688012989390E+04  -1.270676455068590E+04
  -1.254863795957369E+04  -1.239247564895569E+04  -1.223825321815874E+04
  -1.208594656962081E+04  -1.193553190512409E+04  -1.178698572207579E+04
  -1.164028480984231E+04  -1.149540624611454E+04  -1.135232739332318E+04
  -1.121102589511533E+04  -1.107147967285216E+04  -1.093366692215621E+04
  -1.079756610951450E+04  -1.066315596890352E+04  -1.053041549847328E+04
  -1.039932395726570E+04  -1.026986086196626E+04  -1.014200598370841E+04
  -1.001573934491588E+04  -9.891041216183059E+03  -9.767892113177748E+03
  -9.646272793608430E+03  -9.526164254221178E+03  -9.407547727820811E+03
  -9.290404680347543E+03  -9.174716807969720E+03  -9.060466034222869E+03
  -8.947634507206591E+03  -8.836204596782014E+03  -8.726158891802444E+03
  -8.617480197413795E+03  -8.510151532362930E+03  -8.404156126337963E+03
  -8.299477417353273E+03  -8.196099049156779E+03  -8.094004868682773E+03
  -7.993178923521989E+03  -7.893605459424921E+03  -7.795268917847889E+03
  -7.698153933523729E+03  -7.602245332051604E+03  -7.507528127527565E+03
  -7.413987520215431E+03  -7.321608894217001E+03  -7.230377815198033E+03
  -7.140280028137108E+03  -7.051301455083521E+03  -6.963428192972991E+03
  -6.876646511445975E+03  -6.790942850703109E+03  -6.706303819394642E+03
  -6.622716192516647E+03  -6.540166909349377E+03  -6.458643071418788E+03
  -6.378131940480451E+03  -6.298620936526365E+03  -6.220097635819187E+03
  -6.142549768955532E+03  -6.065965218944522E+03  -5.990332019316053E+03
  -5.915638352253649E+03  -5.841872546742560E+03  -5.769023076745919E+03
  -5.697078559412036E+03  -5.626027753292049E+03  -5.555859556574575E+03
  -5.486563005361918E+03  -5.418127271957492E+03  -5.350541663163647E+03
  -5.283795618618157E+03  -5.217878709147970E+03  -5.152780635130908E+03
  -5.088491224888739E+03  -5.025000433102164E+03  -4.962298339237890E+03
  -4.900375145999166E+03  -4.839221177794083E+03  -4.778826879224845E+03
  -4.719182813594405E+03  -4.660279661432215E+03  -4.602108219037927E+03
  -4.544659397042176E+03  -4.487924218988815E+03  -4.431893819930283E+03
  -4.376559445043423E+03  -4.321912448260988E+03  -4.267944290921206E+03
  -4.214646540433310E+03  -4.162010868958962E+03  -4.110029052114517E+03
  -4.058692967681331E+03  -4.007994594339345E+03  -3.957926010415377E+03
  -3.908479392640440E+03  -3.859647014931063E+03  -3.811421247182316E+03
  -3.763794554074156E+03  -3.716759493893936E+03  -3.670308717374396E+03
  -3.624434966545889E+03  -3.579131073600620E+03  -3.534389959774284E+03
  -3.490204634239575E+03  -3.446568193012806E+03  -3.403473817877053E+03
  -3.360914775315897E+03  -3.318884415460936E+03  -3.277376171053327E+03
  -3.236383556417432E+03  -3.195900166447671E+03  -3.155919675607685E+03
  -3.116435836941766E+03  -3.077442481099230E+03  -3.038933515370466E+03
  -3.000902922733802E+03  -2.963344760916782E+03  -2.926253161468225E+03
  -2.889622328839254E+03  -2.853446539478609E+03  -2.817720140939959E+03
  -2.782437550996848E+03  -2.747593256770361E+03  -2.713181813869590E+03
  -2.679197845539457E+03  -2.645636041821065E+03  -2.612491158722587E+03
  -2.579758017398571E+03  -2.547431503342315E+03  -2.515506565586584E+03
  -2.483978215913100E+03  -2.452841528074592E+03  -2.422091637024496E+03
  -2.391723738156761E+03  -2.361733086555938E+03  -2.332114996255259E+03
  -2.302864839504089E+03  -2.273978046045407E+03  -2.245450102402632E+03
  -2.217276551172635E+03  -2.189452990330269E+03  -2.161975072541577E+03
  -2.134838504482752E+03  -2.108039046170554E+03  -2.081572510299582E+03
  -2.055434761588002E+03  -2.029621716131989E+03  -2.004129340766955E+03
  -1.978953652437688E+03  -1.954090717576465E+03  -1.929536651488328E+03
  -1.905287617743830E+03  -1.881339827579955E+03  -1.857689539308321E+03
  -1.834333057730754E+03  -1.811266733561508E+03  -1.788486962857260E+03
  -1.765990186454777E+03  -1.743772889414260E+03  -1.721831600470133E+03
  -1.700162891489089E+03  -1.678763376934555E+03  -1.657629713337895E+03
  -1.636758598775774E+03  -1.616146772354543E+03  -1.595791013700862E+03
  -1.575688142458533E+03  -1.555835017791822E+03  -1.536228537894852E+03
  -1.516865639507007E+03  -1.497743297434231E+03  -1.478858524076780E+03
  -1.460208368962526E+03  -1.441789918286012E+03  -1.423600294453229E+03
  -1.405636655632025E+03  -1.387896195308599E+03  -1.370376141849144E+03
  -1.353073758066418E+03  -1.335986340792542E+03  -1.319111220457004E+03
  -1.302445760669350E+03  -1.285987357807437E+03  -1.269733440610984E+03
  -1.253681469780060E+03  -1.237828937578133E+03  -1.222173367440556E+03
  -1.206712313588070E+03  -1.191443360644534E+03  -1.176364123259604E+03
  -1.161472245736587E+03  -1.146765401664510E+03  -1.132241293554336E+03
  -1.117897652480677E+03  -1.103732237727486E+03  -1.089742836437791E+03
  -1.075927263268422E+03  -1.062283360048691E+03  -1.048808995443436E+03
  -1.035502064620272E+03  -1.022360488920727E+03  -1.009382215535781E+03
  -9.965652171855143E+02  -9.839074918023886E+02  -9.714070622186917E+02
  -9.590619758579459E+02  -9.468703044299453E+02  -9.348301436297378E+02
  -9.229396128404092E+02  -9.111968548394136E+02  -8.996000355086364E+02
  -8.881473435481645E+02  -8.768369901934248E+02  -8.656672089360296E+02
  -8.546362552480546E+02  -8.437424063096279E+02  -8.329839607401137E+02
  -8.223592383325249E+02  -8.118665797912544E+02  -8.015043464731647E+02
  -7.912709201317761E+02  -7.811647026646604E+02  -7.711841158641760E+02
  -7.613276011711104E+02  -7.515936194313721E+02  -7.419806506559063E+02
  -7.324871937835007E+02  -7.231117664464966E+02  -7.138529047394702E+02
  -7.047091629908857E+02  -6.956791135375252E+02  -6.867613465016194E+02
  -6.779544695709594E+02  -6.692571077816779E+02  -6.606679033036648E+02
  -6.521855152288393E+02  -6.438086193618695E+02  -6.355359080135328E+02
  -6.273660897968650E+02  -6.192978894256327E+02  -6.113300475153250E+02
  -6.034613203868172E+02  -5.956904798723268E+02  -5.880163131238078E+02
  -5.804376224237724E+02  -5.729532249984867E+02  -5.655619528335055E+02
  -5.582626524914207E+02  -5.510541849319978E+02  -5.439354253345216E+02
  -5.369052629223276E+02  -5.299626007895465E+02  -5.231063557300440E+02
  -5.163354580684604E+02  -5.096488514933336E+02  -5.030454928924063E+02
  -4.965243521898562E+02  -4.900844121856462E+02  -4.837246683969015E+02
  -4.774441289011669E+02  -4.712418141817018E+02  -4.651167569746758E+02
  -4.590680021182852E+02  -4.530946064037384E+02  -4.471956384280734E+02
  -4.413701784488791E+02  -4.356173182407667E+02  -4.299361609536486E+02
  -4.243258209727850E+02  -4.187854237805593E+02  -4.133141058200066E+02
  -4.079110143599991E+02  -4.025753073621331E+02  -3.973061533492602E+02
  -3.921027312756528E+02  -3.869642303988008E+02  -3.818898501527597E+02
  -3.768788000230921E+02  -3.719302994233763E+02  -3.670435775732088E+02
  -3.622178733777317E+02  -3.574524353086637E+02  -3.527465212867790E+02
  -3.480993985658520E+02  -3.435103436180087E+02  -3.389786420205131E+02
  -3.345035883439618E+02  -3.300844860418146E+02  -3.257206473412963E+02
  -3.214113931356342E+02  -3.171560528776284E+02  -3.129539644745194E+02
  -3.088044741841137E+02  -3.047069365122075E+02  -3.006607141112438E+02
  -2.966651776802005E+02  -2.927197058656965E+02  -2.888236851642986E+02
  -2.849765098259881E+02  -2.811775817588121E+02  -2.774263104346872E+02
  -2.737221127963055E+02  -2.700644131651713E+02  -2.664526431507501E+02
  -2.628862415606757E+02  -2.593646543120265E+02  -2.558873343436730E+02
  -2.524537415296446E+02  -2.490633425935152E+02  -2.457156110237958E+02
  -2.424100269903272E+02  -2.391460772616376E+02  -2.359232551232500E+02
  -2.327410602969607E+02  -2.295989988610302E+02  -2.264965831712878E+02
  -2.234333317831558E+02  -2.204087693745470E+02  -2.174224266696299E+02
  -2.144738403634774E+02  -2.115625530475472E+02  -2.086881131359868E+02
  -2.058500747927725E+02  -2.030479978596491E+02  -2.002814477848606E+02
  -1.975499955526620E+02  -1.948532176135965E+02  -1.921906958155305E+02
  -1.895620173354164E+02  -1.869667746118045E+02  -1.844045652780632E+02
  -1.818749920962922E+02  -1.793776628919360E+02  -1.769121904890883E+02
  -1.744781926464526E+02  -1.720752919939503E+02  -1.697031159699966E+02
  -1.673612967593994E+02  -1.650494712318788E+02  -1.627672808812012E+02
  -1.605143717649117E+02  -1.582903944446707E+02  -1.560950039271545E+02
  -1.539278596055308E+02  -1.517886252014987E+02  -1.496769687078798E+02
  -1.475925623317434E+02  -1.455350824380680E+02  -1.435042094939256E+02
  -1.414996280131787E+02  -1.395210265016804E+02  -1.375680974029721E+02
  -1.356405370444716E+02  -1.337380455841360E+02  -1.318603269576028E+02
  -1.300070888257927E+02  -1.281780425229708E+02  -1.263729030052553E+02
  -1.245913887995776E+02  -1.228332219530764E+02  -1.210981279829203E+02
  -1.193858358265600E+02  -1.176960777924028E+02  -1.160285895108969E+02
  -1.143831098860310E+02  -1.127593810472377E+02  -1.111571483016991E+02
  -1.095761600870521E+02  -1.080161679244847E+02  -1.064769263722267E+02
  -1.049581929794273E+02  -1.034597282404234E+02  -1.019812955493849E+02
  -1.005226611553465E+02  -9.908359411762295E+01  -9.766386626160269E+01
  -9.626325213491953E+01  -9.488152896400810E+01  -9.351847661103562E+01
  -9.217387753121848E+01  -9.084751673052060E+01  -8.953918172373096E+01
  -8.824866249293081E+01  -8.697575144635090E+01  -8.572024337761221E+01
  -8.448193542536752E+01  -8.326062703333911E+01  -8.205611991075385E+01
  -8.086821799318932E+01  -7.969672740382974E+01  -7.854145641513512E+01
  -7.740221541093474E+01  -7.627881684894824E+01  -7.517107522373938E+01
  -7.407880703011105E+01  -7.300183072694934E+01  -7.193996670152237E+01
  -7.089303723424108E+01  -6.986086646389366E+01  -6.884328035335906E+01
  -6.784010665580740E+01  -6.685117488140038E+01  -6.587631626449935E+01
  -6.491536373138665E+01  -6.396815186851595E+01  -6.303451689129879E+01
  -6.211429661343723E+01  -6.120733041681365E+01  -6.031345922194855E+01
  -5.943252545903530E+01  -5.856437303956431E+01  -5.770884732854848E+01
  -5.686579511735595E+01  -5.603506459716533E+01  -5.521650533305412E+01
  -5.440996823872706E+01  -5.361530555189934E+01  -5.283237081034282E+01
  -5.206101882860484E+01  -5.130110567541198E+01  -5.055248865176659E+01
  -4.981502626974520E+01  -4.908857823201047E+01  -4.837300541204192E+01
  -4.766816983509601E+01  -4.697393465990301E+01  -4.629016416110739E+01
  -4.561672371245849E+01  -4.495347977075788E+01  -4.430029986056952E+01
  -4.365705255969551E+01  -4.302360748542372E+01  -4.239983528154900E+01
  -4.178560760617140E+01  -4.118079712027246E+01  -4.058527747706986E+01
  -3.999892331215145E+01  -3.942161023438629E+01  -3.885321481761056E+01
  -3.829361459308495E+01  -3.774268804272032E+01  -3.720031459306442E+01
  -3.666637461004339E+01  -3.614074939445095E+01  -3.562332117817521E+01
  -3.511397312115318E+01  -3.461258930904162E+01  -3.411905475159040E+01
  -3.363325538170559E+01  -3.315507805518511E+01  -3.268441055111171E+01
  -3.222114157288457E+01  -3.176516074986944E+01  -3.131635863964753E+01
  -3.087462673084099E+01  -3.043985744649118E+01  -3.001194414796545E+01
  -2.959078113936670E+01  -2.917626367241864E+01  -2.876828795179840E+01
  -2.836675114088709E+01  -2.797155136790852E+01  -2.758258773242354E+01
  -2.719976031214829E+01  -2.682297017006300E+01  -2.645211936177625E+01
  -2.608711094311094E+01  -2.572784897787468E+01  -2.537423854577979E+01
  -2.502618575047465E+01  -2.468359772764966E+01  -2.434638265318041E+01
  -2.401444975126918E+01  -2.368770930254698E+01  -2.336607265209970E+01
  -2.304945221737823E+01  -2.273776149595190E+01  -2.243091507307560E+01
  -2.212882862902898E+01  -2.183141894618790E+01  -2.153860391579809E+01
  -2.125030254441293E+01  -2.096643495996209E+01  -2.068692241741776E+01
  -2.041168730402688E+01  -2.014065314407847E+01  -1.987374460317753E+01
  -1.961088749199724E+01  -1.935200876948391E+01  -1.909703654549033E+01
  -1.884590008281505E+01  -1.859852979862737E+01  -1.835485726525888E+01
  -1.811481521034598E+01  -1.787833751630849E+01  -1.764535921915221E+01
  -1.741581650658604E+01  -1.718964671544505E+01  -1.696678832841465E+01
  -1.674718097005230E+01  -1.653076540210489E+01  -1.631748351812350E+01
  -1.610727833737697E+01  -1.590009399807015E+01  -1.569587574987268E+01
  -1.549456994576697E+01  -1.529612403322719E+01  -1.510048654474175E+01
  -1.490760708769605E+01  -1.471743633363398E+01  -1.452992600691776E+01
  -1.434502887280757E+01  -1.416269872497844E+01  -1.398289037248859E+01
  -1.380555962620497E+01  -1.363066328468263E+01  -1.345815911948770E+01
  -1.328800585994839E+01  -1.312016317732550E+01  -1.295459166840627E+01
  -1.279125283854659E+01  -1.263010908421506E+01  -1.247112367511396E+01
  -1.231426073596878E+01  -1.215948522808097E+01  -1.200676293072583E+01
  -1.185606042245669E+01  -1.170734506235011E+01  -1.156058497120905E+01
  -1.141574901272912E+01  -1.127280677463940E+01  -1.113172854984496E+01
  -1.099248531761135E+01  -1.085504872484525E+01  -1.071939106752702E+01
  -1.058548527234409E+01  -1.045330487856525E+01  -1.032282402018243E+01
  -1.019401740833937E+01  -1.006686031406022E+01  -9.941328551287882E+00
  -9.817398460243139E+00  -9.695046891114075E+00  -9.574251188087263E+00
  -9.454989173731693E+00  -9.337239133746003E+00  -9.220979802079949E+00
  -9.106190346439277E+00  -8.992850354182378E+00  -8.880939818615921E+00
  -8.770439125694988E+00  -8.661329041132717E+00  -8.553590697921958E+00
  -8.447205584270641E+00  -8.342155531951811E+00  -8.238422705066812E+00
  -8.135989589219855E+00  -8.034838981100670E+00  -7.934953978470730E+00
  -7.836317970547865E+00  -7.738914628782949E+00  -7.642727898021191E+00
  -7.547741988040221E+00  -7.453941365456207E+00  -7.361310745988557E+00
  -7.269835087073330E+00  -7.179499580814742E+00  -7.090289647263829E+00
  -7.002190928013315E+00  -6.915189280097058E+00  -6.829270770182017E+00
  -6.744421669041255E+00  -6.660628446296036E+00  -6.577877765414659E+00
  -6.496156478956575E+00  -6.415451624049720E+00  -6.335750418089378E+00
  -6.257040254646986E+00  -6.179308699577861E+00  -6.102543487316754E+00
  -6.026732517350034E+00  -5.951863850854016E+00  -5.877925707487417E+00
  -5.804906462329754E+00  -5.732794642931376E+00  -5.661578926610414E+00
  -5.591248137797685E+00  -5.521791245380623E+00  -5.453197360269966E+00
  -5.385455733050351E+00  -5.318555751723952E+00  -5.252486939529097E+00
  -5.187238952836142E+00  -5.122801579117688E+00  -5.059164734986103E+00
  -4.996318464293140E+00  -4.934252936287740E+00  -4.872958443827765E+00
  -4.812425401641763E+00  -4.752644344637237E+00  -4.693605926252131E+00
  -4.635300916846658E+00  -4.577720202132657E+00  -4.520854781638092E+00
  -4.464695767204343E+00  -4.409234381514304E+00  -4.354461956649462E+00
  -4.300369932674167E+00  -4.246949856245717E+00  -4.194193379248757E+00
  -4.142092257452793E+00  -4.090638349195212E+00  -4.039823614071823E+00
  -3.989640111660725E+00  -3.940080000279733E+00  -3.891135535727430E+00
  -3.842799070056535E+00  -3.795063050377936E+00  -3.747920017669906E+00
  -3.701362605598398E+00  -3.655383539361780E+00  -3.609975634559982E+00
  -3.565131796055996E+00  -3.520845016861718E+00  -3.477108377046421E+00
  -3.433915042650568E+00  -3.391258264615654E+00  -3.349131377727512E+00
  -3.307527799573050E+00  -3.266441029509991E+00  -3.225864647649625E+00
  -3.185792313852346E+00  -3.146217766735687E+00  -3.107134822694972E+00
  -3.068537374936178E+00  -3.030419392521064E+00  -2.992774919424379E+00
  -2.955598073602947E+00  -2.918883046076636E+00  -2.882624100020923E+00
  -2.846815569871012E+00  -2.811451860437308E+00  -2.776527446032027E+00
  -2.742036869606893E+00  -2.707974741901578E+00  -2.674335740602848E+00
  -2.641114609514145E+00  -2.608306157735397E+00  -2.575905258853003E+00
  -2.543906850139665E+00  -2.512305931764014E+00  -2.481097566009864E+00
  -2.450276876504917E+00  -2.419839047458886E+00  -2.389779322910793E+00
  -2.360093005985508E+00  -2.330775458159321E+00  -2.301822098534467E+00
  -2.273228403122646E+00  -2.244989904137284E+00  -2.217102189294580E+00
  -2.189560901123246E+00  -2.162361736282775E+00  -2.135500444890256E+00
  -2.108972829855534E+00  -2.082774746224719E+00  -2.056902100531892E+00
  -2.031350850158867E+00  -2.006117002703041E+00  -1.981196615353076E+00
  -1.956585794272444E+00  -1.932280693990663E+00  -1.908277516802154E+00
  -1.884572512172679E+00  -1.861161976153165E+00  -1.838042250800937E+00
  -1.815209723608221E+00  -1.792660826937810E+00  -1.770392037465881E+00
  -1.748399875631761E+00  -1.726680905094650E+00  -1.705231732197185E+00
  -1.684049005435669E+00  -1.663129414936992E+00  -1.642469691942046E+00
  -1.622066608295579E+00  -1.601916975942410E+00  -1.582017646429842E+00
  -1.562365510416271E+00  -1.542957497185805E+00  -1.523790574168900E+00
  -1.504861746468875E+00  -1.486168056394218E+00  -1.467706582996681E+00
  -1.449474441614983E+00  -1.431468783424169E+00  -1.413686794990482E+00
  -1.396125697831703E+00  -1.378782747982923E+00  -1.361655235567646E+00
  -1.344740484374205E+00  -1.328035851437415E+00  -1.311538726625383E+00
  -1.295246532231471E+00  -1.279156722571293E+00  -1.263266783584734E+00
  -1.247574232442926E+00  -1.232076617160079E+00  -1.216771516210196E+00
  -1.201656538148509E+00  -1.186729321237667E+00  -1.171987533078579E+00
  -1.157428870245829E+00  -1.143051057927683E+00  -1.128851849570531E+00
  -1.114829026527793E+00  -1.100980397713199E+00  -1.087303799258359E+00
  -1.073797094174637E+00  -1.060458172019198E+00  -1.047284948565235E+00
  -1.034275365476301E+00  -1.021427389984667E+00  -1.008739014573720E+00
  -9.962082566642708E-01  -9.838331583047910E-01  -9.716117858654957E-01
  -9.595422297362086E-01  -9.476226040280175E-01  -9.358510462785997E-01
  -9.242257171612345E-01  -9.127448001974285E-01  -9.014065014730934E-01
  -8.902090493582745E-01  -8.791506942303376E-01  -8.682297082006080E-01
  -8.574443848444100E-01  -8.467930389344362E-01  -8.362740061774457E-01
  -8.258856429542978E-01  -8.156263260627998E-01  -8.054944524651153E-01
  -7.954884382473886E-01  -7.856067215962144E-01  -7.758477576084927E-01
  -7.662100214270585E-01  -7.566920071367577E-01  -7.472922275291084E-01
  -7.380092138699365E-01  -7.288415156698791E-01  -7.197877004577559E-01
  -7.108463535567574E-01  -7.020160778633898E-01  -6.932954936292193E-01
  -6.846832382451263E-01  -6.761779660289423E-01  -6.677783472142894E-01
  -6.594830710108464E-01  -6.512908403912409E-01  -6.432003753029052E-01
  -6.352104115942561E-01  -6.273197008171848E-01  -6.195270100319741E-01
  -6.118311216146602E-01  -6.042308330667674E-01  -5.967249568274131E-01
  -5.893123200878424E-01  -5.819917646071042E-01  -5.747621465386228E-01
  -5.676223362238515E-01  -5.605713727521168E-01  -5.536076864278717E-01
  -5.467306613130605E-01  -5.399390639724690E-01  -5.332318332084285E-01
  -5.266079210025145E-01  -5.200662923550010E-01  -5.136059251231286E-01
  -5.072258098614051E-01  -5.009249496638667E-01  -4.947023600083146E-01
  -4.885570686024837E-01  -4.824881152321127E-01  -4.764945516109171E-01
  -4.705754412324106E-01  -4.647298592235761E-01  -4.589568922003566E-01
  -4.532556381249301E-01  -4.476252062077030E-01  -4.420647165926139E-01
  -4.365733004888545E-01  -4.311500998514878E-01  -4.257942672943798E-01
  -4.205049659577998E-01  -4.152813693776527E-01  -4.101226613563455E-01
  -4.050280358352570E-01  -3.999966967687839E-01  -3.950278579999628E-01
  -3.901207431376276E-01  -3.852745854350970E-01  -3.804886276703728E-01
  -3.757621220278168E-01  -3.710943299813083E-01  -3.664845221788434E-01
  -3.619319783285742E-01  -3.574359870862641E-01  -3.529958459441333E-01
  -3.486108611224421E-01  -3.442803474555799E-01  -3.400036282934507E-01
  -3.357800353899858E-01  -3.316089088001997E-01  -3.274895967770780E-01
  -3.234214556697355E-01  -3.194038498228466E-01  -3.154361514773254E-01
  -3.115177406722318E-01  -3.076480051479065E-01  -3.038263402503003E-01
  -3.000521488364972E-01  -2.963248411814111E-01  -2.926438348856366E-01
  -2.890085547844521E-01  -2.854184328579453E-01  -2.818729081422600E-01
  -2.783714266419475E-01  -2.749134412433982E-01  -2.714984116293597E-01
  -2.681258041945058E-01  -2.647950919620631E-01  -2.615057545014698E-01
  -2.582572778470544E-01  -2.550491544177315E-01  -2.518808829376882E-01
  -2.487519683580587E-01  -2.456619217795756E-01  -2.426102603761731E-01
  -2.395965073195493E-01  -2.366201917046570E-01  -2.336808484761257E-01
  -2.307780183555965E-01  -2.279112477699564E-01  -2.250800887804700E-01
  -2.222840990127845E-01  -2.195228415878097E-01  -2.167958850534562E-01
  -2.141028033172166E-01  -2.114431755795910E-01  -2.088165862683345E-01
  -2.062226249735225E-01  -2.036608863834263E-01  -2.011309702211783E-01
  -1.986324811822320E-01  -1.961650288725912E-01  -1.937282277478123E-01
  -1.913216970527624E-01  -1.889450607621238E-01  -1.865979475216412E-01
  -1.842799905900955E-01  -1.819908277819995E-01  -1.797301014110082E-01
  -1.774974582340256E-01  -1.752925493960138E-01  -1.731150303754807E-01
  -1.709645609306485E-01  -1.688408050462923E-01  -1.667434308812335E-01
  -1.646721107164923E-01  -1.626265209040787E-01  -1.606063418164221E-01
  -1.586112577964309E-01  -1.566409571081672E-01  -1.546951318881404E-01
  -1.527734780972007E-01  -1.508756954730336E-01  -1.490014874832435E-01
  -1.471505612790180E-01  -1.453226276493730E-01  -1.435174009759593E-01
  -1.417345991884362E-01  -1.399739437203979E-01  -1.382351594658447E-01
  -1.365179747362001E-01  -1.348221212178559E-01  -1.331473339302495E-01
  -1.314933511844603E-01  -1.298599145423187E-01  -1.282467687760267E-01
  -1.266536618282760E-01  -1.250803447728646E-01  -1.235265717758021E-01
  -1.219921000568961E-01  -1.204766898518191E-01  -1.189801043746432E-01
  -1.175021097808425E-01  -1.160424751307552E-01  -1.146009723534970E-01
  -1.131773762113268E-01  -1.117714642644508E-01  -1.103830168362667E-01
  -1.090118169790394E-01  -1.076576504400012E-01  -1.063203056278757E-01
  -1.049995735798148E-01  -1.036952479287489E-01  -1.024071248711416E-01
  -1.011350031351442E-01  -9.987868394914760E-02  -9.863797101072282E-02
  -9.741267045594879E-02  -9.620259082912129E-02  -9.500754305283633E-02
  -9.382734039844794E-02  -9.266179845689004E-02  -9.151073510986267E-02
  -9.037397050137645E-02  -8.925132700964819E-02  -8.814262921934861E-02
  -8.704770389419209E-02  -8.596637994986878E-02  -8.489848842731278E-02
  -8.384386246630067E-02  -8.280233727938080E-02  -8.177375012612347E-02
  -8.075794028769316E-02  -7.975474904173629E-02
    </PP_AE_VLOC>
  </PP_PAW>
</UPF>
