<UPF version="2.0.1">
  <PP_INFO>
    Generated using "atomic" code by A. Dal Corso  v.7.3.1
    Author: ADC
    Generation date: 24Apr2026
    Pseudopotential type: PAW
    Element:  N
    Functional:  SLA  PW   PBX  PBC
    Suggested minimum cutoff for wavefunctions:  44. Ry
    Suggested minimum cutoff for charge density: 320. Ry
    The Pseudo was generated with a Scalar-Relativistic Calculation
    Local Potential by smoothing AE potential with Bessel fncs, cutoff radius:   1.2000
    Valence configuration: 
    nl pn  l   occ       Rcut    Rcut US       E pseu
    2S  1  0  2.00      1.000      1.300    -1.365821
    2P  2  1  3.00      0.900      1.350    -0.521111
    Generation configuration:
    2S  1  0  2.00      1.000      1.300    -1.365813
    2S  1  0  0.00      1.000      1.300     2.000000
    2P  2  1  3.00      0.900      1.350    -0.521105
    2P  2  1  0.00      0.900      1.350     0.050000
    Pseudization used: troullier-martins
    <PP_INPUTFILE>
@input
title='N',
zed=7.,
rel=1,
config='[He] 2s2 2p3',
iswitch=3,
dft='PBE'
/
@inputp
lpaw=.true.,
pseudotype=3,
file_pseudopw='N.pbe-n-kjpaw_psl.1.0.0.UPF',
author='ADC',
lloc=-1,
rcloc=1.2
which_augfun='PSQ',
rmatch_augfun_nc=.true.,
nlcc=.true.,
new_core_ps=.true.,
rcore=0.7,
tm=.true.
/
4
2S  1  0  2.00  0.00  1.00  1.30  0.0
2S  1  0  0.00  2.00  1.00  1.30  0.0
2P  2  1  3.00  0.00  0.90  1.35  0.0
2P  2  1  0.00  0.05  0.90  1.35  0.0
    </PP_INPUTFILE>
  </PP_INFO>
    <!-- END OF HUMAN READABLE SECTION -->
  <PP_HEADER generated="Generated using 'atomic' code by A. Dal Corso  v.7.3.1" author="ADC" date="24Apr2026" comment="" element=" N" pseudo_type="PAW" relativistic="scalar" is_ultrasoft="true" is_paw="true" is_coulomb="false" has_so="false" has_wfc="true" has_gipaw="false" paw_as_gipaw="false" core_correction="true" with_metagga_info="false" functional=" SLA  PW   PBX  PBC" z_valence="5.00000000000000" total_psenergy="-27.6076815300829" wfc_cutoff="43.9165171110884" rho_cutoff="320.270807947976" l_max="1" l_max_rho="2" l_local="-1" mesh_size="1085" number_of_wfc="2" number_of_proj="4"/>
  <PP_MESH mesh="1085" dx="1.250000000000000E-002" xmin="-7.00000000000000" rmax="100.000000000000" zmesh="7.00000000000000">
    <PP_R>
   1.302688522220737E-04   1.319074326670032E-04   1.335666239166546E-04
   1.352466852230363E-04   1.369478790991457E-04   1.386704713599870E-04
   1.404147311641055E-04   1.421809310556445E-04   1.439693470069301E-04
   1.457802584615935E-04   1.476139483782339E-04   1.494707032746312E-04
   1.513508132725157E-04   1.532545721428995E-04   1.551822773519797E-04
   1.571342301076169E-04   1.591107354064004E-04   1.611121020813046E-04
   1.631386428499439E-04   1.651906743634368E-04   1.672685172558820E-04
   1.693724961944590E-04   1.715029399301573E-04   1.736601813491449E-04
   1.758445575247830E-04   1.780564097702928E-04   1.802960836920878E-04
   1.825639292437749E-04   1.848603007808354E-04   1.871855571159943E-04
   1.895400615752845E-04   1.919241820548181E-04   1.943382910782705E-04
   1.967827658550881E-04   1.992579883394284E-04   2.017643452898402E-04
   2.043022283296963E-04   2.068720340083851E-04   2.094741638632718E-04
   2.121090244824410E-04   2.147770275682246E-04   2.174785900015331E-04
   2.202141339069929E-04   2.229840867189046E-04   2.257888812480310E-04
   2.286289557492235E-04   2.315047539899009E-04   2.344167253193894E-04
   2.373653247391334E-04   2.403510129737916E-04   2.433742565432248E-04
   2.464355278353917E-04   2.495353051801600E-04   2.526740729240458E-04
   2.558523215058957E-04   2.590705475335164E-04   2.623292538612724E-04
   2.656289496686573E-04   2.689701505398539E-04   2.723533785442966E-04
   2.757791623182442E-04   2.792480371473810E-04   2.827605450504567E-04
   2.863172348639770E-04   2.899186623279620E-04   2.935653901727799E-04
   2.972579882070756E-04   3.009970334068048E-04   3.047831100053868E-04
   3.086168095849935E-04   3.124987311689836E-04   3.164294813155024E-04
   3.204096742122576E-04   3.244399317724867E-04   3.285208837321337E-04
   3.326531677482448E-04   3.368374294986047E-04   3.410743227826248E-04
   3.453645096235005E-04   3.497086603716547E-04   3.541074538094798E-04
   3.585615772573998E-04   3.630717266812655E-04   3.676386068011000E-04
   3.722629312012140E-04   3.769454224417030E-04   3.816868121713500E-04
   3.864878412419466E-04   3.913492598240526E-04   3.962718275242126E-04
   4.012563135036447E-04   4.063034965984239E-04   4.114141654411776E-04
   4.165891185843097E-04   4.218291646247781E-04   4.271351223304372E-04
   4.325078207679736E-04   4.379480994324490E-04   4.434568083784726E-04
   4.490348083530257E-04   4.546829709299524E-04   4.604021786461466E-04
   4.661933251394497E-04   4.720573152882831E-04   4.779950653530388E-04
   4.840075031192445E-04   4.900955680425334E-04   4.962602113954362E-04
   5.025023964160183E-04   5.088230984583899E-04   5.152233051451044E-04
   5.217040165214777E-04   5.282662452118474E-04   5.349110165777972E-04
   5.416393688783725E-04   5.484523534323091E-04   5.553510347823043E-04
   5.623364908613547E-04   5.694098131611843E-04   5.765721069027940E-04
   5.838244912091524E-04   5.911680992800623E-04   5.986040785692256E-04
   6.061335909635343E-04   6.137578129646199E-04   6.214779358726813E-04
   6.292951659726294E-04   6.372107247225716E-04   6.452258489446667E-04
   6.533417910183819E-04   6.615598190761779E-04   6.698812172016587E-04
   6.783072856302111E-04   6.868393409521693E-04   6.954787163185376E-04
   7.042267616492931E-04   7.130848438443167E-04   7.220543469969734E-04
   7.311366726103787E-04   7.403332398163892E-04   7.496454855973406E-04
   7.590748650105821E-04   7.686228514158314E-04   7.782909367053892E-04
   7.880806315372531E-04   7.979934655711570E-04   8.080309877075868E-04
   8.181947663297979E-04   8.284863895488773E-04   8.389074654518931E-04
   8.494596223531563E-04   8.601445090486512E-04   8.709637950736625E-04
   8.819191709636430E-04   8.930123485183659E-04   9.042450610693924E-04
   9.156190637509118E-04   9.271361337739838E-04   9.387980707042304E-04
   9.506066967430247E-04   9.625638570122095E-04   9.746714198424039E-04
   9.869312770649332E-04   9.993453443074300E-04   1.011915561293161E-03
   1.024643892144100E-03   1.037532325687842E-03   1.050582875768348E-03
   1.063797581560620E-03   1.077178507889325E-03   1.090727745551423E-03
   1.104447411642867E-03   1.118339649889396E-03   1.132406630981499E-03
   1.146650552913594E-03   1.161073641327459E-03   1.175678149860004E-03
   1.190466360495401E-03   1.205440583921647E-03   1.220603159891621E-03
   1.235956457588662E-03   1.251502875996775E-03   1.267244844275465E-03
   1.283184822139302E-03   1.299325300242261E-03   1.315668800566877E-03
   1.332217876818332E-03   1.348975114823459E-03   1.365943132934786E-03
   1.383124582439670E-03   1.400522147974547E-03   1.418138547944430E-03
   1.435976534947655E-03   1.454038896205981E-03   1.472328454000107E-03
   1.490848066110643E-03   1.509600626264665E-03   1.528589064587847E-03
   1.547816348062307E-03   1.567285480990212E-03   1.586999505463186E-03
   1.606961501837666E-03   1.627174589216197E-03   1.647641925934803E-03
   1.668366710056493E-03   1.689352179870945E-03   1.710601614400517E-03
   1.732118333912585E-03   1.753905700438348E-03   1.775967118298156E-03
   1.798306034633428E-03   1.820925939945295E-03   1.843830368639982E-03
   1.867022899581068E-03   1.890507156648706E-03   1.914286809305832E-03
   1.938365573171562E-03   1.962747210601735E-03   1.987435531276803E-03
   2.012434392797105E-03   2.037747701285608E-03   2.063379411998268E-03
   2.089333529942032E-03   2.115614110500628E-03   2.142225260068245E-03
   2.169171136691135E-03   2.196455950717347E-03   2.224083965454584E-03
   2.252059497836355E-03   2.280386919096517E-03   2.309070655452267E-03
   2.338115188795775E-03   2.367525057394465E-03   2.397304856600137E-03
   2.427459239567012E-03   2.457992917978769E-03   2.488910662784788E-03
   2.520217304945595E-03   2.551917736187719E-03   2.584016909768044E-03
   2.616519841247740E-03   2.649431609275983E-03   2.682757356383487E-03
   2.716502289786036E-03   2.750671682198133E-03   2.785270872656856E-03
   2.820305267356112E-03   2.855780340491347E-03   2.891701635114913E-03
   2.928074764002179E-03   2.964905410528534E-03   3.002199329557433E-03
   3.039962348339596E-03   3.078200367423538E-03   3.116919361577539E-03
   3.156125380723206E-03   3.195824550880800E-03   3.236023075126424E-03
   3.276727234561275E-03   3.317943389293082E-03   3.359677979429872E-03
   3.401937526086268E-03   3.444728632402411E-03   3.488057984575719E-03
   3.531932352905628E-03   3.576358592851449E-03   3.621343646103563E-03
   3.666894541668062E-03   3.713018396965050E-03   3.759722418940759E-03
   3.807013905193641E-03   3.854900245114640E-03   3.903388921041796E-03
   3.952487509429368E-03   4.002203682031688E-03   4.052545207101872E-03
   4.103519950605633E-03   4.155135877450354E-03   4.207401052729613E-03
   4.260323642983387E-03   4.313911917474072E-03   4.368174249478585E-03
   4.423119117596699E-03   4.478755107075841E-03   4.535090911152564E-03
   4.592135332410867E-03   4.649897284157632E-03   4.708385791815338E-03
   4.767609994332297E-03   4.827579145610651E-03   4.888302615952290E-03
   4.949789893523003E-03   5.012050585835005E-03   5.075094421248138E-03
   5.138931250489952E-03   5.203571048194891E-03   5.269023914462859E-03
   5.335300076437374E-03   5.402409889903583E-03   5.470363840906380E-03
   5.539172547388858E-03   5.608846760851402E-03   5.679397368031617E-03
   5.750835392605407E-03   5.823171996909461E-03   5.896418483685364E-03
   5.970586297845702E-03   6.045687028262331E-03   6.121732409577169E-03
   6.198734324035768E-03   6.276704803343917E-03   6.355656030547645E-03
   6.435600341936831E-03   6.516550228972772E-03   6.598518340240017E-03
   6.681517483422711E-03   6.765560627305846E-03   6.850660903801639E-03
   6.936831610001424E-03   7.024086210253369E-03   7.112438338266277E-03
   7.201901799239911E-03   7.292490572022059E-03   7.384218811292772E-03
   7.477100849776054E-03   7.571151200479399E-03   7.666384558961447E-03
   7.762815805628213E-03   7.860460008058179E-03   7.959332423356627E-03
   8.059448500539620E-03   8.160823882947898E-03   8.263474410691212E-03
   8.367416123123365E-03   8.472665261348388E-03   8.579238270758278E-03
   8.687151803602567E-03   8.796422721590319E-03   8.907068098524779E-03
   9.019105222971197E-03   9.132551600958223E-03   9.247424958713222E-03
   9.363743245432050E-03   9.481524636083663E-03   9.600787534249965E-03
   9.721550575001457E-03   9.843832627808941E-03   9.967652799491952E-03
   1.009303043720423E-02   1.021998513145674E-02   1.034853671917878E-02
   1.047870528681745E-02   1.061051117347627E-02   1.074397497409320E-02
   1.087911754265862E-02   1.101595999547382E-02   1.115452371445045E-02
   1.129483035045153E-02   1.143690182667437E-02   1.158076034207618E-02
   1.172642837484269E-02   1.187392868590036E-02   1.202328432247291E-02
   1.217451862168241E-02   1.232765521419578E-02   1.248271802791720E-02
   1.263973129172676E-02   1.279871953926639E-02   1.295970761277322E-02
   1.312272066696127E-02   1.328778417295193E-02   1.345492392225381E-02
   1.362416603079281E-02   1.379553694299269E-02   1.396906343590715E-02
   1.414477262340376E-02   1.432269196040054E-02   1.450284924715587E-02
   1.468527263361235E-02   1.486999062379523E-02   1.505703208026633E-02
   1.524642622863374E-02   1.543820266211847E-02   1.563239134617843E-02
   1.582902262319057E-02   1.602812721719196E-02   1.622973623868054E-02
   1.643388118947606E-02   1.664059396764243E-02   1.684990687247180E-02
   1.706185260953137E-02   1.727646429577381E-02   1.749377546471171E-02
   1.771382007165732E-02   1.793663249902819E-02   1.816224756171937E-02
   1.839070051254346E-02   1.862202704773881E-02   1.885626331254718E-02
   1.909344590686150E-02   1.933361189094467E-02   1.957679879122035E-02
   1.982304460613647E-02   2.007238781210259E-02   2.032486736950195E-02
   2.058052272877904E-02   2.083939383660392E-02   2.110152114211384E-02
   2.136694560323359E-02   2.163570869307524E-02   2.190785240641835E-02
   2.218341926627186E-02   2.246245233051824E-02   2.274499519864148E-02
   2.303109201853955E-02   2.332078749342263E-02   2.361412688879808E-02
   2.391115603954322E-02   2.421192135706717E-02   2.451646983656269E-02
   2.482484906434930E-02   2.513710722530878E-02   2.545329311041407E-02
   2.577345612435298E-02   2.609764629324782E-02   2.642591427247204E-02
   2.675831135456529E-02   2.709488947724790E-02   2.743570123153631E-02
   2.778079986996052E-02   2.813023931488486E-02   2.848407416693359E-02
   2.884235971352221E-02   2.920515193749630E-02   2.957250752587897E-02
   2.994448387872826E-02   3.032113911810615E-02   3.070253209716009E-02
   3.108872240931900E-02   3.147977039760486E-02   3.187573716406140E-02
   3.227668457930155E-02   3.268267529217464E-02   3.309377273955556E-02
   3.351004115625683E-02   3.393154558506545E-02   3.435835188690602E-02
   3.479052675113154E-02   3.522813770594380E-02   3.567125312894481E-02
   3.611994225782092E-02   3.657427520116144E-02   3.703432294941308E-02
   3.750015738597248E-02   3.797185129841810E-02   3.844947838988341E-02
   3.893311329057323E-02   3.942283156942474E-02   3.991870974591535E-02
   4.042082530201901E-02   4.092925669431287E-02   4.144408336623648E-02
   4.196538576050470E-02   4.249324533167725E-02   4.302774455888604E-02
   4.356896695872275E-02   4.411699709828856E-02   4.467192060840770E-02
   4.523382419700762E-02   4.580279566266727E-02   4.637892390833567E-02
   4.696229895522345E-02   4.755301195686852E-02   4.815115521337921E-02
   4.875682218585627E-02   4.937010751099636E-02   4.999110701587935E-02
   5.061991773294126E-02   5.125663791513597E-02   5.190136705128735E-02
   5.255420588163462E-02   5.321525641357329E-02   5.388462193759386E-02
   5.456240704342130E-02   5.524871763635736E-02   5.594366095382843E-02
   5.664734558214185E-02   5.735988147345240E-02   5.808137996294276E-02
   5.881195378621982E-02   5.955171709692977E-02   6.030078548459507E-02
   6.105927599267526E-02   6.182730713685536E-02   6.260499892356422E-02
   6.339247286872569E-02   6.418985201674594E-02   6.499726095973909E-02
   6.581482585699515E-02   6.664267445469267E-02   6.748093610585924E-02
   6.832974179058345E-02   6.918922413648038E-02   7.005951743941519E-02
   7.094075768448711E-02   7.183308256727727E-02   7.273663151536418E-02
   7.365154571010918E-02   7.457796810871663E-02   7.551604346657109E-02
   7.646591835985575E-02   7.742774120845532E-02   7.840166229914665E-02
   7.938783380908167E-02   8.038640982956516E-02   8.139754639013186E-02
   8.242140148292668E-02   8.345813508739086E-02   8.450790919525934E-02
   8.557088783587224E-02   8.664723710180477E-02   8.773712517481970E-02
   8.884072235214575E-02   8.995820107308719E-02   9.108973594596767E-02
   9.223550377541315E-02   9.339568358997820E-02   9.457045667011917E-02
   9.576000657651995E-02   9.696451917877354E-02   9.818418268442460E-02
   9.941918766837744E-02   1.006697271026734E-01   1.019359963866433E-01
   1.032181933774389E-01   1.045165184209488E-01   1.058311743831026E-01
   1.071623666815689E-01   1.085103033178527E-01   1.098751949097959E-01
   1.112572547244864E-01   1.126566987115824E-01   1.140737455370539E-01
   1.155086166173504E-01   1.169615361539975E-01   1.184327311686286E-01
   1.199224315384582E-01   1.214308700321998E-01   1.229582823464369E-01
   1.245049071424512E-01   1.260709860835136E-01   1.276567638726451E-01
   1.292624882908514E-01   1.308884102358397E-01   1.325347837612219E-01
   1.342018661162108E-01   1.358899177858163E-01   1.375992025315460E-01
   1.393299874326190E-01   1.410825429276974E-01   1.428571428571428E-01
   1.446540645058050E-01   1.464735886463470E-01   1.483159995831179E-01
   1.501815851965750E-01   1.520706369882656E-01   1.539834501263760E-01
   1.559203234918503E-01   1.578815597250926E-01   1.598674652732545E-01
   1.618783504381180E-01   1.639145294245818E-01   1.659763203897548E-01
   1.680640454926701E-01   1.701780309446227E-01   1.723186070601401E-01
   1.744861083085957E-01   1.766808733664693E-01   1.789032451702664E-01
   1.811535709701029E-01   1.834322023839630E-01   1.857394954526416E-01
   1.880758106953745E-01   1.904415131661719E-01   1.928369725108577E-01
   1.952625630248280E-01   1.977186637115359E-01   2.002056583417105E-01
   2.027239355133226E-01   2.052738887123036E-01   2.078559163740287E-01
   2.104704219455737E-01   2.131178139487530E-01   2.157985060439533E-01
   2.185129170947685E-01   2.212614712334476E-01   2.240445979271670E-01
   2.268627320451349E-01   2.297163139265405E-01   2.326057894493587E-01
   2.355316101000183E-01   2.384942330439490E-01   2.414941211970131E-01
   2.445317432978379E-01   2.476075739810566E-01   2.507220938514712E-01
   2.538757895591484E-01   2.570691538754584E-01   2.603026857700728E-01
   2.635768904889287E-01   2.668922796331746E-01   2.702493712391100E-01
   2.736486898591281E-01   2.770907666436793E-01   2.805761394242641E-01
   2.841053527974702E-01   2.876789582100681E-01   2.912975140451737E-01
   2.949615857094982E-01   2.986717457216939E-01   3.024285738018107E-01
   3.062326569618799E-01   3.100845895976347E-01   3.139849735813862E-01
   3.179344183560670E-01   3.219335410304583E-01   3.259829664756149E-01
   3.300833274225006E-01   3.342352645608560E-01   3.384394266393059E-01
   3.426964705667283E-01   3.470070615148984E-01   3.513718730224215E-01
   3.557915870999760E-01   3.602668943368785E-01   3.647984940089895E-01
   3.693870941879781E-01   3.740334118519574E-01   3.787381729975154E-01
   3.835021127531532E-01   3.883259754941493E-01   3.932105149588724E-01
   3.981564943665502E-01   4.031646865365285E-01   4.082358740090236E-01
   4.133708491673944E-01   4.185704143619578E-01   4.238353820353526E-01
   4.291665748494903E-01   4.345648258140951E-01   4.400309784168616E-01
   4.455658867552564E-01   4.511704156699670E-01   4.568454408800392E-01
   4.625918491197090E-01   4.684105382769533E-01   4.743024175337930E-01
   4.802684075083472E-01   4.863094403986882E-01   4.924264601284967E-01
   4.986204224945487E-01   5.048922953160676E-01   5.112430585859400E-01
   5.176737046238487E-01   5.241852382313209E-01   5.307786768487291E-01
   5.374550507142735E-01   5.442154030249517E-01   5.510607900995675E-01
   5.579922815437792E-01   5.650109604172253E-01   5.721179234027612E-01
   5.793142809778109E-01   5.866011575878872E-01   5.939796918222872E-01
   6.014510365919943E-01   6.090163593098317E-01   6.166768420728634E-01
   6.244336818471080E-01   6.322880906545625E-01   6.402412957625806E-01
   6.482945398756439E-01   6.564490813295271E-01   6.647061942879241E-01
   6.730671689415350E-01   6.815333117096575E-01   6.901059454443262E-01
   6.987864096370009E-01   7.075760606278733E-01   7.164762718177946E-01
   7.254884338828688E-01   7.346139549917559E-01   7.438542610256929E-01
   7.532107958012985E-01   7.626850212961684E-01   7.722784178773094E-01
   7.819924845324578E-01   7.918287391042891E-01   8.017887185275935E-01
   8.118739790694210E-01   8.220860965722472E-01   8.324266667002114E-01
   8.428973051884311E-01   8.534996480954745E-01   8.642353520589928E-01
   8.751060945545694E-01   8.861135741578388E-01   8.972595108098809E-01
   9.085456460859755E-01   9.199737434677233E-01   9.315455886185875E-01
   9.432629896629191E-01   9.551277774684674E-01   9.671418059324676E-01
   9.793069522713118E-01   9.916251173138622E-01   1.004098225798471E+00
   1.016728226673714E+00   1.029517093402924E+00   1.042466824272548E+00
   1.055579442704379E+00   1.068856997571727E+00   1.082301563519550E+00
   1.095915241288632E+00   1.109700158043825E+00   1.123658467706413E+00
   1.137792351290683E+00   1.152104017244696E+00   1.166595701795378E+00
   1.181269669297925E+00   1.196128212589609E+00   1.211173653348054E+00
   1.226408342453985E+00   1.241834660358571E+00   1.257455017455373E+00
   1.273271854456962E+00   1.289287642776304E+00   1.305504884912904E+00
   1.321926114843841E+00   1.338553898419705E+00   1.355390833765504E+00
   1.372439551686645E+00   1.389702716079984E+00   1.407183024350083E+00
   1.424883207830675E+00   1.442806032211436E+00   1.460954297970144E+00
   1.479330840810242E+00   1.497938532103938E+00   1.516780279340859E+00
   1.535859026582336E+00   1.555177754921450E+00   1.574739482948801E+00
   1.594547267224195E+00   1.614604202754227E+00   1.634913423475874E+00
   1.655478102746200E+00   1.676301453838173E+00   1.697386730442771E+00
   1.718737227177363E+00   1.740356280100496E+00   1.762247267233181E+00
   1.784413609086688E+00   1.806858769197032E+00   1.829586254666149E+00
   1.852599616709876E+00   1.875902451212861E+00   1.899498399290398E+00
   1.923391147857387E+00   1.947584430204395E+00   1.972082026581014E+00
   1.996887764786521E+00   2.022005520767972E+00   2.047439219225850E+00
   2.073192834227275E+00   2.099270389826991E+00   2.125675960696121E+00
   2.152413672758827E+00   2.179487703837026E+00   2.206902284303146E+00
   2.234661697741167E+00   2.262770281615919E+00   2.291232427950811E+00
   2.320052584014122E+00   2.349235253013866E+00   2.378784994801449E+00
   2.408706426584150E+00   2.439004223646551E+00   2.469683120081095E+00
   2.500747909527755E+00   2.532203445923092E+00   2.564054644258665E+00
   2.596306481349009E+00   2.628963996609296E+00   2.662032292842717E+00
   2.695516537037840E+00   2.729421961175952E+00   2.763753863048545E+00
   2.798517607085146E+00   2.833718625191476E+00   2.869362417598238E+00
   2.905454553720518E+00   2.942000673028005E+00   2.979006485926205E+00
   3.016477774648661E+00   3.054420394160478E+00   3.092840273073153E+00
   3.131743414570924E+00   3.171135897348809E+00   3.211023876562375E+00
   3.251413584789533E+00   3.292311333004371E+00   3.333723511563246E+00
   3.375656591203321E+00   3.418117124053593E+00   3.461111744658711E+00
   3.504647171015625E+00   3.548730205623264E+00   3.593367736545485E+00
   3.638566738487299E+00   3.684334273884723E+00   3.730677494008285E+00
   3.777603640080400E+00   3.825120044406879E+00   3.873234131522558E+00
   3.921953419351443E+00   3.971285520381384E+00   4.021238142853522E+00
   4.071819091966759E+00   4.123036271097290E+00   4.174897683033563E+00
   4.227411431226711E+00   4.280585721056718E+00   4.334428861114565E+00
   4.388949264500419E+00   4.444155450138237E+00   4.500056044106852E+00
   4.556659780987785E+00   4.613975505230103E+00   4.672012172532310E+00
   4.730778851241759E+00   4.790284723771566E+00   4.850539088035364E+00
   4.911551358900176E+00   4.973331069657435E+00   5.035887873512649E+00
   5.099231545093701E+00   5.163371981978133E+00   5.228319206239719E+00
   5.294083366014370E+00   5.360674737085858E+00   5.428103724491400E+00
   5.496380864147448E+00   5.565516824496003E+00   5.635522408171507E+00
   5.706408553688847E+00   5.778186337152491E+00   5.850866973987114E+00
   5.924461820690116E+00   5.998982376606001E+00   6.074440285723254E+00
   6.150847338493708E+00   6.228215473674787E+00   6.306556780195041E+00
   6.385883499042979E+00   6.466208025179823E+00   6.547542909476215E+00
   6.629900860673282E+00   6.713294747368478E+00   6.797737600026243E+00
   6.883242613014116E+00   6.969823146664351E+00   7.057492729361455E+00
   7.146265059656116E+00   7.236154008405523E+00   7.327173620940814E+00
   7.419338119261641E+00   7.512661904258350E+00   7.607159557962242E+00
   7.702845845823938E+00   7.799735719020605E+00   7.897844316792069E+00
   7.997186968806307E+00   8.097779197554837E+00   8.199636720778033E+00
   8.302775453921141E+00   8.407211512621066E+00   8.512961215224427E+00
   8.620041085337435E+00   8.728467854407624E+00   8.838258464338269E+00
   8.949430070135559E+00   9.062000042589048E+00   9.175985970985993E+00
   9.291405665859573E+00   9.408277161771956E+00   9.526618720132172E+00
   9.646448832049449E+00   9.767786221222602E+00   9.890649846865520E+00
   1.001505890666969E+01   1.014103283980385E+01   1.026859132995130E+01
   1.039775430838568E+01   1.052854195708512E+01   1.066097471188584E+01
   1.079507326567524E+01   1.093085857162513E+01   1.106835184646585E+01
   1.120757457380131E+01   1.134854850746590E+01   1.149129567492361E+01
   1.163583838070973E+01   1.178219920991616E+01   1.193040103172018E+01
   1.208046700295800E+01   1.223242057174295E+01   1.238628548112927E+01
   1.254208577282213E+01   1.269984579093405E+01   1.285959018578883E+01
   1.302134391777320E+01   1.318513226123684E+01   1.335098080844168E+01
   1.351891547356059E+01   1.368896249672670E+01   1.386114844813335E+01
   1.403550023218572E+01   1.421204509170485E+01   1.439081061218416E+01
   1.457182472609995E+01   1.475511571727584E+01   1.494071222530203E+01
   1.512864325001057E+01   1.531893815600636E+01   1.551162667725566E+01
   1.570673892173194E+01   1.590430537612034E+01   1.610435691058133E+01
   1.630692478357415E+01   1.651204064674110E+01   1.671973654985313E+01
   1.693004494581762E+01   1.714299869574937E+01   1.735863107410499E+01
   1.757697577388236E+01   1.779806691188506E+01   1.802193903405317E+01
   1.824862712086129E+01   1.847816659278414E+01   1.871059331583123E+01
   1.894594360715095E+01   1.918425424070507E+01   1.942556245301502E+01
   1.966990594897982E+01   1.991732290776788E+01   2.016785198878243E+01
   2.042153233770200E+01   2.067840359259731E+01   2.093850589012445E+01
   2.120187987179666E+01   2.146856669033443E+01   2.173860801609566E+01
   2.201204604358699E+01   2.228892349805644E+01   2.256928364216964E+01
   2.285317028276953E+01   2.314062777772119E+01   2.343170104284314E+01
   2.372643555892516E+01   2.402487737883506E+01   2.432707313471445E+01
   2.463307004526490E+01   2.494291592312635E+01   2.525665918234749E+01
   2.557434884595095E+01   2.589603455359305E+01   2.622176656932000E+01
   2.655159578942204E+01   2.688557375038578E+01   2.722375263694714E+01
   2.756618529024523E+01   2.791292521607870E+01   2.826402659326653E+01
   2.861954428211312E+01   2.897953383298070E+01   2.934405149496905E+01
   2.971315422470438E+01   3.008689969523925E+01   3.046534630506372E+01
   3.084855318723059E+01   3.123658021859488E+01   3.162948802916959E+01
   3.202733801159961E+01   3.243019233075401E+01   3.283811393343984E+01
   3.325116655823746E+01   3.366941474545980E+01   3.409292384723712E+01
   3.452176003772811E+01   3.495599032346005E+01   3.539568255379861E+01
   3.584090543154922E+01   3.629172852369246E+01   3.674822227225356E+01
   3.721045800530954E+01   3.767850794813418E+01   3.815244523448316E+01
   3.863234391802185E+01   3.911827898389579E+01   3.961032636044771E+01
   4.010856293108136E+01   4.061306654627442E+01   4.112391603574333E+01
   4.164119122076002E+01   4.216497292662461E+01   4.269534299529437E+01
   4.323238429817140E+01   4.377618074905208E+01   4.432681731723806E+01
   4.488438004081345E+01   4.544895604008829E+01   4.602063353121093E+01
   4.659950183995262E+01   4.718565141566413E+01   4.777917384540929E+01
   4.838016186827537E+01   4.898870938986348E+01   4.960491149696215E+01
   5.022886447240411E+01   5.086066581011130E+01   5.150041423032824E+01
   5.214820969504698E+01   5.280415342362703E+01   5.346834790861030E+01
   5.414089693173651E+01   5.482190558015888E+01   5.551148026286411E+01
   5.620972872729949E+01   5.691676007620799E+01   5.763268478467644E+01
   5.835761471739722E+01   5.909166314614697E+01   5.983494476748633E+01
   6.058757572068065E+01   6.134967360584770E+01   6.212135750233266E+01
   6.290274798731413E+01   6.369396715464536E+01   6.449513863393078E+01
   6.530638760984414E+01   6.612784084168851E+01   6.695962668320243E+01
   6.780187510261612E+01   6.865471770295848E+01   6.951828774262103E+01
   7.039272015617954E+01   7.127815157547742E+01   7.217472035097563E+01
   7.308256657336916E+01   7.400183209547743E+01   7.493266055440863E+01
   7.587519739400301E+01   7.682958988755962E+01   7.779598716084706E+01
   7.877454021540554E+01   7.976540195214085E+01   8.076872719521502E+01
   8.178467271623883E+01   8.281339725876663E+01   8.385506156310126E+01
   8.490982839140975E+01   8.597786255315459E+01   8.705933093084687E+01
   8.815440250612052E+01   8.926324838613726E+01   9.038604183032201E+01
   9.152295827743440E+01   9.267417537298270E+01   9.383987299697996E+01
   9.502023329205169E+01   9.621544069189562E+01   9.742568195009935E+01
   9.865114616932205E+01   9.989202483084082E+01
    </PP_R>
    <PP_RAB>
   1.628360652775922E-06   1.648842908337540E-06   1.669582798958182E-06
   1.690583565287953E-06   1.711848488739321E-06   1.733380891999837E-06
   1.755184139551319E-06   1.777261638195556E-06   1.799616837586626E-06
   1.822253230769919E-06   1.845174354727923E-06   1.868383790932890E-06
   1.891885165906447E-06   1.915682151786244E-06   1.939778466899746E-06
   1.964177876345211E-06   1.988884192580006E-06   2.013901276016308E-06
   2.039233035624299E-06   2.064883429542960E-06   2.090856465698526E-06
   2.117156202430737E-06   2.143786749126966E-06   2.170752266864312E-06
   2.198056969059788E-06   2.225705122128660E-06   2.253701046151097E-06
   2.282049115547186E-06   2.310753759760443E-06   2.339819463949929E-06
   2.369250769691056E-06   2.399052275685227E-06   2.429228638478382E-06
   2.459784573188602E-06   2.490724854242855E-06   2.522054316123003E-06
   2.553777854121204E-06   2.585900425104813E-06   2.618427048290898E-06
   2.651362806030512E-06   2.684712844602808E-06   2.718482375019164E-06
   2.752676673837411E-06   2.787301083986307E-06   2.822361015600388E-06
   2.857861946865293E-06   2.893809424873762E-06   2.930209066492368E-06
   2.967066559239168E-06   3.004387662172395E-06   3.042178206790311E-06
   3.080444097942397E-06   3.119191314751999E-06   3.158425911550573E-06
   3.198154018823696E-06   3.238381844168956E-06   3.279115673265906E-06
   3.320361870858216E-06   3.362126881748174E-06   3.404417231803708E-06
   3.447239528978052E-06   3.490600464342262E-06   3.534506813130708E-06
   3.578965435799712E-06   3.623983279099525E-06   3.669567377159748E-06
   3.715724852588445E-06   3.762462917585061E-06   3.809788875067336E-06
   3.857710119812419E-06   3.906234139612295E-06   3.955368516443780E-06
   4.005120927653220E-06   4.055499147156084E-06   4.106511046651672E-06
   4.158164596853060E-06   4.210467868732559E-06   4.263429034782810E-06
   4.317056370293757E-06   4.371358254645684E-06   4.426343172618497E-06
   4.482019715717497E-06   4.538396583515819E-06   4.595482585013750E-06
   4.653286640015175E-06   4.711817780521289E-06   4.771085152141876E-06
   4.831098015524333E-06   4.891865747800658E-06   4.953397844052658E-06
   5.015703918795559E-06   5.078793707480299E-06   5.142677068014720E-06
   5.207363982303871E-06   5.272864557809726E-06   5.339189029130465E-06
   5.406347759599670E-06   5.474351242905612E-06   5.543210104730908E-06
   5.612935104412822E-06   5.683537136624405E-06   5.755027233076833E-06
   5.827416564243122E-06   5.900716441103540E-06   5.974938316912986E-06
   6.050093788990557E-06   6.126194600531668E-06   6.203252642442953E-06
   6.281279955200230E-06   6.360288730729874E-06   6.440291314313805E-06
   6.521300206518471E-06   6.603328065148092E-06   6.686387707222465E-06
   6.770492110979656E-06   6.855654417903864E-06   6.941887934778804E-06
   7.029206135766934E-06   7.117622664514804E-06   7.207151336284926E-06
   7.297806140114405E-06   7.389601241000779E-06   7.482550982115321E-06
   7.576669887044179E-06   7.671972662057749E-06   7.768474198408516E-06
   7.866189574657867E-06   7.965134059032146E-06   8.065323111808334E-06
   8.166772387729773E-06   8.269497738452224E-06   8.373515215020733E-06
   8.478841070377638E-06   8.585491761902117E-06   8.693483953981720E-06
   8.802834520616164E-06   8.913560548053959E-06   9.025679337462168E-06
   9.139208407629734E-06   9.254165497704865E-06   9.370568569966758E-06
   9.488435812632277E-06   9.607785642697894E-06   9.728636708817366E-06
   9.851007894215664E-06   9.974918319639464E-06   1.010038734634484E-05
   1.022743457912247E-05   1.035607986936097E-05   1.048634331814866E-05
   1.061824527941445E-05   1.075180636310814E-05   1.088704743842078E-05
   1.102398963704554E-05   1.116265435647957E-05   1.130306326336741E-05
   1.144523829688640E-05   1.158920167217480E-05   1.173497588380288E-05
   1.188258370928781E-05   1.203204821265262E-05   1.218339274803005E-05
   1.233664096331167E-05   1.249181680384288E-05   1.264894451616451E-05
   1.280804865180125E-05   1.296915407109802E-05   1.313228594710435E-05
   1.329746976950775E-05   1.346473134861656E-05   1.363409681939279E-05
   1.380559264553584E-05   1.397924562361745E-05   1.415508288726874E-05
   1.433313191141993E-05   1.451342051659323E-05   1.469597687325005E-05
   1.488082950619251E-05   1.506800729902059E-05   1.525753949864526E-05
   1.544945571985827E-05   1.564378594995969E-05   1.584056055344332E-05
   1.603981027674128E-05   1.624156625302826E-05   1.644586000708596E-05
   1.665272346022916E-05   1.686218893529323E-05   1.707428916168483E-05
   1.728905728049588E-05   1.750652684968183E-05   1.772673184930538E-05
   1.794970668684569E-05   1.817548620257476E-05   1.840410567500134E-05
   1.863560082638304E-05   1.887000782830831E-05   1.910736330734809E-05
   1.934770435077884E-05   1.959106851237766E-05   1.983749381828983E-05
   2.008701877297083E-05   2.033968236520246E-05   2.059552407418504E-05
   2.085458387570617E-05   2.111690224838682E-05   2.138252018000647E-05
   2.165147917390732E-05   2.192382125547935E-05   2.219958897872695E-05
   2.247882543291786E-05   2.276157424931619E-05   2.304787960799977E-05
   2.333778624476336E-05   2.363133945810882E-05   2.392858511632291E-05
   2.422956966464453E-05   2.453434013252169E-05   2.484294414096003E-05
   2.515542990996381E-05   2.547184626607010E-05   2.579224264997835E-05
   2.611666912427540E-05   2.644517638125785E-05   2.677781575085307E-05
   2.711463920863919E-05   2.745569938396684E-05   2.780104956818231E-05
   2.815074372295444E-05   2.850483648870647E-05   2.886338319315334E-05
   2.922643985994719E-05   2.959406321743081E-05   2.996631070750171E-05
   3.034324049458765E-05   3.072491147473462E-05   3.111138328480984E-05
   3.150271631181994E-05   3.189897170234649E-05   3.230021137210056E-05
   3.270649801559675E-05   3.311789511594979E-05   3.353446695479359E-05
   3.395627862232545E-05   3.438339602747666E-05   3.481588590821071E-05
   3.525381584195140E-05   3.569725425614184E-05   3.614627043893641E-05
   3.660093455002724E-05   3.706131763160668E-05   3.752749161946791E-05
   3.799952935424495E-05   3.847750459279423E-05   3.896149201971924E-05
   3.945156725904008E-05   3.994780688601000E-05   4.045028843908031E-05
   4.095909043201595E-05   4.147429236616353E-05   4.199597474287341E-05
   4.252421907607835E-05   4.305910790503014E-05   4.360072480719650E-05
   4.414915441132035E-05   4.470448241064312E-05   4.526679557629454E-05
   4.583618177085078E-05   4.641272996206312E-05   4.699653023675949E-05
   4.758767381492051E-05   4.818625306393301E-05   4.879236151302245E-05
   4.940609386786710E-05   5.002754602539611E-05   5.065681508877340E-05
   5.129399938257042E-05   5.193919846812942E-05   5.259251315912016E-05
   5.325404553729234E-05   5.392389896842590E-05   5.460217811848232E-05
   5.528898896995873E-05   5.598443883844802E-05   5.668863638940706E-05
   5.740169165513584E-05   5.812371605197041E-05   5.885482239769172E-05
   5.959512492915371E-05   6.034473932013313E-05   6.110378269940362E-05
   6.187237366903755E-05   6.265063232293757E-05   6.343868026560173E-05
   6.423664063112440E-05   6.504463810243613E-05   6.586279893078575E-05
   6.669125095546718E-05   6.753012362379478E-05   6.837954801132975E-05
   6.923965684236073E-05   7.011058451064253E-05   7.099246710039522E-05
   7.188544240756759E-05   7.278964996136827E-05   7.370523104606706E-05
   7.463232872307128E-05   7.557108785327915E-05   7.652165511971463E-05
   7.748417905044711E-05   7.845881004179896E-05   7.944570038184557E-05
   8.044500427421039E-05   8.145687786215965E-05   8.248147925300021E-05
   8.351896854278389E-05   8.456950784132308E-05   8.563326129752050E-05
   8.671039512501782E-05   8.780107762816711E-05   8.890547922832848E-05
   9.002377249049888E-05   9.115613215027574E-05   9.230273514115966E-05
   9.346376062220068E-05   9.463939000599249E-05   9.582980698701810E-05
   9.703519757035266E-05   9.825575010072725E-05   9.949165529195785E-05
   1.007431062567453E-04   1.020102985368487E-04   1.032934301336401E-04
   1.045927015390421E-04   1.059083157668549E-04   1.072404783844785E-04
   1.085893975450321E-04   1.099552840198790E-04   1.113383512315597E-04
   1.127388152871400E-04   1.141568950119778E-04   1.155928119839153E-04
   1.170467905679006E-04   1.185190579510458E-04   1.200098441781246E-04
   1.215193821875182E-04   1.230479078476118E-04   1.245956599936494E-04
   1.261628804650529E-04   1.277498141432093E-04   1.293567089897347E-04
   1.309838160852181E-04   1.326313896684534E-04   1.342996871761651E-04
   1.359889692832327E-04   1.376994999434227E-04   1.394315464306306E-04
   1.411853793806441E-04   1.429612728334296E-04   1.447595042759522E-04
   1.465803546855336E-04   1.484241085737546E-04   1.502910540309114E-04
   1.521814827710301E-04   1.540956901774473E-04   1.560339753489650E-04
   1.579966411465845E-04   1.599839942408298E-04   1.619963451596653E-04
   1.640340083370159E-04   1.660973021618991E-04   1.681865490281727E-04
   1.703020753849101E-04   1.724442117874087E-04   1.746132929488394E-04
   1.768096577925470E-04   1.790336495050067E-04   1.812856155894484E-04
   1.835659079201544E-04   1.858748827974404E-04   1.882129010033292E-04
   1.905803278579218E-04   1.929775332764809E-04   1.954048918272303E-04
   1.978627827898821E-04   2.003515902148995E-04   2.028717029835067E-04
   2.054235148684508E-04   2.080074245955304E-04   2.106238359058975E-04
   2.132731576191422E-04   2.159558036971727E-04   2.186721933088963E-04
   2.214227508957166E-04   2.242079062378524E-04   2.270280945214921E-04
   2.298837564067933E-04   2.327753380967352E-04   2.357032914068398E-04
   2.386680738357688E-04   2.416701486368084E-04   2.447099848902544E-04
   2.477880575767059E-04   2.509048476512824E-04   2.540608421187744E-04
   2.572565341097380E-04   2.604924229575489E-04   2.637690142764229E-04
   2.670868200404199E-04   2.704463586634405E-04   2.738481550802294E-04
   2.772927408283982E-04   2.807806541314779E-04   2.843124399830184E-04
   2.878886502317444E-04   2.915098436677828E-04   2.951765861099760E-04
   2.988894504942903E-04   3.026490169633396E-04   3.064558729570337E-04
   3.103106133043663E-04   3.142138403163598E-04   3.181661638801759E-04
   3.221682015544123E-04   3.262205786655978E-04   3.303239284059005E-04
   3.344788919320662E-04   3.386861184655988E-04   3.429462653942040E-04
   3.472599983745065E-04   3.516279914360608E-04   3.560509270866699E-04
   3.605294964190276E-04   3.650643992187037E-04   3.696563440734871E-04
   3.743060484841033E-04   3.790142389763270E-04   3.837816512145012E-04
   3.886090301164875E-04   3.934971299700607E-04   3.984467145507675E-04
   4.034585572412694E-04   4.085334411521830E-04   4.136721592444445E-04
   4.188755144532104E-04   4.241443198133181E-04   4.294793985863253E-04
   4.348815843891443E-04   4.403517213242975E-04   4.458906641118102E-04
   4.514992782227615E-04   4.571784400145180E-04   4.629290368676636E-04
   4.687519673246560E-04   4.746481412302263E-04   4.806184798735426E-04
   4.866639161321654E-04   4.927853946178093E-04   4.989838718239419E-04
   5.052603162752377E-04   5.116157086789109E-04   5.180510420779560E-04
   5.245673220063088E-04   5.311655666459656E-04   5.378468069860755E-04
   5.446120869840344E-04   5.514624637286070E-04   5.583990076050962E-04
   5.654228024625953E-04   5.725349457833408E-04   5.797365488541959E-04
   5.870287369402931E-04   5.944126494608565E-04   6.018894401672402E-04
   6.094602773232035E-04   6.171263438874545E-04   6.248888376984918E-04
   6.327489716617657E-04   6.407079739391996E-04   6.487670881410919E-04
   6.569275735204328E-04   6.651907051696661E-04   6.735577742199234E-04
   6.820300880427664E-04   6.906089704544670E-04   6.992957619228554E-04
   7.080918197767732E-04   7.169985184181550E-04   7.260172495367845E-04
   7.351494223277478E-04   7.443964637116221E-04   7.537598185574385E-04
   7.632409499084407E-04   7.728413392106920E-04   7.825624865445528E-04
   7.924059108590713E-04   8.023731502093244E-04   8.124657619967388E-04
   8.226853232124394E-04   8.330334306836584E-04   8.435117013232406E-04
   8.541217723822931E-04   8.648653017060047E-04   8.757439679926899E-04
   8.867594710560890E-04   8.979135320909660E-04   9.092078939420523E-04
   9.206443213763647E-04   9.322246013589579E-04   9.439505433321387E-04
   9.558239794981969E-04   9.678467651056915E-04   9.800207787393331E-04
   9.923479226135209E-04   1.004830122869565E-03   1.017469329876648E-03
   1.030267518536584E-03   1.043226688592386E-03   1.056348864940742E-03
   1.069636097948403E-03   1.083090463772560E-03   1.096714064685246E-03
   1.110509029401822E-03   1.124477513413590E-03   1.138621699324596E-03
   1.152943797192664E-03   1.167446044874728E-03   1.182130708376490E-03
   1.197000082206500E-03   1.212056489734669E-03   1.227302283555307E-03
   1.242739845854718E-03   1.258371588783417E-03   1.274199954833041E-03
   1.290227417217987E-03   1.306456480261860E-03   1.322889679788782E-03
   1.339529583519611E-03   1.356378791473159E-03   1.373439936372448E-03
   1.390715684056080E-03   1.408208733894780E-03   1.425921819213174E-03
   1.443857707716880E-03   1.462019201924969E-03   1.480409139607858E-03
   1.499030394230728E-03   1.517885875402497E-03   1.536978529330461E-03
   1.556311339280640E-03   1.575887326043921E-03   1.595709548408064E-03
   1.615781103635643E-03   1.636105127947996E-03   1.656684797015274E-03
   1.677523326452635E-03   1.698623972322704E-03   1.719990031644325E-03
   1.741624842907738E-03   1.763531786596218E-03   1.785714285714286E-03
   1.808175806322562E-03   1.830919858079338E-03   1.853949994788974E-03
   1.877269814957187E-03   1.900882962353320E-03   1.924793126579700E-03
   1.949004043648129E-03   1.973519496563657E-03   1.998343315915681E-03
   2.023479380476476E-03   2.048931617807272E-03   2.074704004871935E-03
   2.100800568658377E-03   2.127225386807784E-03   2.153982588251751E-03
   2.181076353857446E-03   2.208510917080866E-03   2.236290564628330E-03
   2.264419637126286E-03   2.292902529799538E-03   2.321743693158020E-03
   2.350947633692182E-03   2.380518914577149E-03   2.410462156385722E-03
   2.440782037810351E-03   2.471483296394199E-03   2.502570729271382E-03
   2.534049193916532E-03   2.565923608903795E-03   2.598198954675359E-03
   2.630880274319671E-03   2.663972674359412E-03   2.697481325549417E-03
   2.731411463684607E-03   2.765768390418095E-03   2.800557474089588E-03
   2.835784150564186E-03   2.871453924081757E-03   2.907572368116984E-03
   2.944145126250229E-03   2.981177913049363E-03   3.018676514962664E-03
   3.056646791222974E-03   3.095094674763208E-03   3.134026173143390E-03
   3.173447369489355E-03   3.213364423443230E-03   3.253783572125911E-03
   3.294711131111609E-03   3.336153495414682E-03   3.378117140488876E-03
   3.420608623239101E-03   3.463634583045991E-03   3.507201742803301E-03
   3.551316909968378E-03   3.595986977625852E-03   3.641218925564671E-03
   3.687019821368728E-03   3.733396821521174E-03   3.780357172522633E-03
   3.827908212023499E-03   3.876057369970434E-03   3.924812169767328E-03
   3.974180229450838E-03   4.024169262880730E-03   4.074787080945186E-03
   4.126041592781258E-03   4.177940807010700E-03   4.230492832991324E-03
   4.283705882084104E-03   4.337588268936230E-03   4.392148412780269E-03
   4.447394838749700E-03   4.503336179210982E-03   4.559981175112369E-03
   4.617338677349726E-03   4.675417648149468E-03   4.734227162468943E-03
   4.793776409414415E-03   4.854074693676866E-03   4.915131436985905E-03
   4.976956179581878E-03   5.039558581706606E-03   5.102948425112795E-03
   5.167135614592431E-03   5.232130179524473E-03   5.297942275441909E-03
   5.364582185618629E-03   5.432060322676189E-03   5.500387230210770E-03
   5.569573584440705E-03   5.639630195874587E-03   5.710568011000491E-03
   5.782398113996363E-03   5.855131728461917E-03   5.928780219172413E-03
   6.003355093854340E-03   6.078868004983603E-03   6.155330751606209E-03
   6.232755281181859E-03   6.311153691450845E-03   6.390538232324250E-03
   6.470921307798108E-03   6.552315477891511E-03   6.634733460609115E-03
   6.718188133928419E-03   6.802692537811897E-03   6.888259876244595E-03
   6.974903519297241E-03   7.062637005215317E-03   7.151474042534516E-03
   7.241428512222637E-03   7.332514469848591E-03   7.424746147778590E-03
   7.518137957399929E-03   7.612704491372896E-03   7.708460525910794E-03
   7.805421023088850E-03   7.903601133182031E-03   8.003016197032259E-03
   8.103681748445548E-03   8.205613516619088E-03   8.308827428599052E-03
   8.413339611769188E-03   8.519166396370719E-03   8.626324318054079E-03
   8.734830120462512E-03   8.844700757848416E-03   8.955953397722432E-03
   9.068605423535860E-03   9.182674437396949E-03   9.298178262821161E-03
   9.415134947516231E-03   9.533562766202106E-03   9.653480223466369E-03
   9.774906056655723E-03   9.897859238803614E-03   1.002235898159492E-02
   1.014842473836776E-02   1.027607620715309E-02   1.040533333375264E-02
   1.053621631485539E-02   1.066874560119343E-02   1.080294190073741E-02
   1.093882618193212E-02   1.107641967697299E-02   1.121574388512351E-02
   1.135682057607470E-02   1.149967179334654E-02   1.164431985773234E-02
   1.179078737078649E-02   1.193909721835584E-02   1.208927257415585E-02
   1.224133690339140E-02   1.239531396642328E-02   1.255122782248089E-02
   1.270910283342142E-02   1.286896366753655E-02   1.303083530340685E-02
   1.319474303380473E-02   1.336071246964658E-02   1.352876954399437E-02
   1.369894051610791E-02   1.387125197554782E-02   1.404573084633016E-02
   1.422240439113354E-02   1.440130021555871E-02   1.458244627244223E-02
   1.476587086622406E-02   1.495160265737011E-02   1.513967066685068E-02
   1.533010428067481E-02   1.552293325448214E-02   1.571818771819216E-02
   1.591589818071203E-02   1.611609553470380E-02   1.631881106141130E-02
   1.652407643554802E-02   1.673192373024631E-02   1.694238542206880E-02
   1.715549439608306E-02   1.737128395099980E-02   1.758978780437604E-02
   1.781104009788344E-02   1.803507540264295E-02   1.826192872462680E-02
   1.849163551012803E-02   1.872423165129923E-02   1.895975349176074E-02
   1.919823783227920E-02   1.943972193651812E-02   1.968424353686001E-02
   1.993184084030243E-02   2.018255253442784E-02   2.043641779344843E-02
   2.069347628432750E-02   2.095376817297717E-02   2.121733413053463E-02
   2.148421533971703E-02   2.175445350125620E-02   2.202809084041476E-02
   2.230517011358360E-02   2.258573461496290E-02   2.286982818332686E-02
   2.315749520887345E-02   2.344878064016077E-02   2.374372999112998E-02
   2.404238934821734E-02   2.434480537755494E-02   2.465102533226267E-02
   2.496109705983151E-02   2.527506900959966E-02   2.559299024032312E-02
   2.591491042784094E-02   2.624087987283739E-02   2.657094950870151E-02
   2.690517090948534E-02   2.724359629796282E-02   2.758627855378933E-02
   2.793327122176459E-02   2.828462852019899E-02   2.864040534938514E-02
   2.900065730017653E-02   2.936544066267333E-02   2.973481243501812E-02
   3.010883033230187E-02   3.048755279558189E-02   3.087103900101369E-02
   3.125934886909695E-02   3.165254307403865E-02   3.205068305323332E-02
   3.245383101686262E-02   3.286204995761620E-02   3.327540366053396E-02
   3.369395671297300E-02   3.411777451469940E-02   3.454692328810682E-02
   3.498147008856432E-02   3.542148281489346E-02   3.586703021997797E-02
   3.631818192150648E-02   3.677500841285006E-02   3.723758107407756E-02
   3.770597218310826E-02   3.818025492700597E-02   3.866050341341442E-02
   3.914679268213656E-02   3.963919871686011E-02   4.013779845702969E-02
   4.064266980986916E-02   4.115389166255465E-02   4.167154389454058E-02
   4.219570739004152E-02   4.272646405066991E-02   4.326389680823389E-02
   4.380808963769531E-02   4.435912757029080E-02   4.491709670681857E-02
   4.548208423109124E-02   4.605417842355904E-02   4.663346867510356E-02
   4.722004550100500E-02   4.781400055508599E-02   4.841542664403198E-02
   4.902441774189303E-02   4.964106900476731E-02   5.026547678566903E-02
   5.089773864958450E-02   5.153795338871613E-02   5.218622103791953E-02
   5.284264289033389E-02   5.350732151320897E-02   5.418036076393207E-02
   5.486186580625524E-02   5.555194312672797E-02   5.625070055133566E-02
   5.695824726234732E-02   5.767469381537629E-02   5.840015215665387E-02
   5.913473564052199E-02   5.987855904714458E-02   6.063173860044205E-02
   6.139439198625220E-02   6.216663837071795E-02   6.294859841890811E-02
   6.374039431367128E-02   6.454214977472666E-02   6.535399007799650E-02
   6.617604207517963E-02   6.700843421357322E-02   6.785129655614251E-02
   6.870476080184311E-02   6.956896030620004E-02   7.044403010214384E-02
   7.133010692111059E-02   7.222732921440614E-02   7.313583717483893E-02
   7.405577275862645E-02   7.498727970757502E-02   7.593050357154069E-02
   7.688559173117136E-02   7.785269342093484E-02   7.883195975243801E-02
   7.982354373803724E-02   8.082760031474778E-02   8.184428636845270E-02
   8.287376075841603E-02   8.391618434210597E-02   8.497172000032804E-02
   8.604053266267646E-02   8.712278933330439E-02   8.821865911701819E-02
   8.932831324570145E-02   9.045192510506905E-02   9.158967026176018E-02
   9.274172649077052E-02   9.390827380322937E-02   9.508949447452802E-02
   9.628557307279922E-02   9.749669648775756E-02   9.872305395990087E-02
   9.996483711007885E-02   1.012222399694355E-01   1.024954590097254E-01
   1.037846931740143E-01   1.050901439077633E-01   1.064120151903054E-01
   1.077505135667179E-01   1.091058481800953E-01   1.104782308042284E-01
   1.118678758766945E-01   1.132750005323631E-01   1.146998246373249E-01
   1.161425708232447E-01   1.176034645221495E-01   1.190827340016521E-01
   1.205806104006181E-01   1.220973277652825E-01   1.236331230858190E-01
   1.251882363333712E-01   1.267629104975481E-01   1.283573916243912E-01
   1.299719288548210E-01   1.316067744635640E-01   1.332621838985731E-01
   1.349384158209405E-01   1.366357321453141E-01   1.383543980808231E-01
   1.400946821725164E-01   1.418568563433238E-01   1.436411959365452E-01
   1.454479797588717E-01   1.472774901239520E-01   1.491300128965023E-01
   1.510058375369750E-01   1.529052571467869E-01   1.548285685141159E-01
   1.567760721602766E-01   1.587480723866756E-01   1.607448773223604E-01
   1.627667989721651E-01   1.648141532654605E-01   1.668872601055210E-01
   1.689864434195074E-01   1.711120312090837E-01   1.732643556016669E-01
   1.754437529023215E-01   1.776505636463106E-01   1.798851326523020E-01
   1.821478090762494E-01   1.844389464659479E-01   1.867589028162754E-01
   1.891080406251322E-01   1.914867269500796E-01   1.938953334656957E-01
   1.963342365216493E-01   1.988038172015042E-01   2.013044613822667E-01
   2.038365597946769E-01   2.064005080842637E-01   2.089967068731641E-01
   2.116255618227202E-01   2.142874836968671E-01   2.169828884263124E-01
   2.197121971735295E-01   2.224758363985633E-01   2.252742379256646E-01
   2.281078390107661E-01   2.309770824098017E-01   2.338824164478904E-01
   2.368242950893869E-01   2.398031780088134E-01   2.428195306626877E-01
   2.458738243622477E-01   2.489665363470985E-01   2.520981498597804E-01
   2.552691542212750E-01   2.584800449074663E-01   2.617313236265557E-01
   2.650234983974582E-01   2.683570836291804E-01   2.717326002011957E-01
   2.751505755448374E-01   2.786115437257056E-01   2.821160455271205E-01
   2.856646285346191E-01   2.892578472215149E-01   2.928962630355392E-01
   2.965804444865645E-01   3.003109672354383E-01   3.040884141839306E-01
   3.079133755658113E-01   3.117864490390794E-01   3.157082397793436E-01
   3.196793605743869E-01   3.237004319199132E-01   3.277720821165000E-01
   3.318949473677756E-01   3.360696718798223E-01   3.402969079618393E-01
   3.445773161280654E-01   3.489115652009838E-01   3.533003324158317E-01
   3.577443035264140E-01   3.622441729122587E-01   3.668006436871132E-01
   3.714144278088047E-01   3.760862461904906E-01   3.808168288132965E-01
   3.856069148403823E-01   3.904572527324360E-01   3.953686003646200E-01
   4.003417251449952E-01   4.053774041344251E-01   4.104764241679980E-01
   4.156395819779684E-01   4.208676843182475E-01   4.261615480904641E-01
   4.315220004716014E-01   4.369498790432507E-01   4.424460319224827E-01
   4.480113178943653E-01   4.536466065461558E-01   4.593527784031696E-01
   4.651307250663693E-01   4.709813493516772E-01   4.769055654310395E-01
   4.829042989752732E-01   4.889784872986974E-01   4.951290795055964E-01
   5.013570366385171E-01   5.076633318284303E-01   5.140489504467917E-01
   5.205148902595003E-01   5.270621615828077E-01   5.336917874411796E-01
   5.404048037271426E-01   5.472022593631510E-01   5.540852164654758E-01
   5.610547505101682E-01   5.681119505011036E-01   5.752579191401367E-01
   5.824937729994077E-01   5.898206426958016E-01   5.972396730676162E-01
   6.047520233534421E-01   6.123588673732936E-01   6.200613937120270E-01
   6.278608059050514E-01   6.357583226263913E-01   6.437551778791031E-01
   6.518526211880873E-01   6.600519177953379E-01   6.683543488576289E-01
   6.767612116467063E-01   6.852738197519861E-01   6.938935032858015E-01
   7.026216090912437E-01   7.114595009525999E-01   7.204085598084555E-01
   7.294701839674653E-01   7.386457893268372E-01   7.479368095935791E-01
   7.573446965085081E-01   7.668709200730963E-01   7.765169687791582E-01
   7.862843498414267E-01   7.961745894330671E-01   8.061892329241348E-01
   8.163298451230517E-01   8.265980105211064E-01   8.369953335400304E-01
   8.475234387827015E-01   8.581839712869810E-01   8.689785967827629E-01
   8.799090019522442E-01   8.909768946934679E-01   9.021840043871955E-01
   9.135320821671146E-01   9.250229011934679E-01   9.366582569301078E-01
   9.484399674250377E-01   9.603698735944953E-01   9.724498395105883E-01
   9.846817526925693E-01   9.970675244017606E-01   1.009609089940188E+00
   1.022308408952985E+00   1.035167465734583E+00   1.048188269538766E+00
   1.061372854892622E+00   1.074723281914433E+00   1.088241636635586E+00
   1.101930031326507E+00   1.115790604826716E+00   1.129825522879025E+00
   1.144036978467930E+00   1.158427192162284E+00   1.172998412462250E+00
   1.187752916150646E+00   1.202693008648695E+00   1.217821024376242E+00
   1.233139327116526E+00   1.248650310385510E+00
    </PP_RAB>
  </PP_MESH>
  <PP_NLCC size="1085">
   1.356209504469594E+00   1.356209500484241E+00   1.356209496397999E+00
   1.356209492208313E+00   1.356209487912565E+00   1.356209483508069E+00
   1.356209478992072E+00   1.356209474361753E+00   1.356209469614217E+00
   1.356209464746496E+00   1.356209459755549E+00   1.356209454638255E+00
   1.356209449391416E+00   1.356209444011752E+00   1.356209438495902E+00
   1.356209432840418E+00   1.356209427041764E+00   1.356209421096317E+00
   1.356209415000360E+00   1.356209408750083E+00   1.356209402341580E+00
   1.356209395770844E+00   1.356209389033770E+00   1.356209382126146E+00
   1.356209375043654E+00   1.356209367781869E+00   1.356209360336251E+00
   1.356209352702145E+00   1.356209344874782E+00   1.356209336849268E+00
   1.356209328620587E+00   1.356209320183596E+00   1.356209311533022E+00
   1.356209302663458E+00   1.356209293569359E+00   1.356209284245043E+00
   1.356209274684680E+00   1.356209264882295E+00   1.356209254831762E+00
   1.356209244526799E+00   1.356209233960965E+00   1.356209223127654E+00
   1.356209212020098E+00   1.356209200631353E+00   1.356209188954300E+00
   1.356209176981641E+00   1.356209164705893E+00   1.356209152119383E+00
   1.356209139214244E+00   1.356209125982410E+00   1.356209112415611E+00
   1.356209098505367E+00   1.356209084242983E+00   1.356209069619546E+00
   1.356209054625914E+00   1.356209039252718E+00   1.356209023490347E+00
   1.356209007328950E+00   1.356208990758425E+00   1.356208973768415E+00
   1.356208956348302E+00   1.356208938487197E+00   1.356208920173936E+00
   1.356208901397072E+00   1.356208882144870E+00   1.356208862405297E+00
   1.356208842166015E+00   1.356208821414372E+00   1.356208800137400E+00
   1.356208778321799E+00   1.356208755953934E+00   1.356208733019823E+00
   1.356208709505134E+00   1.356208685395167E+00   1.356208660674854E+00
   1.356208635328744E+00   1.356208609340994E+00   1.356208582695363E+00
   1.356208555375193E+00   1.356208527363412E+00   1.356208498642509E+00
   1.356208469194533E+00   1.356208439001079E+00   1.356208408043275E+00
   1.356208376301770E+00   1.356208343756727E+00   1.356208310387802E+00
   1.356208276174140E+00   1.356208241094355E+00   1.356208205126523E+00
   1.356208168248161E+00   1.356208130436220E+00   1.356208091667066E+00
   1.356208051916468E+00   1.356208011159579E+00   1.356207969370925E+00
   1.356207926524388E+00   1.356207882593187E+00   1.356207837549864E+00
   1.356207791366265E+00   1.356207744013524E+00   1.356207695462044E+00
   1.356207645681479E+00   1.356207594640715E+00   1.356207542307849E+00
   1.356207488650172E+00   1.356207433634147E+00   1.356207377225387E+00
   1.356207319388633E+00   1.356207260087738E+00   1.356207199285636E+00
   1.356207136944324E+00   1.356207073024836E+00   1.356207007487222E+00
   1.356206940290518E+00   1.356206871392724E+00   1.356206800750778E+00
   1.356206728320525E+00   1.356206654056695E+00   1.356206577912872E+00
   1.356206499841462E+00   1.356206419793669E+00   1.356206337719460E+00
   1.356206253567538E+00   1.356206167285304E+00   1.356206078818830E+00
   1.356205988112821E+00   1.356205895110586E+00   1.356205799753993E+00
   1.356205701983441E+00   1.356205601737823E+00   1.356205498954483E+00
   1.356205393569175E+00   1.356205285516035E+00   1.356205174727523E+00
   1.356205061134395E+00   1.356204944665652E+00   1.356204825248497E+00
   1.356204702808293E+00   1.356204577268510E+00   1.356204448550682E+00
   1.356204316574359E+00   1.356204181257050E+00   1.356204042514180E+00
   1.356203900259030E+00   1.356203754402687E+00   1.356203604853987E+00
   1.356203451519459E+00   1.356203294303264E+00   1.356203133107140E+00
   1.356202967830332E+00   1.356202798369541E+00   1.356202624618848E+00
   1.356202446469656E+00   1.356202263810617E+00   1.356202076527564E+00
   1.356201884503441E+00   1.356201687618229E+00   1.356201485748871E+00
   1.356201278769191E+00   1.356201066549825E+00   1.356200848958131E+00
   1.356200625858107E+00   1.356200397110313E+00   1.356200162571776E+00
   1.356199922095903E+00   1.356199675532394E+00   1.356199422727140E+00
   1.356199163522133E+00   1.356198897755365E+00   1.356198625260726E+00
   1.356198345867901E+00   1.356198059402266E+00   1.356197765684773E+00
   1.356197464531843E+00   1.356197155755251E+00   1.356196839162007E+00
   1.356196514554232E+00   1.356196181729042E+00   1.356195840478416E+00
   1.356195490589068E+00   1.356195131842309E+00   1.356194764013919E+00
   1.356194386873998E+00   1.356194000186830E+00   1.356193603710728E+00
   1.356193197197891E+00   1.356192780394242E+00   1.356192353039275E+00
   1.356191914865886E+00   1.356191465600212E+00   1.356191004961459E+00
   1.356190532661721E+00   1.356190048405805E+00   1.356189551891050E+00
   1.356189042807127E+00   1.356188520835856E+00   1.356187985651000E+00
   1.356187436918065E+00   1.356186874294091E+00   1.356186297427432E+00
   1.356185705957547E+00   1.356185099514762E+00   1.356184477720050E+00
   1.356183840184787E+00   1.356183186510512E+00   1.356182516288678E+00
   1.356181829100396E+00   1.356181124516174E+00   1.356180402095647E+00
   1.356179661387305E+00   1.356178901928207E+00   1.356178123243694E+00
   1.356177324847091E+00   1.356176506239406E+00   1.356175666909014E+00
   1.356174806331340E+00   1.356173923968532E+00   1.356173019269120E+00
   1.356172091667678E+00   1.356171140584466E+00   1.356170165425068E+00
   1.356169165580026E+00   1.356168140424450E+00   1.356167089317637E+00
   1.356166011602662E+00   1.356164906605974E+00   1.356163773636975E+00
   1.356162611987582E+00   1.356161420931791E+00   1.356160199725223E+00
   1.356158947604656E+00   1.356157663787548E+00   1.356156347471550E+00
   1.356154997834006E+00   1.356153614031437E+00   1.356152195199011E+00
   1.356150740450011E+00   1.356149248875271E+00   1.356147719542616E+00
   1.356146151496276E+00   1.356144543756288E+00   1.356142895317888E+00
   1.356141205150877E+00   1.356139472198984E+00   1.356137695379202E+00
   1.356135873581112E+00   1.356134005666191E+00   1.356132090467098E+00
   1.356130126786948E+00   1.356128113398562E+00   1.356126049043702E+00
   1.356123932432283E+00   1.356121762241570E+00   1.356119537115349E+00
   1.356117255663081E+00   1.356114916459035E+00   1.356112518041395E+00
   1.356110058911348E+00   1.356107537532149E+00   1.356104952328158E+00
   1.356102301683860E+00   1.356099583942854E+00   1.356096797406817E+00
   1.356093940334448E+00   1.356091010940376E+00   1.356088007394045E+00
   1.356084927818575E+00   1.356081770289587E+00   1.356078532834001E+00
   1.356075213428805E+00   1.356071809999794E+00   1.356068320420269E+00
   1.356064742509714E+00   1.356061074032435E+00   1.356057312696159E+00
   1.356053456150610E+00   1.356049501986034E+00   1.356045447731702E+00
   1.356041290854363E+00   1.356037028756662E+00   1.356032658775523E+00
   1.356028178180483E+00   1.356023584171989E+00   1.356018873879650E+00
   1.356014044360445E+00   1.356009092596890E+00   1.356004015495147E+00
   1.355998809883102E+00   1.355993472508381E+00   1.355988000036318E+00
   1.355982389047879E+00   1.355976636037526E+00   1.355970737411031E+00
   1.355964689483062E+00   1.355958488475739E+00   1.355952130514452E+00
   1.355945611627695E+00   1.355938927742639E+00   1.355932074684004E+00
   1.355925048170569E+00   1.355917843812943E+00   1.355910457110697E+00
   1.355902883449429E+00   1.355895118098128E+00   1.355887156206049E+00
   1.355878992800121E+00   1.355870622780790E+00   1.355862040920049E+00
   1.355853241857225E+00   1.355844220096744E+00   1.355834970003393E+00
   1.355825485799692E+00   1.355815761562118E+00   1.355805791217122E+00
   1.355795568537848E+00   1.355785087139650E+00   1.355774340476562E+00
   1.355763321837271E+00   1.355752024340505E+00   1.355740440931310E+00
   1.355728564375770E+00   1.355716387257786E+00   1.355703901973082E+00
   1.355691100725516E+00   1.355677975521941E+00   1.355664518166822E+00
   1.355650720257373E+00   1.355636573179052E+00   1.355622068098810E+00
   1.355607195960568E+00   1.355591947479643E+00   1.355576313136067E+00
   1.355560283169925E+00   1.355543847574076E+00   1.355526996088851E+00
   1.355509718195147E+00   1.355492003108075E+00   1.355473839770054E+00
   1.355455216844415E+00   1.355436122708111E+00   1.355416545443789E+00
   1.355396472833675E+00   1.355375892351025E+00   1.355354791152789E+00
   1.355333156071460E+00   1.355310973606748E+00   1.355288229917516E+00
   1.355264910813296E+00   1.355241001744964E+00   1.355216487795975E+00
   1.355191353673129E+00   1.355165583697548E+00   1.355139161793552E+00
   1.355112071480274E+00   1.355084295860982E+00   1.355055817611738E+00
   1.355026618971993E+00   1.354996681732255E+00   1.354965987224242E+00
   1.354934516307884E+00   1.354902249360776E+00   1.354869166264629E+00
   1.354835246394424E+00   1.354800468604343E+00   1.354764811215213E+00
   1.354728252001241E+00   1.354690768175902E+00   1.354652336378221E+00
   1.354612932657981E+00   1.354572532461296E+00   1.354531110615176E+00
   1.354488641312253E+00   1.354445098094318E+00   1.354400453836850E+00
   1.354354680731437E+00   1.354307750269154E+00   1.354259633222942E+00
   1.354210299629355E+00   1.354159718770361E+00   1.354107859154316E+00
   1.354054688496584E+00   1.354000173699795E+00   1.353944280833393E+00
   1.353886975112699E+00   1.353828220877786E+00   1.353767981571397E+00
   1.353706219716584E+00   1.353642896893641E+00   1.353577973716604E+00
   1.353511409809261E+00   1.353443163780115E+00   1.353373193197244E+00
   1.353301454562305E+00   1.353227903284028E+00   1.353152493650702E+00
   1.353075178802578E+00   1.352995910702893E+00   1.352914640109008E+00
   1.352831316541959E+00   1.352745888255962E+00   1.352658302206877E+00
   1.352568504019725E+00   1.352476437955985E+00   1.352382046879312E+00
   1.352285272221139E+00   1.352186053945076E+00   1.352084330510371E+00
   1.351980038834854E+00   1.351873114256579E+00   1.351763490494640E+00
   1.351651099609417E+00   1.351535871961334E+00   1.351417736168720E+00
   1.351296619065208E+00   1.351172445655182E+00   1.351045139069069E+00
   1.350914620516844E+00   1.350780809240955E+00   1.350643622467686E+00
   1.350502975357761E+00   1.350358780955450E+00   1.350210950136611E+00
   1.350059391555482E+00   1.349904011590247E+00   1.349744714287197E+00
   1.349581401303733E+00   1.349413971849828E+00   1.349242322628382E+00
   1.349066347773879E+00   1.348885938789809E+00   1.348700984484567E+00
   1.348511370905821E+00   1.348316981273446E+00   1.348117695910756E+00
   1.347913392174311E+00   1.347703944381972E+00   1.347489223739337E+00
   1.347269098264553E+00   1.347043432711266E+00   1.346812088489943E+00
   1.346574923587329E+00   1.346331792484095E+00   1.346082546070603E+00
   1.345827031560838E+00   1.345565092404243E+00   1.345296568195806E+00
   1.345021294583929E+00   1.344739103176344E+00   1.344449821443960E+00
   1.344153272622533E+00   1.343849275612181E+00   1.343537644874731E+00
   1.343218190328805E+00   1.342890717242588E+00   1.342555026124387E+00
   1.342210912610701E+00   1.341858167351957E+00   1.341496575895868E+00
   1.341125918568231E+00   1.340745970351224E+00   1.340356500759213E+00
   1.339957273711930E+00   1.339548047405027E+00   1.339128574177972E+00
   1.338698600379248E+00   1.338257866228842E+00   1.337806105677914E+00
   1.337343046265717E+00   1.336868408973645E+00   1.336381908076391E+00
   1.335883250990309E+00   1.335372138118688E+00   1.334848262694185E+00
   1.334311310618243E+00   1.333760960297452E+00   1.333196882476918E+00
   1.332618740070573E+00   1.332026187988367E+00   1.331418872960395E+00
   1.330796433357911E+00   1.330158499011195E+00   1.329504691024283E+00
   1.328834621586618E+00   1.328147893781454E+00   1.327444101391200E+00
   1.326722828699602E+00   1.325983650290750E+00   1.325226130845042E+00
   1.324449824931982E+00   1.323654276799936E+00   1.322839020162820E+00
   1.322003577983801E+00   1.321147462255953E+00   1.320270173780089E+00
   1.319371201939610E+00   1.318450024472613E+00   1.317506107241217E+00
   1.316538903998230E+00   1.315547856151227E+00   1.314532392524144E+00
   1.313491929116493E+00   1.312425868860292E+00   1.311333601374872E+00
   1.310214502719672E+00   1.309067935145174E+00   1.307893246842173E+00
   1.306689771689498E+00   1.305456829000453E+00   1.304193723268127E+00
   1.302899743909806E+00   1.301574165010754E+00   1.300216245067604E+00
   1.298825226731617E+00   1.297400336552158E+00   1.295940784720639E+00
   1.294445764815332E+00   1.292914453547384E+00   1.291346010508397E+00
   1.289739577920060E+00   1.288094280386174E+00   1.286409224647630E+00
   1.284683499340759E+00   1.282916174759638E+00   1.281106302622873E+00
   1.279252915845462E+00   1.277355028316379E+00   1.275411634682510E+00
   1.273421710139687E+00   1.271384210231504E+00   1.269298070656744E+00
   1.267162207086242E+00   1.264975514990006E+00   1.262736869475576E+00
   1.260445125138538E+00   1.258099115926253E+00   1.255697655015827E+00
   1.253239534707484E+00   1.250723526334509E+00   1.248148380190995E+00
   1.245512825478722E+00   1.242815570274492E+00   1.240055301519410E+00
   1.237230685031549E+00   1.234340365543626E+00   1.231382966767282E+00
   1.228357091485733E+00   1.225261321676538E+00   1.222094218666405E+00
   1.218854323319953E+00   1.215540156264507E+00   1.212150218153013E+00
   1.208682989967326E+00   1.205136933364151E+00   1.201510491066044E+00
   1.197802087299976E+00   1.194010128286021E+00   1.190133002778886E+00
   1.186169082665042E+00   1.182116723618366E+00   1.177974265817256E+00
   1.173740034726326E+00   1.169412341945876E+00   1.164989486132409E+00
   1.160469753993633E+00   1.155851421361407E+00   1.151132754346268E+00
   1.146312010577232E+00   1.141387440530660E+00   1.136357288952108E+00
   1.131219796375151E+00   1.125973200741242E+00   1.120615739124809E+00
   1.115145649567815E+00   1.109561173028105E+00   1.103860555445950E+00
   1.098042049933212E+00   1.092103919089662E+00   1.086044437450963E+00
   1.079861894072909E+00   1.073554595256507E+00   1.067120867418475E+00
   1.060559060111760E+00   1.053867549200596E+00   1.047044740194609E+00
   1.040089071746396E+00   1.032999019316902E+00   1.025773099012807E+00
   1.018409871599989E+00   1.010907946696943E+00   1.003265987151845E+00
   9.954827136066778E-01   9.875569092515860E-01   9.794874247722705E-01
   9.712731834929000E-01   9.629131867165672E-01   9.544065192648831E-01
   9.457523552177682E-01   9.369499638539219E-01   9.279987157918163E-01
   9.188980893303671E-01   9.096476769876324E-01   9.002471922350882E-01
   8.906964764240560E-01   8.809955058998892E-01   8.711443992984218E-01
   8.611434250179886E-01   8.509930088590707E-01   8.406937418222284E-01
   8.302463880535103E-01   8.196518929249459E-01   8.089113912360244E-01
   7.980262155202695E-01   7.869979044390659E-01   7.758282112428722E-01
   7.645191122777737E-01   7.530728155130230E-01   7.414917690628205E-01
   7.297786696730159E-01   7.179364711407471E-01   7.059683926322433E-01
   6.938779268610805E-01   6.816688480861560E-01   6.693452198854812E-01
   6.569114026586358E-01   6.443720608073616E-01   6.317321695403350E-01
   6.189970212446166E-01   6.061722313626906E-01   5.932637437103766E-01
   5.802778351672314E-01   5.672211196673903E-01   5.541005514151800E-01
   5.409234272462095E-01   5.276973880511857E-01   5.144304191763014E-01
   5.011308497108311E-01   4.878073505695992E-01   4.744689312752029E-01
   4.611249353425016E-01   4.477850341658218E-01   4.344592193077318E-01
   4.211577930872068E-01   4.078913573644543E-01   3.946708004199683E-01
   3.815072818262800E-01   3.684122152127204E-01   3.553972488263600E-01
   3.424742437960731E-01   3.296552500118045E-01   3.169524795374044E-01
   3.043782774831412E-01   2.919450902733475E-01   2.796654312554972E-01
   2.675518436098172E-01   2.556168605330982E-01   2.438729626870009E-01
   2.323325329199885E-01   2.210078082929392E-01   2.099108294619517E-01
   1.990533874975886E-01   1.884469682481105E-01   1.781026943851647E-01
   1.680312653037587E-01   1.582428950844731E-01   1.487472487644199E-01
   1.395533772045606E-01   1.306696508845371E-01   1.221036930018169E-01
   1.138623122997768E-01   1.059514360987911E-01   9.837604405530137E-02
   9.114010322576442E-02   8.424650506472058E-02   7.769700503857027E-02
   7.149216558816540E-02   6.563130322330935E-02   6.011244057987860E-02
   5.493226431438648E-02   5.008608975050957E-02   4.556783322598219E-02
   4.136999311512302E-02   3.748364052064001E-02   3.389842063663470E-02
   3.060256578139774E-02   2.758292108178570E-02   2.482498375900806E-02
   2.231295691665799E-02   2.002981866390864E-02   1.795766789972977E-02
   1.607932569490278E-02   1.437884475706695E-02   1.284137828881464E-02
   1.145312261192741E-02   1.020126133888194E-02   9.073911147892286E-03
   8.060069212676851E-03   7.149562332252550E-03   6.332997799533303E-03
   5.601716040536383E-03   4.947745048744740E-03   4.363756631800311E-03
   3.843024480348133E-03   3.379384061628565E-03   2.967194333423010E-03
   2.601301267269845E-03   2.277003163542163E-03   1.990017735060863E-03
   1.736450930435713E-03   1.512767463305935E-03   1.315763009101116E-03
   1.142538026869430E-03   9.904731601223728E-04   8.572061675181760E-04
   7.406103315415035E-04   6.387742911221386E-04   5.499832423557568E-04
   4.727014501283930E-04   4.055560124834839E-04   3.473218189861365E-04
   2.969076441109556E-04   2.533433167843297E-04   2.157679076252010E-04
   1.834188761249570E-04   1.556221209619635E-04   1.317828778334776E-04
   1.113774105816835E-04   9.394544296577716E-05   7.908328016320590E-05
   6.643757094590030E-05   5.569966344774869E-05   4.660050949490939E-05
   3.890607458909760E-05   3.241321279521492E-05   2.694596796949882E-05
   2.235226495499152E-05   1.850095655135434E-05   1.527919422116843E-05
   1.259009261170766E-05   1.035066003816371E-05   8.489969081369473E-06
   6.947543391662982E-06   5.671938653555554E-06   4.619497447603404E-06
   3.753259441949815E-06   3.042009953242893E-06   2.459451433037081E-06
   1.983483860391027E-06   1.595581354165642E-06   1.280253560339911E-06
   1.024581522074368E-06   8.178188054881684E-07   6.510496349455760E-07
   5.168966912946339E-07   4.092720485535359E-07   3.231654728657535E-07
   2.544649862144052E-07   1.998052106018562E-07   1.564395604318380E-07
   1.221328459589823E-07   9.507129313504311E-08   7.378737914046588E-08
   5.709723238304294E-08   4.404865466176080E-08   3.387809525016780E-08
   2.597514537440847E-08   1.985333026656218E-08   1.512615777074348E-08
   1.148754025630270E-08   8.695843019474234E-09   6.560929885546576E-09
   4.933677600183989E-09   3.697516858535265E-09   2.761631306210516E-09
   2.055508213538129E-09   1.524587255726018E-09   1.126798245900044E-09
   8.298159340369137E-10   6.088911325655560E-10   4.451433623718502E-10
   3.242217198089673E-10   2.352584312999994E-10   1.700541796915606E-10
   1.224462655395992E-10   8.782044368581678E-11   6.273522309898816E-11
   4.463385188642312E-11   3.162439638287521E-11   2.231248751347182E-11
   1.567463677654354E-11   1.096267437985672E-11   7.631962713187614E-12
   5.287696194600503E-12   3.644901205470551E-12   2.498768906256384E-12
   1.702747390895681E-12   1.152434975512408E-12   7.737913063335163E-13
   5.145479710781947E-13   3.379782910257852E-13   2.184047555837301E-13
   1.379523668807461E-13   8.447679457291554E-14   4.859768280941478E-14
   0.000000000000000E+00   0.000000000000000E+00   0.000000000000000E+00
   0.000000000000000E+00   0.000000000000000E+00   0.000000000000000E+00
   0.000000000000000E+00   0.000000000000000E+00   0.000000000000000E+00
   0.000000000000000E+00   0.000000000000000E+00   0.000000000000000E+00
   0.000000000000000E+00   0.000000000000000E+00   0.000000000000000E+00
   0.000000000000000E+00   0.000000000000000E+00   0.000000000000000E+00
   0.000000000000000E+00   0.000000000000000E+00   0.000000000000000E+00
   0.000000000000000E+00   0.000000000000000E+00   0.000000000000000E+00
   0.000000000000000E+00   0.000000000000000E+00   0.000000000000000E+00
   0.000000000000000E+00   0.000000000000000E+00   0.000000000000000E+00
   0.000000000000000E+00   0.000000000000000E+00   0.000000000000000E+00
   0.000000000000000E+00   0.000000000000000E+00   0.000000000000000E+00
   0.000000000000000E+00   0.000000000000000E+00   0.000000000000000E+00
   0.000000000000000E+00   0.000000000000000E+00   0.000000000000000E+00
   0.000000000000000E+00   0.000000000000000E+00   0.000000000000000E+00
   0.000000000000000E+00   0.000000000000000E+00   0.000000000000000E+00
   0.000000000000000E+00   0.000000000000000E+00   0.000000000000000E+00
   0.000000000000000E+00   0.000000000000000E+00   0.000000000000000E+00
   0.000000000000000E+00   0.000000000000000E+00   0.000000000000000E+00
   0.000000000000000E+00   0.000000000000000E+00   0.000000000000000E+00
   0.000000000000000E+00   0.000000000000000E+00   0.000000000000000E+00
   0.000000000000000E+00   0.000000000000000E+00   0.000000000000000E+00
   0.000000000000000E+00   0.000000000000000E+00   0.000000000000000E+00
   0.000000000000000E+00   0.000000000000000E+00   0.000000000000000E+00
   0.000000000000000E+00   0.000000000000000E+00   0.000000000000000E+00
   0.000000000000000E+00   0.000000000000000E+00   0.000000000000000E+00
   0.000000000000000E+00   0.000000000000000E+00   0.000000000000000E+00
   0.000000000000000E+00   0.000000000000000E+00   0.000000000000000E+00
   0.000000000000000E+00   0.000000000000000E+00   0.000000000000000E+00
   0.000000000000000E+00   0.000000000000000E+00   0.000000000000000E+00
   0.000000000000000E+00   0.000000000000000E+00   0.000000000000000E+00
   0.000000000000000E+00   0.000000000000000E+00   0.000000000000000E+00
   0.000000000000000E+00   0.000000000000000E+00   0.000000000000000E+00
   0.000000000000000E+00   0.000000000000000E+00   0.000000000000000E+00
   0.000000000000000E+00   0.000000000000000E+00   0.000000000000000E+00
   0.000000000000000E+00   0.000000000000000E+00   0.000000000000000E+00
   0.000000000000000E+00   0.000000000000000E+00   0.000000000000000E+00
   0.000000000000000E+00   0.000000000000000E+00   0.000000000000000E+00
   0.000000000000000E+00   0.000000000000000E+00   0.000000000000000E+00
   0.000000000000000E+00   0.000000000000000E+00   0.000000000000000E+00
   0.000000000000000E+00   0.000000000000000E+00   0.000000000000000E+00
   0.000000000000000E+00   0.000000000000000E+00   0.000000000000000E+00
   0.000000000000000E+00   0.000000000000000E+00   0.000000000000000E+00
   0.000000000000000E+00   0.000000000000000E+00   0.000000000000000E+00
   0.000000000000000E+00   0.000000000000000E+00   0.000000000000000E+00
   0.000000000000000E+00   0.000000000000000E+00   0.000000000000000E+00
   0.000000000000000E+00   0.000000000000000E+00   0.000000000000000E+00
   0.000000000000000E+00   0.000000000000000E+00   0.000000000000000E+00
   0.000000000000000E+00   0.000000000000000E+00   0.000000000000000E+00
   0.000000000000000E+00   0.000000000000000E+00   0.000000000000000E+00
   0.000000000000000E+00   0.000000000000000E+00   0.000000000000000E+00
   0.000000000000000E+00   0.000000000000000E+00   0.000000000000000E+00
   0.000000000000000E+00   0.000000000000000E+00   0.000000000000000E+00
   0.000000000000000E+00   0.000000000000000E+00   0.000000000000000E+00
   0.000000000000000E+00   0.000000000000000E+00   0.000000000000000E+00
   0.000000000000000E+00   0.000000000000000E+00   0.000000000000000E+00
   0.000000000000000E+00   0.000000000000000E+00   0.000000000000000E+00
   0.000000000000000E+00   0.000000000000000E+00   0.000000000000000E+00
   0.000000000000000E+00   0.000000000000000E+00   0.000000000000000E+00
   0.000000000000000E+00   0.000000000000000E+00   0.000000000000000E+00
   0.000000000000000E+00   0.000000000000000E+00   0.000000000000000E+00
   0.000000000000000E+00   0.000000000000000E+00   0.000000000000000E+00
   0.000000000000000E+00   0.000000000000000E+00   0.000000000000000E+00
   0.000000000000000E+00   0.000000000000000E+00   0.000000000000000E+00
   0.000000000000000E+00   0.000000000000000E+00   0.000000000000000E+00
   0.000000000000000E+00   0.000000000000000E+00   0.000000000000000E+00
   0.000000000000000E+00   0.000000000000000E+00   0.000000000000000E+00
   0.000000000000000E+00   0.000000000000000E+00   0.000000000000000E+00
   0.000000000000000E+00   0.000000000000000E+00   0.000000000000000E+00
   0.000000000000000E+00   0.000000000000000E+00   0.000000000000000E+00
   0.000000000000000E+00   0.000000000000000E+00   0.000000000000000E+00
   0.000000000000000E+00   0.000000000000000E+00   0.000000000000000E+00
   0.000000000000000E+00   0.000000000000000E+00   0.000000000000000E+00
   0.000000000000000E+00   0.000000000000000E+00   0.000000000000000E+00
   0.000000000000000E+00   0.000000000000000E+00   0.000000000000000E+00
   0.000000000000000E+00   0.000000000000000E+00   0.000000000000000E+00
   0.000000000000000E+00   0.000000000000000E+00   0.000000000000000E+00
   0.000000000000000E+00   0.000000000000000E+00   0.000000000000000E+00
   0.000000000000000E+00   0.000000000000000E+00   0.000000000000000E+00
   0.000000000000000E+00   0.000000000000000E+00   0.000000000000000E+00
   0.000000000000000E+00   0.000000000000000E+00   0.000000000000000E+00
   0.000000000000000E+00   0.000000000000000E+00   0.000000000000000E+00
   0.000000000000000E+00   0.000000000000000E+00   0.000000000000000E+00
   0.000000000000000E+00   0.000000000000000E+00   0.000000000000000E+00
   0.000000000000000E+00   0.000000000000000E+00   0.000000000000000E+00
   0.000000000000000E+00   0.000000000000000E+00   0.000000000000000E+00
   0.000000000000000E+00   0.000000000000000E+00   0.000000000000000E+00
   0.000000000000000E+00   0.000000000000000E+00   0.000000000000000E+00
   0.000000000000000E+00   0.000000000000000E+00   0.000000000000000E+00
   0.000000000000000E+00   0.000000000000000E+00   0.000000000000000E+00
   0.000000000000000E+00   0.000000000000000E+00   0.000000000000000E+00
   0.000000000000000E+00   0.000000000000000E+00   0.000000000000000E+00
   0.000000000000000E+00   0.000000000000000E+00   0.000000000000000E+00
   0.000000000000000E+00   0.000000000000000E+00
  </PP_NLCC>
  <PP_LOCAL size="1085">
  -1.914446166529939E+01  -1.914446165753425E+01  -1.914446164961180E+01
  -1.914446164152416E+01  -1.914446163326342E+01  -1.914446162482171E+01
  -1.914446161619090E+01  -1.914446160740062E+01  -1.914446159838782E+01
  -1.914446158914687E+01  -1.914446157967198E+01  -1.914446156995724E+01
  -1.914446155999655E+01  -1.914446154978372E+01  -1.914446153951631E+01
  -1.914446152878502E+01  -1.914446151778207E+01  -1.914446150650055E+01
  -1.914446149493347E+01  -1.914446148324131E+01  -1.914446147108541E+01
  -1.914446145862176E+01  -1.914446144584260E+01  -1.914446143273996E+01
  -1.914446141930560E+01  -1.914446140553116E+01  -1.914446139140799E+01
  -1.914446137692732E+01  -1.914446136208006E+01  -1.914446134685693E+01
  -1.914446133124843E+01  -1.914446131524482E+01  -1.914446129883604E+01
  -1.914446128228143E+01  -1.914446126503820E+01  -1.914446124735845E+01
  -1.914446122923112E+01  -1.914446121085777E+01  -1.914446119180643E+01
  -1.914446117227281E+01  -1.914446115224466E+01  -1.914446113170955E+01
  -1.914446111065456E+01  -1.914446108906655E+01  -1.914446106693208E+01
  -1.914446104423721E+01  -1.914446102096787E+01  -1.914446099710946E+01
  -1.914446097264705E+01  -1.914446094756538E+01  -1.914446092184875E+01
  -1.914446089548112E+01  -1.914446086844596E+01  -1.914446084072645E+01
  -1.914446081230517E+01  -1.914446078316442E+01  -1.914446075366401E+01
  -1.914446072303873E+01  -1.914446069163819E+01  -1.914446065972264E+01
  -1.914446062671922E+01  -1.914446059288035E+01  -1.914446055818483E+01
  -1.914446052261101E+01  -1.914446048613661E+01  -1.914446044873887E+01
  -1.914446041039438E+01  -1.914446037107921E+01  -1.914446033076878E+01
  -1.914446028943786E+01  -1.914446024706067E+01  -1.914446020361066E+01
  -1.914446015906075E+01  -1.914446011338305E+01  -1.914446006654899E+01
  -1.914446001852937E+01  -1.914445996929405E+01  -1.914445991881241E+01
  -1.914445986705277E+01  -1.914445981398282E+01  -1.914445975956944E+01
  -1.914445970377854E+01  -1.914445964657537E+01  -1.914445958792397E+01
  -1.914445952778791E+01  -1.914445946612945E+01  -1.914445940291009E+01
  -1.914445933809040E+01  -1.914445927162969E+01  -1.914445920412500E+01
  -1.914445913427287E+01  -1.914445906307283E+01  -1.914445898964986E+01
  -1.914445891436846E+01  -1.914445883718129E+01  -1.914445875803995E+01
  -1.914445867689549E+01  -1.914445859369655E+01  -1.914445850839147E+01
  -1.914445842092696E+01  -1.914445833124806E+01  -1.914445823929917E+01
  -1.914445814502248E+01  -1.914445804835921E+01  -1.914445794924883E+01
  -1.914445784762943E+01  -1.914445774343766E+01  -1.914445763660817E+01
  -1.914445752707447E+01  -1.914445741476787E+01  -1.914445729961804E+01
  -1.914445718155329E+01  -1.914445706049963E+01  -1.914445693638149E+01
  -1.914445680912137E+01  -1.914445667863970E+01  -1.914445654485483E+01
  -1.914445640768316E+01  -1.914445626703903E+01  -1.914445612283439E+01
  -1.914445597497925E+01  -1.914445582338114E+01  -1.914445566794540E+01
  -1.914445550857473E+01  -1.914445534516956E+01  -1.914445517762785E+01
  -1.914445500584469E+01  -1.914445482971286E+01  -1.914445464912230E+01
  -1.914445446396013E+01  -1.914445427411045E+01  -1.914445407945486E+01
  -1.914445387987149E+01  -1.914445367523550E+01  -1.914445346541943E+01
  -1.914445325029158E+01  -1.914445302971793E+01  -1.914445280356051E+01
  -1.914445257167768E+01  -1.914445233392502E+01  -1.914445209015339E+01
  -1.914445184021074E+01  -1.914445158394092E+01  -1.914445132118345E+01
  -1.914445105177440E+01  -1.914445077724853E+01  -1.914445049491068E+01
  -1.914445020458466E+01  -1.914444990690853E+01  -1.914444960169682E+01
  -1.914444928875935E+01  -1.914444896789956E+01  -1.914444863891693E+01
  -1.914444830160618E+01  -1.914444795575662E+01  -1.914444760115169E+01
  -1.914444723757014E+01  -1.914444686478448E+01  -1.914444648256150E+01
  -1.914444609066289E+01  -1.914444568884322E+01  -1.914444527685159E+01
  -1.914444485443057E+01  -1.914444442131566E+01  -1.914444397723620E+01
  -1.914444352191553E+01  -1.914444305506874E+01  -1.914444257640272E+01
  -1.914444208561952E+01  -1.914444158241305E+01  -1.914444106646742E+01
  -1.914444053746049E+01  -1.914443999506185E+01  -1.914443943893264E+01
  -1.914443886872538E+01  -1.914443828408275E+01  -1.914443768463998E+01
  -1.914443707002287E+01  -1.914443643984671E+01  -1.914443579371770E+01
  -1.914443513123184E+01  -1.914443445197520E+01  -1.914443375552344E+01
  -1.914443304144130E+01  -1.914443230928242E+01  -1.914443155858866E+01
  -1.914443078889132E+01  -1.914442999970966E+01  -1.914442919054920E+01
  -1.914442836090534E+01  -1.914442751026020E+01  -1.914442663808005E+01
  -1.914442574382083E+01  -1.914442482692442E+01  -1.914442388681672E+01
  -1.914442292291036E+01  -1.914442193460305E+01  -1.914442092127724E+01
  -1.914441988229912E+01  -1.914441881701956E+01  -1.914441772477286E+01
  -1.914441660487613E+01  -1.914441545663014E+01  -1.914441427931669E+01
  -1.914441307219973E+01  -1.914441183452487E+01  -1.914441056551897E+01
  -1.914440926438905E+01  -1.914440793032111E+01  -1.914440656248174E+01
  -1.914440516001652E+01  -1.914440372204865E+01  -1.914440224767918E+01
  -1.914440073598679E+01  -1.914439918602661E+01  -1.914439759683014E+01
  -1.914439596740411E+01  -1.914439429672987E+01  -1.914439258376343E+01
  -1.914439082743437E+01  -1.914438902664527E+01  -1.914438718027036E+01
  -1.914438528715534E+01  -1.914438334611752E+01  -1.914438135594373E+01
  -1.914437931539004E+01  -1.914437722318132E+01  -1.914437507801001E+01
  -1.914437287853535E+01  -1.914437062338305E+01  -1.914436831114338E+01
  -1.914436594037063E+01  -1.914436350958441E+01  -1.914436101726546E+01
  -1.914435846185530E+01  -1.914435584175756E+01  -1.914435315533495E+01
  -1.914435040090791E+01  -1.914434757675537E+01  -1.914434468111270E+01
  -1.914434171216990E+01  -1.914433866807181E+01  -1.914433554691598E+01
  -1.914433234675187E+01  -1.914432906557983E+01  -1.914432570134889E+01
  -1.914432225195665E+01  -1.914431871524759E+01  -1.914431508901187E+01
  -1.914431137098380E+01  -1.914430755883866E+01  -1.914430365019451E+01
  -1.914429964260955E+01  -1.914429553357861E+01  -1.914429132053457E+01
  -1.914428700084477E+01  -1.914428257180877E+01  -1.914427803065939E+01
  -1.914427337455962E+01  -1.914426860059908E+01  -1.914426370579491E+01
  -1.914425868708857E+01  -1.914425354134342E+01  -1.914424826534481E+01
  -1.914424285579562E+01  -1.914423730931509E+01  -1.914423162243781E+01
  -1.914422579161061E+01  -1.914421981318984E+01  -1.914421368343969E+01
  -1.914420739853055E+01  -1.914420095453476E+01  -1.914419434742569E+01
  -1.914418757307609E+01  -1.914418062725261E+01  -1.914417350561490E+01
  -1.914416620371396E+01  -1.914415871698719E+01  -1.914415104075681E+01
  -1.914414317022703E+01  -1.914413510048019E+01  -1.914412682647474E+01
  -1.914411834304074E+01  -1.914410964487796E+01  -1.914410072655294E+01
  -1.914409158249331E+01  -1.914408220698594E+01  -1.914407259417427E+01
  -1.914406273805274E+01  -1.914405263246308E+01  -1.914404227109288E+01
  -1.914403164746952E+01  -1.914402075490144E+01  -1.914400958674536E+01
  -1.914399813594136E+01  -1.914398639515864E+01  -1.914397435729112E+01
  -1.914396201474895E+01  -1.914394935981598E+01  -1.914393638461613E+01
  -1.914392308100191E+01  -1.914390944067958E+01  -1.914389545508294E+01
  -1.914388111553256E+01  -1.914386641317425E+01  -1.914385133871576E+01
  -1.914383588259047E+01  -1.914382003526863E+01  -1.914380378698275E+01
  -1.914378712757345E+01  -1.914377004643838E+01  -1.914375253299395E+01
  -1.914373457638167E+01  -1.914371616530710E+01  -1.914369728830940E+01
  -1.914367793352106E+01  -1.914365808896080E+01  -1.914363774227915E+01
  -1.914361688069543E+01  -1.914359549112316E+01  -1.914357356022722E+01
  -1.914355107441348E+01  -1.914352801951173E+01  -1.914350438126009E+01
  -1.914348014492901E+01  -1.914345529511759E+01  -1.914342981655554E+01
  -1.914340369343874E+01  -1.914337690912350E+01  -1.914334944707857E+01
  -1.914332129022672E+01  -1.914329242083854E+01  -1.914326282102407E+01
  -1.914323247223690E+01  -1.914320135556904E+01  -1.914316945162236E+01
  -1.914313674037635E+01  -1.914310320149877E+01  -1.914306881422440E+01
  -1.914303355687668E+01  -1.914299740733587E+01  -1.914296034333345E+01
  -1.914292234169383E+01  -1.914288337863280E+01  -1.914284342982555E+01
  -1.914280247030111E+01  -1.914276047469608E+01  -1.914271741682602E+01
  -1.914267326962762E+01  -1.914262800557236E+01  -1.914258159667209E+01
  -1.914253401385005E+01  -1.914248522719436E+01  -1.914243520668902E+01
  -1.914238392109220E+01  -1.914233133815445E+01  -1.914227742523718E+01
  -1.914222214876651E+01  -1.914216547431853E+01  -1.914210736652604E+01
  -1.914204778909980E+01  -1.914198670493820E+01  -1.914192407613356E+01
  -1.914185986351192E+01  -1.914179402702020E+01  -1.914172652577806E+01
  -1.914165731765964E+01  -1.914158635955240E+01  -1.914151360726413E+01
  -1.914143901551380E+01  -1.914136253787573E+01  -1.914128412664170E+01
  -1.914120373299830E+01  -1.914112130699295E+01  -1.914103679721202E+01
  -1.914095015109119E+01  -1.914086131475827E+01  -1.914077023283570E+01
  -1.914067684868877E+01  -1.914058110422027E+01  -1.914048293986465E+01
  -1.914038229459994E+01  -1.914027910577315E+01  -1.914017330920278E+01
  -1.914006483917154E+01  -1.913995362822403E+01  -1.913983960719242E+01
  -1.913972270519843E+01  -1.913960284964953E+01  -1.913947996608749E+01
  -1.913935397808340E+01  -1.913922480739382E+01  -1.913909237386443E+01
  -1.913895659522600E+01  -1.913881738714458E+01  -1.913867466320835E+01
  -1.913852833484266E+01  -1.913837831127364E+01  -1.913822449937692E+01
  -1.913806680376088E+01  -1.913790512662339E+01  -1.913773936768669E+01
  -1.913756942422123E+01  -1.913739519083824E+01  -1.913721655959980E+01
  -1.913703341984209E+01  -1.913684565808568E+01  -1.913665315809618E+01
  -1.913645580062813E+01  -1.913625346350828E+01  -1.913604602161699E+01
  -1.913583334652821E+01  -1.913561530667403E+01  -1.913539176729214E+01
  -1.913516259013545E+01  -1.913492763356651E+01  -1.913468675242515E+01
  -1.913443979790367E+01  -1.913418661750703E+01  -1.913392705496042E+01
  -1.913366095006717E+01  -1.913338813863138E+01  -1.913310845242199E+01
  -1.913282171900537E+01  -1.913252776165286E+01  -1.913222639924906E+01
  -1.913191744619259E+01  -1.913160071229314E+01  -1.913127600260528E+01
  -1.913094311736652E+01  -1.913060185188233E+01  -1.913025199637503E+01
  -1.912989333587964E+01  -1.912952565010779E+01  -1.912914871334392E+01
  -1.912876229428040E+01  -1.912836615590441E+01  -1.912796005536737E+01
  -1.912754374380775E+01  -1.912711696625003E+01  -1.912667946144501E+01
  -1.912623096169943E+01  -1.912577119275488E+01  -1.912529987360321E+01
  -1.912481671632914E+01  -1.912432142598183E+01  -1.912381370035209E+01
  -1.912329322982900E+01  -1.912275969725039E+01  -1.912221277767483E+01
  -1.912165213821930E+01  -1.912107743789026E+01  -1.912048832736521E+01
  -1.911988444881169E+01  -1.911926543569824E+01  -1.911863091255049E+01
  -1.911798049478433E+01  -1.911731378850639E+01  -1.911663039023887E+01
  -1.911592988672600E+01  -1.911521185473967E+01  -1.911447586081484E+01
  -1.911372146100897E+01  -1.911294820067685E+01  -1.911215561423064E+01
  -1.911134322488159E+01  -1.911051054437748E+01  -1.910965707275710E+01
  -1.910878229806699E+01  -1.910788569610944E+01  -1.910696673016736E+01
  -1.910602485068755E+01  -1.910505949503604E+01  -1.910407008719499E+01
  -1.910305603743719E+01  -1.910201674205748E+01  -1.910095158305231E+01
  -1.909985992778615E+01  -1.909874112869345E+01  -1.909759452294620E+01
  -1.909641943210069E+01  -1.909521516178453E+01  -1.909398100134897E+01
  -1.909271622349122E+01  -1.909142008392517E+01  -1.909009182100616E+01
  -1.908873065535159E+01  -1.908733578948463E+01  -1.908590640743322E+01
  -1.908444167434443E+01  -1.908294073609955E+01  -1.908140271889415E+01
  -1.907982672883544E+01  -1.907821185153964E+01  -1.907655715168913E+01
  -1.907486167261384E+01  -1.907312443585880E+01  -1.907134444073196E+01
  -1.906952066386417E+01  -1.906765205875188E+01  -1.906573755529183E+01
  -1.906377605931285E+01  -1.906176645210381E+01  -1.905970758992582E+01
  -1.905759830352722E+01  -1.905543739764917E+01  -1.905322365051651E+01
  -1.905095581333862E+01  -1.904863260978773E+01  -1.904625273547123E+01
  -1.904381485741682E+01  -1.904131761352900E+01  -1.903875961204373E+01
  -1.903613943098723E+01  -1.903345561761709E+01  -1.903070668786429E+01
  -1.902789112575988E+01  -1.902500738286380E+01  -1.902205387768774E+01
  -1.901902899509967E+01  -1.901593108573826E+01  -1.901275846541048E+01
  -1.900950941448383E+01  -1.900618217727434E+01  -1.900277496142716E+01
  -1.899928593729294E+01  -1.899571323729633E+01  -1.899205495529644E+01
  -1.898830914593576E+01  -1.898447382399963E+01  -1.898054696375520E+01
  -1.897652649827829E+01  -1.897241031878868E+01  -1.896819627397046E+01
  -1.896388216928509E+01  -1.895946576627610E+01  -1.895494478186821E+01
  -1.895031688765890E+01  -1.894557970920134E+01  -1.894073082527603E+01
  -1.893576776715649E+01  -1.893068801786773E+01  -1.892548901142837E+01
  -1.892016813208840E+01  -1.891472271355430E+01  -1.890915003820233E+01
  -1.890344733627975E+01  -1.889761178509424E+01  -1.889164050819128E+01
  -1.888553057451251E+01  -1.887927899754311E+01  -1.887288273444351E+01
  -1.886633868515960E+01  -1.885964369151912E+01  -1.885279453630699E+01
  -1.884578794231856E+01  -1.883862057139430E+01  -1.883128902342692E+01
  -1.882378983534614E+01  -1.881611948007611E+01  -1.880827436546478E+01
  -1.880025083318260E+01  -1.879204515758897E+01  -1.878365354456615E+01
  -1.877507213031577E+01  -1.876629698011746E+01  -1.875732408704634E+01
  -1.874814937064811E+01  -1.873876867556858E+01  -1.872917777013562E+01
  -1.871937234488939E+01  -1.870934801105972E+01  -1.869910029898585E+01
  -1.868862465647866E+01  -1.867791644711940E+01  -1.866697094849252E+01
  -1.865578335035137E+01  -1.864434875270770E+01  -1.863266216384995E+01
  -1.862071849828127E+01  -1.860851257457269E+01  -1.859603911313320E+01
  -1.858329273388675E+01  -1.857026795385847E+01  -1.855695918466236E+01
  -1.854336072988520E+01  -1.852946678236992E+01  -1.851527142138637E+01
  -1.850076860968849E+01  -1.848595219045731E+01  -1.847081588412060E+01
  -1.845535328504635E+01  -1.843955785810867E+01  -1.842342293511996E+01
  -1.840694171112317E+01  -1.839010724054365E+01  -1.837291243319488E+01
  -1.835535005013225E+01  -1.833741269935305E+01  -1.831909283133614E+01
  -1.830038273441781E+01  -1.828127453000033E+01  -1.826176016758521E+01
  -1.824183141963123E+01  -1.822147987623043E+01  -1.820069693959198E+01
  -1.817947381833860E+01  -1.815780152160594E+01  -1.813567085293499E+01
  -1.811307240395978E+01  -1.808999654788046E+01  -1.806643343271735E+01
  -1.804237297433974E+01  -1.801780484926239E+01  -1.799271848720557E+01
  -1.796710306340878E+01  -1.794094749069450E+01  -1.791424041127352E+01
  -1.788697018828164E+01  -1.785912489704406E+01  -1.783069231605581E+01
  -1.780165991766953E+01  -1.777201485848207E+01  -1.774174396940723E+01
  -1.771083374542490E+01  -1.767927033499180E+01  -1.764703952910042E+01
  -1.761412674997139E+01  -1.758051703935761E+01  -1.754619504644157E+01
  -1.751114501530220E+01  -1.747535077192196E+01  -1.743879571070362E+01
  -1.740146278046010E+01  -1.736333446983285E+01  -1.732439279209230E+01
  -1.728461926926492E+01  -1.724399491552134E+01  -1.720250021975799E+01
  -1.716011512729258E+01  -1.711681902058981E+01  -1.707259069892885E+01
  -1.702740835691983E+01  -1.698124956178447E+01  -1.693409122931903E+01
  -1.688590959847916E+01  -1.683668020455876E+01  -1.678637785097856E+01
  -1.673497657977121E+01  -1.668244964094447E+01  -1.662876946103429E+01
  -1.657390761132858E+01  -1.651783477646153E+01  -1.646052072435508E+01
  -1.640193427882066E+01  -1.634204329654626E+01  -1.628081465067730E+01
  -1.621821422375554E+01  -1.615420691340637E+01  -1.608875665484455E+01
  -1.602182646497416E+01  -1.595337851355807E+01  -1.588337422756641E+01
  -1.581177443530841E+01  -1.573853955722221E+01  -1.566362985012330E+01
  -1.558700571117241E+01  -1.550862804668166E+01  -1.542845870900091E+01
  -1.534646100200997E+01  -1.526260025210792E+01  -1.517684443705273E+01
  -1.508916485966486E+01  -1.499953684749605E+01  -1.490794045347752E+01
  -1.481436112682777E+01  -1.471879031882420E+01  -1.462122598520211E+01
  -1.452167294674204E+01  -1.442014307277423E+01  -1.431665525934831E+01
  -1.421123518485049E+01  -1.410391484058728E+01  -1.399473185147871E+01
  -1.388372862124245E+01  -1.377095135566936E+01  -1.365644903502995E+01
  -1.354029730301937E+01  -1.342273974899491E+01  -1.330417669411541E+01
  -1.318485945856203E+01  -1.306482546206821E+01  -1.294407006302903E+01
  -1.282259972549408E+01  -1.270042483578240E+01  -1.257755928077846E+01
  -1.245402009539665E+01  -1.232982720309487E+01  -1.220500326221782E+01
  -1.207957362333863E+01  -1.195356639825031E+01  -1.182701263946316E+01
  -1.169994662963768E+01  -1.157240628296573E+01  -1.144443366472523E+01
  -1.131607564059639E+01  -1.118738467320975E+01  -1.105856522871693E+01
  -1.093046332983366E+01  -1.080394235651778E+01  -1.067875429729592E+01
  -1.055437280384102E+01  -1.043075483310903E+01  -1.030798912005294E+01
  -1.018616200643942E+01  -1.006528409242335E+01  -9.945042704850799E+00
  -9.825109028709708E+00  -9.705705545848335E+00  -9.587196438778433E+00
  -9.469705362448773E+00  -9.353286407453140E+00  -9.237989756436468E+00
  -9.123861154767553E+00  -9.010941363816983E+00  -8.899265600088297E+00
  -8.788862963802266E+00  -8.679755860909150E+00  -8.571959422900736E+00
  -8.465480929221073E+00  -8.360319237522189E+00  -8.256463945430536E+00
  -8.153899031674648E+00  -8.052608428453045E+00  -7.952576272683054E+00
  -7.853786902838390E+00  -7.756224855891778E+00  -7.659874864356273E+00
  -7.564721853417741E+00  -7.470750938152714E+00  -7.377947420825617E+00
  -7.286296788259866E+00  -7.195784709277978E+00  -7.106397032205946E+00
  -7.018119782437894E+00  -6.930939160057242E+00  -6.844841537512895E+00
  -6.759813457348042E+00  -6.675841629968323E+00  -6.592912931425740E+00
  -6.511014401287869E+00  -6.430133240503118E+00  -6.350256809370134E+00
  -6.271372625519022E+00  -6.193468361892722E+00  -6.116531844762858E+00
  -6.040551051798158E+00  -5.965514110163945E+00  -5.891409294629749E+00
  -5.818225025713305E+00  -5.745949867860644E+00  -5.674572527634759E+00
  -5.604081851940133E+00  -5.534466826280942E+00  -5.465716573018906E+00
  -5.397820349663790E+00  -5.330767547195491E+00  -5.264547688398940E+00
  -5.199150426222611E+00  -5.134565542158329E+00  -5.070782944641683E+00
  -5.007792667472982E+00  -4.945584868258275E+00  -4.884149826870028E+00
  -4.823477943927515E+00  -4.763559739296185E+00  -4.704385850606108E+00
  -4.645947031789072E+00  -4.588234151633932E+00  -4.531238192360273E+00
  -4.474950248209757E+00  -4.419361524055153E+00  -4.364463334026710E+00
  -4.310247100155463E+00  -4.256704351033511E+00  -4.203826720490701E+00
  -4.151605946287718E+00  -4.100033868825240E+00  -4.049102429868878E+00
  -3.998803671289882E+00  -3.949129733821195E+00  -3.900072855828857E+00
  -3.851625372098526E+00  -3.803779712636864E+00  -3.756528401487880E+00
  -3.709864055563802E+00  -3.663779383490546E+00  -3.618267184467602E+00
  -3.573320347142082E+00  -3.528931848496963E+00  -3.485094752753187E+00
  -3.441802210285612E+00  -3.399047456552566E+00  -3.356823811038784E+00
  -3.315124676211699E+00  -3.273943536490711E+00  -3.233273957229419E+00
  -3.193109583710550E+00  -3.153444140153358E+00  -3.114271428733476E+00
  -3.075585328614874E+00  -3.037379794993880E+00  -2.999648858155082E+00
  -2.962386622538908E+00  -2.925587265820886E+00  -2.889245038002210E+00
  -2.853354260511721E+00  -2.817909325319053E+00  -2.782904694058739E+00
  -2.748334897165304E+00  -2.714194533019042E+00  -2.680478267102450E+00
  -2.647180831167145E+00  -2.614297022411018E+00  -2.581821702665658E+00
  -2.549749797593742E+00  -2.518076295896324E+00  -2.486796248529898E+00
  -2.455904767933023E+00  -2.425397027262500E+00  -2.395268259638863E+00
  -2.365513757401174E+00  -2.336128871370987E+00  -2.307109010125321E+00
  -2.278449639278681E+00  -2.250146280773890E+00  -2.222194512181772E+00
  -2.194589966009536E+00  -2.167328329017744E+00  -2.140405341545879E+00
  -2.113816796846290E+00  -2.087558540426524E+00  -2.061626469399914E+00
  -2.036016531844269E+00  -2.010724726168673E+00  -1.985747100488168E+00
  -1.961079752006308E+00  -1.936718826405451E+00  -1.912660517244625E+00
  -1.888901065364980E+00  -1.865436758302602E+00  -1.842263929708667E+00
  -1.819378958776822E+00  -1.796778269677638E+00  -1.774458331000155E+00
  -1.752415655200284E+00  -1.730646798056100E+00  -1.709148358129885E+00
  -1.687916976236797E+00  -1.666949334920182E+00  -1.646242157933326E+00
  -1.625792209727666E+00  -1.605596294947350E+00  -1.585651257930002E+00
  -1.565953982213752E+00  -1.546501390050311E+00  -1.527290441924112E+00
  -1.508318136077426E+00  -1.489581508041323E+00  -1.471077630172510E+00
  -1.452803611195858E+00  -1.434756595752643E+00  -1.416933763954393E+00
  -1.399332330942242E+00  -1.381949546451797E+00  -1.364782694383368E+00
  -1.347829092377562E+00  -1.331086091396146E+00  -1.314551075308088E+00
  -1.298221460480783E+00  -1.282094695376313E+00  -1.266168260152749E+00
  -1.250439666270412E+00  -1.234906456102988E+00  -1.219566202553524E+00
  -1.204416508675150E+00  -1.189455007296539E+00  -1.174679360652022E+00
  -1.160087260016273E+00  -1.145676425343570E+00  -1.131444604911502E+00
  -1.117389574969091E+00  -1.103509139389533E+00  -1.089801129326305E+00
  -1.076263402783048E+00  -1.062893844657527E+00  -1.049690365827745E+00
  -1.036650903223719E+00  -1.023773419403371E+00  -1.011055902234203E+00
  -9.984963645788714E-01  -9.860928439846639E-01  -9.738434023770797E-01
  -9.617461257561734E-01  -9.497991236705809E-01  -9.380005298560038E-01
  -9.263485005087287E-01  -9.148412149762252E-01  -9.034768752224838E-01
  -8.922537055470851E-01  -8.811699523077268E-01  -8.702238836462138E-01
  -8.594137892178536E-01  -8.487379799241960E-01  -8.381947876491200E-01
  -8.277825649981724E-01  -8.174996850411596E-01  -8.073445410579709E-01
  -7.973155462873022E-01  -7.874111336796248E-01  -7.776297580330375E-01
  -7.679698858089179E-01  -7.584300106846564E-01  -7.490086417916901E-01
  -7.397043070220152E-01  -7.305155525544373E-01  -7.214409426274180E-01
  -7.124790593147388E-01  -7.036285023039360E-01  -6.948878886775125E-01
  -6.862558526968416E-01  -6.777310455887745E-01  -6.693121353348945E-01
  -6.609978065280571E-01  -6.527867599023603E-01  -6.446777125359984E-01
  -6.366693973738201E-01  -6.287605631002910E-01  -6.209499739439632E-01
  -6.132364094843925E-01  -6.056186644614378E-01  -5.980955485869398E-01
  -5.906658863587398E-01  -5.833285168769969E-01  -5.760822936628039E-01
  -5.689260844790401E-01  -5.618587711534602E-01  -5.548792494039806E-01
  -5.479864286661261E-01  -5.411792319226354E-01  -5.344565955351673E-01
  -5.278174690781074E-01  -5.212608151744422E-01  -5.147856093336572E-01
  -5.083908397916685E-01  -5.020755073527240E-01  -4.958386252332803E-01
  -4.896792189078196E-01  -4.835963259565701E-01  -4.775889959151347E-01
  -4.716562901259714E-01  -4.657972815919566E-01  -4.600110548306144E-01
  -4.542967057324881E-01  -4.486533414189076E-01  -4.430800801027159E-01
  -4.375760509504928E-01  -4.321403939464870E-01  -4.267722597582309E-01
  -4.214708096038376E-01  -4.162352151209342E-01  -4.110646582372296E-01
  -4.059583310426929E-01  -4.009154356633093E-01  -3.959351841364179E-01
  -3.910167982875841E-01  -3.861595096090118E-01  -3.813625591394643E-01
  -3.766251973456697E-01  -3.719466840052111E-01  -3.673262880908598E-01
  -3.627632876563529E-01  -3.582569697235907E-01  -3.538066301712266E-01
  -3.494115736246526E-01  -3.450711133473409E-01  -3.407845711335416E-01
  -3.365512772023142E-01  -3.323705700928679E-01  -3.282417965612123E-01
  -3.241643114780827E-01  -3.201374777281382E-01  -3.161606661104142E-01
  -3.122332552400031E-01  -3.083546314509674E-01  -3.045241887004482E-01
  -3.007413284739723E-01  -2.970054596919338E-01  -2.933159986172338E-01
  -2.896723687640747E-01  -2.860740008078778E-01  -2.825203324963287E-01
  -2.790108085615247E-01  -2.755448806332099E-01  -2.721220071530949E-01
  -2.687416532902341E-01  -2.654032908574585E-01  -2.621063982288471E-01
  -2.588504602582181E-01  -2.556349681986402E-01  -2.524594196229368E-01
  -2.493233183451816E-01  -2.462261743431706E-01  -2.431675036818512E-01
  -2.401468284377108E-01  -2.371636766240962E-01  -2.342175821174669E-01
  -2.313080845845634E-01  -2.284347294104757E-01  -2.255970676276128E-01
  -2.227946558455476E-01  -2.200270561817370E-01  -2.172938361931038E-01
  -2.145945688084631E-01  -2.119288322617951E-01  -2.092962100263406E-01
  -2.066962907495188E-01  -2.041286681886539E-01  -2.015929411474960E-01
  -1.990887134135368E-01  -1.966155936960977E-01  -1.941731955651907E-01
  -1.917611373911395E-01  -1.893790422849464E-01  -1.870265380394053E-01
  -1.847032570709413E-01  -1.824088363621761E-01  -1.801429174052065E-01
  -1.779051461455845E-01  -1.756951729269991E-01  -1.735126524366382E-01
  -1.713572436512343E-01  -1.692286097837803E-01  -1.671264182309030E-01
  -1.650503405208958E-01  -1.630000522623927E-01  -1.609752330936814E-01
  -1.589755666326479E-01  -1.570007404273387E-01  -1.550504459071422E-01
  -1.531243783345712E-01  -1.512222367576486E-01  -1.493437239628838E-01
  -1.474885464288300E-01  -1.456564142802238E-01  -1.438470412426892E-01
  -1.420601445980075E-01  -1.402954451399431E-01  -1.385526671306149E-01
  -1.368315382574138E-01  -1.351317895904512E-01  -1.334531555405396E-01
  -1.317953738176941E-01  -1.301581853901471E-01  -1.285413344438764E-01
  -1.269445683426320E-01  -1.253676375884616E-01  -1.238102957827270E-01
  -1.222722995876023E-01  -1.207534086880533E-01  -1.192533857542866E-01
  -1.177719964046666E-01  -1.163090091690940E-01  -1.148641954528365E-01
  -1.134373295008116E-01  -1.120281883623113E-01  -1.106365518561655E-01
  -1.092622025363393E-01  -1.079049256579548E-01  -1.065645091437389E-01
  -1.052407435508839E-01  -1.039334220383224E-01  -1.026423403344088E-01
  -1.013672967049998E-01  -1.001080919219344E-01
  </PP_LOCAL>
  <PP_NONLOCAL>
    <PP_BETA.1 index="1" label="2S" angular_momentum="0" cutoff_radius_index="747" cutoff_radius="1.00000000000000" ultrasoft_cutoff_radius="1.30000000000000">
   3.615195649026633E-03   3.660669207898322E-03   3.706714753558403E-03
   3.753339480708544E-03   3.802621197724065E-03   3.847110973277529E-03
   3.897452695415214E-03   3.943518735473536E-03   3.995817413987864E-03
   4.048493029749300E-03   4.099912552865188E-03   4.148551117860527E-03
   4.201282304207639E-03   4.255103556845261E-03   4.303968588716088E-03
   4.362520152787007E-03   4.416168719814713E-03   4.468043976053986E-03
   4.525564140656940E-03   4.582307823242801E-03   4.640461825585744E-03
   4.701472617656632E-03   4.760338580511343E-03   4.819951560252264E-03
   4.881779197590211E-03   4.941717872843775E-03   5.004244534216905E-03
   5.066103831916281E-03   5.132732409027244E-03   5.192447033804101E-03
   5.262320532171245E-03   5.323691838863651E-03   5.391289641411917E-03
   5.462397053392389E-03   5.529829578030013E-03   5.598674472802947E-03
   5.666777201217867E-03   5.742898951076061E-03   5.813936117740559E-03
   5.886098577367382E-03   5.958039557039455E-03   6.036693754742285E-03
   6.110270287610145E-03   6.186843594205127E-03   6.266896002146971E-03
   6.346514900565633E-03   6.424847488229912E-03   6.506823624489400E-03
   6.588263918712187E-03   6.670948619657502E-03   6.755182069387647E-03
   6.840408958961125E-03   6.924177088882502E-03   7.011702326477035E-03
   7.099388335480003E-03   7.193230119604224E-03   7.278376186528004E-03
   7.372442389751682E-03   7.465196320090156E-03   7.556842101371558E-03
   7.654215109261314E-03   7.749801192383929E-03   7.845838143954731E-03
   7.945772636670331E-03   8.045695189740798E-03   8.146102425961102E-03
   8.250809396795705E-03   8.352559340417134E-03   8.458292107273918E-03
   8.566099827095053E-03   8.671595392950884E-03   8.781783046825142E-03
   8.892742670742720E-03   9.003941175243835E-03   9.117042232497749E-03
   9.230998876809504E-03   9.349066097818576E-03   9.465435903931743E-03
   9.583391250607171E-03   9.704626533210095E-03   9.825749067102194E-03
   9.950705979920343E-03   1.007607499964529E-02   1.020353851459674E-02
   1.033079640412930E-02   1.046239059097072E-02   1.059167443277566E-02
   1.072697486543155E-02   1.086095497608802E-02   1.099823038580691E-02
   1.113591186793146E-02   1.127406733521609E-02   1.141823822996600E-02
   1.156131334906241E-02   1.170623459903482E-02   1.185411763699259E-02
   1.200256679849238E-02   1.215411556622678E-02   1.230688306123012E-02
   1.246246228551777E-02   1.261921014954452E-02   1.277581725242775E-02
   1.293875447484039E-02   1.310033290877638E-02   1.326482324601300E-02
   1.343231501064468E-02   1.360149837815253E-02   1.377262795481876E-02
   1.394492739041148E-02   1.412181156684650E-02   1.429803408399527E-02
   1.447788725253618E-02   1.466030008161132E-02   1.484484839428898E-02
   1.503153474671343E-02   1.522024293335203E-02   1.541195514768284E-02
   1.560650213775064E-02   1.580154330910005E-02   1.600095143713628E-02
   1.620230790983990E-02   1.640590793286942E-02   1.661207071924561E-02
   1.682195821341750E-02   1.703207235490359E-02   1.724761417649240E-02
   1.746411269569395E-02   1.768387394618476E-02   1.790555669295274E-02
   1.813162104985722E-02   1.835949810623924E-02   1.859048518885459E-02
   1.882441374456750E-02   1.906099595934013E-02   1.930020387803194E-02
   1.954333790242152E-02   1.978941971787812E-02   2.003847693012370E-02
   2.029004629060399E-02   2.054509135884261E-02   2.080400388694023E-02
   2.106489052000241E-02   2.133107338765805E-02   2.159873430884160E-02
   2.187099350539995E-02   2.214501451941980E-02   2.242476541263219E-02
   2.270652000416098E-02   2.299213688341548E-02   2.328197160364887E-02
   2.357403530211613E-02   2.387052597099246E-02   2.417088648193233E-02
   2.447504482558835E-02   2.478290345306644E-02   2.509426871219261E-02
   2.541016307900373E-02   2.572947395455716E-02   2.605344829392675E-02
   2.638080604666093E-02   2.671265232353182E-02   2.704887269150236E-02
   2.738934519104069E-02   2.773357140033011E-02   2.808233993653986E-02
   2.843533997957798E-02   2.879271454720278E-02   2.915548599507350E-02
   2.952181256922670E-02   2.989370589272627E-02   3.026963784536602E-02
   3.065069186004921E-02   3.103568011964813E-02   3.142616421948469E-02
   3.182170303354231E-02   3.222172051062172E-02   3.262681675757073E-02
   3.303801149013164E-02   3.345284877853122E-02   3.387409646091422E-02
   3.429962342955228E-02   3.473127773544726E-02   3.516826431591830E-02
   3.561061720901665E-02   3.605826048247107E-02   3.651193137068426E-02
   3.697128516039383E-02   3.743618033651830E-02   3.790756562910957E-02
   3.838416176874154E-02   3.886698086256596E-02   3.935551774949808E-02
   3.985083277092744E-02   4.035196980989481E-02   4.085950544229822E-02
   4.137333559152939E-02   4.189406184592626E-02   4.242045388929117E-02
   4.295480509979283E-02   4.349477727130291E-02   4.404194175825549E-02
   4.459533192721704E-02   4.515668257903388E-02   4.572463792352338E-02
   4.629975939039427E-02   4.688197076254963E-02   4.747189649255790E-02
   4.806896537087824E-02   4.867347274643957E-02   4.928581982862346E-02
   4.990567934289974E-02   5.053370471024909E-02   5.116926459754428E-02
   5.181246894630898E-02   5.246452586884731E-02   5.312421533864431E-02
   5.379274324355465E-02   5.446922429259393E-02   5.515420749046207E-02
   5.584789807462609E-02   5.655070933368889E-02   5.726166707965530E-02
   5.798195619337110E-02   5.871105922333564E-02   5.944986903596772E-02
   6.019742630450919E-02   6.095474218476848E-02   6.172127209400224E-02
   6.249771418332983E-02   6.328374581100527E-02   6.407986994570902E-02
   6.488592636982660E-02   6.570185565381481E-02   6.652828369966624E-02
   6.736497479290415E-02   6.821235667411196E-02   6.907056664230982E-02
   6.993920138078424E-02   7.081896071851113E-02   7.170967340522483E-02
   7.261151934395271E-02   7.352495059346775E-02   7.444957587895829E-02
   7.538616075786964E-02   7.633432650126037E-02   7.729456162990544E-02
   7.826662600292533E-02   7.925107749249194E-02   8.024783787525713E-02
   8.125701767419713E-02   8.227907233361043E-02   8.331405761050936E-02
   8.436205846389777E-02   8.542322892358545E-02   8.649742096837709E-02
   8.758538455767140E-02   8.868692587783467E-02   8.980252535713040E-02
   9.093200483594244E-02   9.207573282567250E-02   9.323374442320043E-02
   9.440659196088441E-02   9.559390065694118E-02   9.679622114266573E-02
   9.801364598184681E-02   9.924656457330039E-02   1.004948664907831E-01
   1.017587319830237E-01   1.030385528125868E-01   1.043345721255293E-01
   1.056467083661647E-01   1.069755208739109E-01   1.083209364508433E-01
   1.096833036348870E-01   1.110628064639492E-01   1.124596636873580E-01
   1.138742255139384E-01   1.153063454346446E-01   1.167565991339594E-01
   1.182249320002120E-01   1.197120416841870E-01   1.212175065984089E-01
   1.227420827203629E-01   1.242857310567724E-01   1.258488456587881E-01
   1.274316461359772E-01   1.290343509901037E-01   1.306571195239050E-01
   1.323003080292071E-01   1.339643653296065E-01   1.356490404988784E-01
   1.373550292588817E-01   1.390825525882062E-01   1.408317016689786E-01
   1.426028275960145E-01   1.443962806697103E-01   1.462122982132472E-01
   1.480510383610554E-01   1.499128582678053E-01   1.517983346205305E-01
   1.537072265766057E-01   1.556403446523897E-01   1.575976850938292E-01
   1.595795209157633E-01   1.615864450384608E-01   1.636184728699670E-01
   1.656761206121939E-01   1.677595334912843E-01   1.698691914636044E-01
   1.720053710366991E-01   1.741685419516297E-01   1.763586360661438E-01
   1.785763831617813E-01   1.808220069381661E-01   1.830958715385520E-01
   1.853982791536815E-01   1.877296642556574E-01   1.900903353581826E-01
   1.924806061253586E-01   1.949010382244254E-01   1.973517434791157E-01
   1.998333035120246E-01   2.023461515328431E-01   2.048905112449546E-01
   2.074667875473080E-01   2.100754375143925E-01   2.127169243715636E-01
   2.153914942997797E-01   2.180999141645126E-01   2.208420137334768E-01
   2.236187822522155E-01   2.264303895787023E-01   2.292774202543031E-01
   2.321600504049424E-01   2.350788935017083E-01   2.380345991439765E-01
   2.410272162823968E-01   2.440575491369144E-01   2.471258684833222E-01
   2.502328219074168E-01   2.533786649643890E-01   2.565640791067900E-01
   2.597895184496859E-01   2.630554604791469E-01   2.663623805430770E-01
   2.697108381252624E-01   2.731013491407808E-01   2.765344272132069E-01
   2.800105426398085E-01   2.835303838148446E-01   2.870943917628712E-01
   2.907031571796717E-01   2.943571511209773E-01   2.980570236206144E-01
   3.018034533730840E-01   3.055966866390789E-01   3.094377344488950E-01
   3.133268428508709E-01   3.172648330729562E-01   3.212522240324280E-01
   3.252895831452198E-01   3.293776884035791E-01   3.335169632901960E-01
   3.377082334340300E-01   3.419520748457172E-01   3.462491354323562E-01
   3.506000948938142E-01   3.550055903277562E-01   3.594663649964658E-01
   3.639830576309069E-01   3.685563739898012E-01   3.731870235611336E-01
   3.778756888565797E-01   3.826232062473229E-01   3.874301700902523E-01
   3.922973204466422E-01   3.972255969152476E-01   4.022154884178222E-01
   4.072679914121782E-01   4.123837264829762E-01   4.175635873553407E-01
   4.228082782355109E-01   4.281186624209070E-01   4.334955074440670E-01
   4.389397678689360E-01   4.444521066250662E-01   4.500335022410118E-01
   4.556846828651366E-01   4.614066372969692E-01   4.672001779966628E-01
   4.730661938172727E-01   4.790055482742455E-01   4.850192281997652E-01
   4.911081433056017E-01   4.972731568743241E-01   5.035152525598070E-01
   5.098353506109490E-01   5.162344475705192E-01   5.227135283191124E-01
   5.292735709252554E-01   5.359155246208180E-01   5.426404259655486E-01
   5.494493021135431E-01   5.563432319794188E-01   5.633232086262359E-01
   5.703902251986293E-01   5.775454997927509E-01   5.847900020824781E-01
   5.921248295459796E-01   5.995511797110140E-01   6.070700458555871E-01
   6.146827409676483E-01   6.223901827247253E-01   6.301937105734519E-01
   6.380944058894515E-01   6.460934738261876E-01   6.541921508961268E-01
   6.623916011324988E-01   6.706930490490954E-01   6.790977826586539E-01
   6.876070161275187E-01   6.962220873824050E-01   7.049441403244128E-01
   7.137746194023427E-01   7.227147388869799E-01   7.317658452681552E-01
   7.409293277754951E-01   7.502064991472226E-01   7.595987097981407E-01
   7.691073855752029E-01   7.787339411279026E-01   7.884797419827496E-01
   7.983462325756259E-01   8.083348966132942E-01   8.184471442959058E-01
   8.286844673907510E-01   8.390483834388380E-01   8.495403843375406E-01
   8.601619895758592E-01   8.709147711010452E-01   8.818001796942898E-01
   8.928199496484979E-01   9.039755314479194E-01   9.152686219915154E-01
   9.267007808196688E-01   9.382736621779966E-01   9.499889403654151E-01
   9.618482614736852E-01   9.738533048434501E-01   9.860058125453097E-01
   9.983074431057588E-01   1.010759990969309E+00   1.023365148460586E+00
   1.036124717876111E+00   1.049040529728922E+00   1.062114304601419E+00
   1.075347876271135E+00   1.088743115753617E+00   1.102301830984342E+00
   1.116025927920385E+00   1.129917251095790E+00   1.143977725223181E+00
   1.158209271979016E+00   1.172613772038215E+00   1.187193232230751E+00
   1.201949575302185E+00   1.216884803245968E+00   1.232000891144494E+00
   1.247299858928955E+00   1.262783720917028E+00   1.278454528571642E+00
   1.294314326564011E+00   1.310365187901267E+00   1.326609198688093E+00
   1.343048430454788E+00   1.359685038657943E+00   1.376521109328337E+00
   1.393558781569114E+00   1.410800221645070E+00   1.428247576976307E+00
   1.445903023339486E+00   1.463768768863027E+00   1.481846985921482E+00
   1.500139883338452E+00   1.518649694144901E+00   1.537378632361238E+00
   1.556328916422343E+00   1.575502846122889E+00   1.594902615248989E+00
   1.614530507752141E+00   1.634388796539637E+00   1.654479728738053E+00
   1.674805614397897E+00   1.695368703512536E+00   1.716171296189582E+00
   1.737215678207249E+00   1.758504141804821E+00   1.780038962302456E+00
   1.801822419926488E+00   1.823856826963191E+00   1.846144441114415E+00
   1.868687557170091E+00   1.891488429318617E+00   1.914549338535291E+00
   1.937872546320918E+00   1.961460272881968E+00   1.985314781503270E+00
   2.009438286372735E+00   2.033833007945486E+00   2.058501106954839E+00
   2.083444796264814E+00   2.108666206419208E+00   2.134167480126379E+00
   2.159950702474628E+00   2.186017995175810E+00   2.212371381492154E+00
   2.239012893806887E+00   2.265944512208343E+00   2.293168197523322E+00
   2.320685870156300E+00   2.348499375832397E+00   2.376610571386056E+00
   2.405021210149428E+00   2.433733041289841E+00   2.462747729123134E+00
   2.492066886982933E+00   2.521692084558151E+00   2.551624800442298E+00
   2.581866457690968E+00   2.612418410876465E+00   2.643281918755036E+00
   2.674458193693429E+00   2.705948311592813E+00   2.737753315471831E+00
   2.769874097259130E+00   2.802311486679177E+00   2.835066187774302E+00
   2.868138815196978E+00   2.901529827125991E+00   2.935239601945057E+00
   2.969268354692758E+00   3.003616180368933E+00   3.038283041178705E+00
   3.073268716756118E+00   3.108572869637776E+00   3.144194963859103E+00
   3.180134325852752E+00   3.216390065046291E+00   3.252961133795036E+00
   3.289846270631806E+00   3.327044012779368E+00   3.364552685996458E+00
   3.402370391377858E+00   3.440494991221243E+00   3.478924094024940E+00
   3.517655093755849E+00   3.556685067671239E+00   3.596010837175712E+00
   3.635628949612169E+00   3.675535626331353E+00   3.715726790410265E+00
   3.756198035977754E+00   3.796944606775043E+00   3.837961414556467E+00
   3.879242983452905E+00   3.920783456307262E+00   3.962576585265587E+00
   4.004615712225160E+00   4.046893739406961E+00   4.089403119770687E+00
   4.132135858961135E+00   4.175083460073701E+00   4.218236949186718E+00
   4.261586798393225E+00   4.305122987298482E+00   4.348834895851937E+00
   4.392711346311792E+00   4.436740556734549E+00   4.480910117738965E+00
   4.525206983514174E+00   4.569617430719511E+00   4.614127046291848E+00
   4.658720713518548E+00   4.703382554151929E+00   4.748095931381492E+00
   4.792843425391233E+00   4.837606790921065E+00   4.882366912252053E+00
   4.927103837153766E+00   4.971796676720352E+00   5.016423623156840E+00
   5.060961893214021E+00   5.105387713984626E+00   5.149676287315700E+00
   5.193801741112452E+00   5.237737128613112E+00   5.281454357096912E+00
   5.324924196146476E+00   5.368116200321239E+00   5.410998701215881E+00
   5.453538766218657E+00   5.495702158268223E+00   5.537453287445182E+00
   5.578755221385229E+00   5.619569578354429E+00   5.659856545913350E+00
   5.699574813492312E+00   5.738681549125879E+00   5.777132345019993E+00
   5.814881197358694E+00   5.851880457999130E+00   5.888080791032515E+00
   5.923431148203406E+00   5.957878717590752E+00   5.991368895538528E+00
   6.023845250335533E+00   6.055249470164753E+00   6.085521355080239E+00
   6.114598751885666E+00   6.142417549169764E+00   6.168911618799058E+00
   6.194012812829982E+00   6.217650911128857E+00   6.239753606084292E+00
   6.260246475744793E+00   6.279052965608585E+00   6.296094359698316E+00
   6.311289774994520E+00   6.324556139937911E+00   6.335808188821076E+00
   6.344958452198583E+00   6.351917269077532E+00   6.356592767997867E+00
   6.358890898471358E+00   6.358715433661828E+00   6.355967994470632E+00
   6.350548070471362E+00   6.342353064621292E+00   6.331278331796256E+00
   6.317217222373841E+00   6.300061161685420E+00   6.279699689838722E+00
   6.256020571208239E+00   6.228909865787571E+00   6.198252036569642E+00
   6.163930069640401E+00   6.125825597208788E+00   6.083819045806948E+00
   6.037789791464860E+00   5.987616332532099E+00   5.933176486109829E+00
   5.874347597908582E+00   5.811006768176767E+00   5.743031104709928E+00
   5.670297994888443E+00   5.592685400230920E+00   5.510072173906011E+00
   5.422338396502994E+00   5.329365770481289E+00   5.231037989913844E+00
   5.127241183638191E+00   5.017864379148179E+00   4.902799975113638E+00
   4.781944279142564E+00   4.655198065122391E+00   4.522467161104686E+00
   4.383663090619820E+00   4.238703738226320E+00   4.087514070879024E+00
   3.930026881092871E+00   3.766183592124946E+00   3.595935105814078E+00
   3.419242682184063E+00   3.236078881508490E+00   3.046428550606024E+00
   2.850289853436720E+00   2.647675360024330E+00   2.438613183362229E+00
   2.223148168719035E+00   2.001343135942193E+00   1.773280176792632E+00
   1.539062006023087E+00   1.298813363399034E+00   1.052682479258699E+00
   8.008425776730661E-01   5.434934547498216E-01   2.808630935845926E-01
   1.320933687928516E-02  -2.591783837021921E-01  -5.359772762618675E-01
  -8.168293638152733E-01  -1.101339607198533E+00  -1.389073995786561E+00
  -1.679557579130538E+00  -1.972272467447667E+00  -2.266655792412514E+00
  -2.562097623105949E+00  -2.857938863505893E+00  -3.153469100020551E+00
  -3.447924434108479E+00  -3.740485288386864E+00  -4.030274177384612E+00
  -4.316353471835740E+00  -4.597723136577017E+00  -4.873318447700697E+00
  -5.142007705299918E+00  -5.402589915893234E+00  -5.653792479172676E+00
  -5.894268840566795E+00  -6.122596143547639E+00  -6.337272860233032E+00
  -6.536716404396838E+00  -6.719260724966613E+00  -6.883153878672573E+00
  -7.026555574963108E+00  -7.147534699401616E+00  -7.244066800926152E+00
  -7.314031562015018E+00  -7.355210230151796E+00  -7.365283033682271E+00
  -7.341826585712257E+00  -7.282311280417991E+00  -7.184098719848469E+00
  -7.044439179240421E+00  -6.860469176902035E+00  -6.629209177606564E+00
  -6.347561517841336E+00  -6.012308640385475E+00  -5.620111751627592E+00
  -5.167510023466832E+00  -4.650920771606735E+00  -4.066634237415675E+00
  -3.410897645781077E+00  -2.679834055900141E+00  -1.871278994138042E+00
  -9.673041476801416E-01  -1.043682678644068E-01   1.028420157323969E-02
  -9.888970845354519E-04   2.205254926174865E-04   1.900958295238011E-04
   2.802707732874084E-04   3.561383066288005E-04   4.310467609889559E-04
   5.036478695901405E-04   5.740543059879573E-04   6.422347513211921E-04
   7.081761597772906E-04   7.718642925730606E-04   8.332876654797448E-04
   8.924358750866914E-04   9.492991380681427E-04   1.003869583090171E-03
   1.056139490790582E-03   1.106100177379004E-03   1.153762581693974E-03
   1.199008012038658E-03   1.242023093463171E-03   1.282697076723154E-03
   1.321034846234222E-03   1.357030720851942E-03   1.390678033667861E-03
   1.421972695306023E-03   1.450908391846987E-03   1.477479542258378E-03
   1.501681167237342E-03   0.000000000000000E+00   0.000000000000000E+00
   0.000000000000000E+00   0.000000000000000E+00   0.000000000000000E+00
   0.000000000000000E+00   0.000000000000000E+00   0.000000000000000E+00
   0.000000000000000E+00   0.000000000000000E+00   0.000000000000000E+00
   0.000000000000000E+00   0.000000000000000E+00   0.000000000000000E+00
   0.000000000000000E+00   0.000000000000000E+00   0.000000000000000E+00
   0.000000000000000E+00   0.000000000000000E+00   0.000000000000000E+00
   0.000000000000000E+00   0.000000000000000E+00   0.000000000000000E+00
   0.000000000000000E+00   0.000000000000000E+00   0.000000000000000E+00
   0.000000000000000E+00   0.000000000000000E+00   0.000000000000000E+00
   0.000000000000000E+00   0.000000000000000E+00   0.000000000000000E+00
   0.000000000000000E+00   0.000000000000000E+00   0.000000000000000E+00
   0.000000000000000E+00   0.000000000000000E+00   0.000000000000000E+00
   0.000000000000000E+00   0.000000000000000E+00   0.000000000000000E+00
   0.000000000000000E+00   0.000000000000000E+00   0.000000000000000E+00
   0.000000000000000E+00   0.000000000000000E+00   0.000000000000000E+00
   0.000000000000000E+00   0.000000000000000E+00   0.000000000000000E+00
   0.000000000000000E+00   0.000000000000000E+00   0.000000000000000E+00
   0.000000000000000E+00   0.000000000000000E+00   0.000000000000000E+00
   0.000000000000000E+00   0.000000000000000E+00   0.000000000000000E+00
   0.000000000000000E+00   0.000000000000000E+00   0.000000000000000E+00
   0.000000000000000E+00   0.000000000000000E+00   0.000000000000000E+00
   0.000000000000000E+00   0.000000000000000E+00   0.000000000000000E+00
   0.000000000000000E+00   0.000000000000000E+00   0.000000000000000E+00
   0.000000000000000E+00   0.000000000000000E+00   0.000000000000000E+00
   0.000000000000000E+00   0.000000000000000E+00   0.000000000000000E+00
   0.000000000000000E+00   0.000000000000000E+00   0.000000000000000E+00
   0.000000000000000E+00   0.000000000000000E+00   0.000000000000000E+00
   0.000000000000000E+00   0.000000000000000E+00   0.000000000000000E+00
   0.000000000000000E+00   0.000000000000000E+00   0.000000000000000E+00
   0.000000000000000E+00   0.000000000000000E+00   0.000000000000000E+00
   0.000000000000000E+00   0.000000000000000E+00   0.000000000000000E+00
   0.000000000000000E+00   0.000000000000000E+00   0.000000000000000E+00
   0.000000000000000E+00   0.000000000000000E+00   0.000000000000000E+00
   0.000000000000000E+00   0.000000000000000E+00   0.000000000000000E+00
   0.000000000000000E+00   0.000000000000000E+00   0.000000000000000E+00
   0.000000000000000E+00   0.000000000000000E+00   0.000000000000000E+00
   0.000000000000000E+00   0.000000000000000E+00   0.000000000000000E+00
   0.000000000000000E+00   0.000000000000000E+00   0.000000000000000E+00
   0.000000000000000E+00   0.000000000000000E+00   0.000000000000000E+00
   0.000000000000000E+00   0.000000000000000E+00   0.000000000000000E+00
   0.000000000000000E+00   0.000000000000000E+00   0.000000000000000E+00
   0.000000000000000E+00   0.000000000000000E+00   0.000000000000000E+00
   0.000000000000000E+00   0.000000000000000E+00   0.000000000000000E+00
   0.000000000000000E+00   0.000000000000000E+00   0.000000000000000E+00
   0.000000000000000E+00   0.000000000000000E+00   0.000000000000000E+00
   0.000000000000000E+00   0.000000000000000E+00   0.000000000000000E+00
   0.000000000000000E+00   0.000000000000000E+00   0.000000000000000E+00
   0.000000000000000E+00   0.000000000000000E+00   0.000000000000000E+00
   0.000000000000000E+00   0.000000000000000E+00   0.000000000000000E+00
   0.000000000000000E+00   0.000000000000000E+00   0.000000000000000E+00
   0.000000000000000E+00   0.000000000000000E+00   0.000000000000000E+00
   0.000000000000000E+00   0.000000000000000E+00   0.000000000000000E+00
   0.000000000000000E+00   0.000000000000000E+00   0.000000000000000E+00
   0.000000000000000E+00   0.000000000000000E+00   0.000000000000000E+00
   0.000000000000000E+00   0.000000000000000E+00   0.000000000000000E+00
   0.000000000000000E+00   0.000000000000000E+00   0.000000000000000E+00
   0.000000000000000E+00   0.000000000000000E+00   0.000000000000000E+00
   0.000000000000000E+00   0.000000000000000E+00   0.000000000000000E+00
   0.000000000000000E+00   0.000000000000000E+00   0.000000000000000E+00
   0.000000000000000E+00   0.000000000000000E+00   0.000000000000000E+00
   0.000000000000000E+00   0.000000000000000E+00   0.000000000000000E+00
   0.000000000000000E+00   0.000000000000000E+00   0.000000000000000E+00
   0.000000000000000E+00   0.000000000000000E+00   0.000000000000000E+00
   0.000000000000000E+00   0.000000000000000E+00   0.000000000000000E+00
   0.000000000000000E+00   0.000000000000000E+00   0.000000000000000E+00
   0.000000000000000E+00   0.000000000000000E+00   0.000000000000000E+00
   0.000000000000000E+00   0.000000000000000E+00   0.000000000000000E+00
   0.000000000000000E+00   0.000000000000000E+00   0.000000000000000E+00
   0.000000000000000E+00   0.000000000000000E+00   0.000000000000000E+00
   0.000000000000000E+00   0.000000000000000E+00   0.000000000000000E+00
   0.000000000000000E+00   0.000000000000000E+00   0.000000000000000E+00
   0.000000000000000E+00   0.000000000000000E+00   0.000000000000000E+00
   0.000000000000000E+00   0.000000000000000E+00   0.000000000000000E+00
   0.000000000000000E+00   0.000000000000000E+00   0.000000000000000E+00
   0.000000000000000E+00   0.000000000000000E+00   0.000000000000000E+00
   0.000000000000000E+00   0.000000000000000E+00   0.000000000000000E+00
   0.000000000000000E+00   0.000000000000000E+00   0.000000000000000E+00
   0.000000000000000E+00   0.000000000000000E+00   0.000000000000000E+00
   0.000000000000000E+00   0.000000000000000E+00   0.000000000000000E+00
   0.000000000000000E+00   0.000000000000000E+00   0.000000000000000E+00
   0.000000000000000E+00   0.000000000000000E+00   0.000000000000000E+00
   0.000000000000000E+00   0.000000000000000E+00   0.000000000000000E+00
   0.000000000000000E+00   0.000000000000000E+00   0.000000000000000E+00
   0.000000000000000E+00   0.000000000000000E+00   0.000000000000000E+00
   0.000000000000000E+00   0.000000000000000E+00   0.000000000000000E+00
   0.000000000000000E+00   0.000000000000000E+00   0.000000000000000E+00
   0.000000000000000E+00   0.000000000000000E+00   0.000000000000000E+00
   0.000000000000000E+00   0.000000000000000E+00   0.000000000000000E+00
   0.000000000000000E+00   0.000000000000000E+00   0.000000000000000E+00
   0.000000000000000E+00   0.000000000000000E+00   0.000000000000000E+00
   0.000000000000000E+00   0.000000000000000E+00   0.000000000000000E+00
   0.000000000000000E+00   0.000000000000000E+00   0.000000000000000E+00
   0.000000000000000E+00   0.000000000000000E+00   0.000000000000000E+00
   0.000000000000000E+00   0.000000000000000E+00   0.000000000000000E+00
   0.000000000000000E+00   0.000000000000000E+00   0.000000000000000E+00
   0.000000000000000E+00   0.000000000000000E+00   0.000000000000000E+00
   0.000000000000000E+00   0.000000000000000E+00   0.000000000000000E+00
   0.000000000000000E+00   0.000000000000000E+00   0.000000000000000E+00
   0.000000000000000E+00   0.000000000000000E+00   0.000000000000000E+00
   0.000000000000000E+00   0.000000000000000E+00   0.000000000000000E+00
   0.000000000000000E+00   0.000000000000000E+00   0.000000000000000E+00
   0.000000000000000E+00   0.000000000000000E+00   0.000000000000000E+00
   0.000000000000000E+00   0.000000000000000E+00   0.000000000000000E+00
   0.000000000000000E+00   0.000000000000000E+00   0.000000000000000E+00
   0.000000000000000E+00   0.000000000000000E+00   0.000000000000000E+00
   0.000000000000000E+00   0.000000000000000E+00
    </PP_BETA.1>
    <PP_BETA.2 index="2" label="2S" angular_momentum="0" cutoff_radius_index="747" cutoff_radius="1.00000000000000" ultrasoft_cutoff_radius="1.30000000000000">
  -5.519826895778721E-03  -5.589257763772934E-03  -5.659561964303526E-03
  -5.730750482531084E-03  -5.805231146709763E-03  -5.874355633746053E-03
  -5.950568854704172E-03  -6.021881651329816E-03  -6.100828804968775E-03
  -6.180413493617053E-03  -6.258729513597565E-03  -6.334017175089877E-03
  -6.414300180994446E-03  -6.496214775719156E-03  -6.572336228645406E-03
  -6.660263016646566E-03  -6.742515170036101E-03  -6.823052155917254E-03
  -6.910469287412638E-03  -6.997171893004583E-03  -7.085779624817178E-03
  -7.178008481953158E-03  -7.267906758092864E-03  -7.359124173475479E-03
  -7.453034496098902E-03  -7.545130840931627E-03  -7.640353063233657E-03
  -7.735234581574477E-03  -7.836020661038889E-03  -7.928849152907418E-03
  -8.033952059390198E-03  -8.129317204493967E-03  -8.232311854645777E-03
  -8.339737966039554E-03  -8.443131164825070E-03  -8.548537302373191E-03
  -8.653283359379649E-03  -8.767770860297688E-03  -8.876728916526508E-03
  -8.987269093739411E-03  -9.097800496520606E-03  -9.216657235477405E-03
  -9.329758962501822E-03  -9.446809726588359E-03  -9.568246287610688E-03
  -9.689528614024528E-03  -9.809631304889863E-03  -9.934396136122667E-03
  -1.005888117831634E-02  -1.018519667648567E-02  -1.031368507920651E-02
  -1.044375304257548E-02  -1.057239923807550E-02  -1.070593204339099E-02
  -1.083995381769361E-02  -1.098164826332400E-02  -1.111349438183692E-02
  -1.125626464187009E-02  -1.139791487710634E-02  -1.153857005240012E-02
  -1.168646451630785E-02  -1.183264296676198E-02  -1.197979558964125E-02
  -1.213192022851793E-02  -1.228450655798748E-02  -1.243808532287934E-02
  -1.259720752176004E-02  -1.275323318479178E-02  -1.291445085935661E-02
  -1.307853414896376E-02  -1.324041133694670E-02  -1.340828068433142E-02
  -1.357750709364340E-02  -1.374753186872087E-02  -1.392025078148848E-02
  -1.409454741793786E-02  -1.427407454817045E-02  -1.445218617589854E-02
  -1.463268735635360E-02  -1.481755229175623E-02  -1.500283295203128E-02
  -1.519312953171910E-02  -1.538446840249934E-02  -1.557887117366995E-02
  -1.577348312270387E-02  -1.597387225269573E-02  -1.617209410229541E-02
  -1.637792867055245E-02  -1.658283569157207E-02  -1.679220515449492E-02
  -1.700263056790108E-02  -1.721426531969880E-02  -1.743354676512182E-02
  -1.765220822558058E-02  -1.787366325971718E-02  -1.809924294615986E-02
  -1.832611227335507E-02  -1.855726495094417E-02  -1.879060109194863E-02
  -1.902785835469484E-02  -1.926720048869407E-02  -1.950702555979975E-02
  -1.975504724950577E-02  -2.000214989436017E-02  -2.025339412908719E-02
  -2.050889611730589E-02  -2.076714512893318E-02  -2.102841731869393E-02
  -2.129184022930861E-02  -2.156138394239657E-02  -2.183091019000416E-02
  -2.210554855908639E-02  -2.238392956069382E-02  -2.266569018943235E-02
  -2.295070878592370E-02  -2.323898170021135E-02  -2.353160389514347E-02
  -2.382840012296780E-02  -2.412665271715483E-02  -2.443087751726428E-02
  -2.473830616439010E-02  -2.504921253185144E-02  -2.536405886750293E-02
  -2.568421528024972E-02  -2.600552302863457E-02  -2.633418961638276E-02
  -2.666488054896610E-02  -2.700039706389565E-02  -2.733914949661986E-02
  -2.768401037376195E-02  -2.803201270120129E-02  -2.838467425167379E-02
  -2.874179831374518E-02  -2.910310181855952E-02  -2.946853039618816E-02
  -2.983962176378302E-02  -3.021527811122263E-02  -3.059548129084427E-02
  -3.097976843191291E-02  -3.136923391412952E-02  -3.176439817815441E-02
  -3.216299810067161E-02  -3.256898476227499E-02  -3.297789416327057E-02
  -3.339337833666861E-02  -3.381214582662689E-02  -3.423886956581512E-02
  -3.466915376529639E-02  -3.510525670093639E-02  -3.554756929624325E-02
  -3.599377108334401E-02  -3.644648809320472E-02  -3.690503930476091E-02
  -3.736940190506693E-02  -3.783945096874408E-02  -3.831498128810301E-02
  -3.879721118396046E-02  -3.928485979373519E-02  -3.977940526500279E-02
  -4.027934182998483E-02  -4.078601128044157E-02  -4.129929523932563E-02
  -4.181905024857613E-02  -4.234474912810599E-02  -4.287727198957370E-02
  -4.341633602940059E-02  -4.396208756326070E-02  -4.451576408083047E-02
  -4.507524924392364E-02  -4.564286250948019E-02  -4.621689175415239E-02
  -4.679857685199346E-02  -4.738658224832926E-02  -4.798276567885840E-02
  -4.858658690253936E-02  -4.919744330557485E-02  -4.981602776507332E-02
  -5.044357371245178E-02  -5.107723512693424E-02  -5.172022466322101E-02
  -5.237015219148683E-02  -5.302913017052263E-02  -5.369629066857423E-02
  -5.437171455766249E-02  -5.505527209213523E-02  -5.574792530494277E-02
  -5.644924807062385E-02  -5.715911477830565E-02  -5.787868995818130E-02
  -5.860642701634489E-02  -5.934362901036611E-02  -6.008965062904753E-02
  -6.084583047624426E-02  -6.161102989256284E-02  -6.238595229765787E-02
  -6.317054315545084E-02  -6.396549094393633E-02  -6.476939307292762E-02
  -6.558501172908143E-02  -6.640955769654183E-02  -6.724497678564678E-02
  -6.809011016366484E-02  -6.894705873896845E-02  -6.981425999696711E-02
  -7.069237886177826E-02  -7.158137485026295E-02  -7.248202291888528E-02
  -7.339365924209140E-02  -7.431669841829891E-02  -7.525160237776596E-02
  -7.619805932341950E-02  -7.715684752854968E-02  -7.812726597982855E-02
  -7.910948984672195E-02  -8.010494692844217E-02  -8.111227047629088E-02
  -8.213289054133111E-02  -8.316581632857656E-02  -8.421173353260658E-02
  -8.527089544520461E-02  -8.634386446531228E-02  -8.742950045360698E-02
  -8.852925335120954E-02  -8.964255516998587E-02  -9.077047819280226E-02
  -9.191195174196365E-02  -9.306820784697600E-02  -9.423862786209891E-02
  -9.542411130218065E-02  -9.662426493864340E-02  -9.783978690051109E-02
  -9.907048228330240E-02  -1.003163473563187E-01  -1.015781709590768E-01
  -1.028556952475538E-01  -1.041494996722827E-01  -1.054597664718296E-01
  -1.067860789326250E-01  -1.081293171380475E-01  -1.094893042777637E-01
  -1.108663286700909E-01  -1.122609484409096E-01  -1.136727623050645E-01
  -1.151027256927698E-01  -1.165504315621142E-01  -1.180165298887925E-01
  -1.195007637034832E-01  -1.210038615123517E-01  -1.225257736799183E-01
  -1.240666923637038E-01  -1.256272053731406E-01  -1.272074344648780E-01
  -1.288075304873378E-01  -1.304277488832445E-01  -1.320679527467878E-01
  -1.337290976555783E-01  -1.354110091861576E-01  -1.371143140212985E-01
  -1.388388647277781E-01  -1.405851517137895E-01  -1.423532870679503E-01
  -1.441439761339169E-01  -1.459568448609820E-01  -1.477926110418655E-01
  -1.496514461686260E-01  -1.515338680713805E-01  -1.534398225349372E-01
  -1.553695867395140E-01  -1.573236917508585E-01  -1.593024935004894E-01
  -1.613059644520658E-01  -1.633348407473088E-01  -1.653890988806561E-01
  -1.674692353543477E-01  -1.695755280565512E-01  -1.717083207420702E-01
  -1.738680949305298E-01  -1.760547577355869E-01  -1.782690660371773E-01
  -1.805110297873873E-01  -1.827815593458930E-01  -1.850802306094586E-01
  -1.874080180372062E-01  -1.897649684211979E-01  -1.921516134084602E-01
  -1.945683078448381E-01  -1.970153922600644E-01  -1.994931418488881E-01
  -2.020020671782943E-01  -2.045427790468735E-01  -2.071150838058291E-01
  -2.097198795706618E-01  -2.123575319085473E-01  -2.150282324697608E-01
  -2.177324952570798E-01  -2.204708288905082E-01  -2.232436082487472E-01
  -2.260511242621392E-01  -2.288938898526454E-01  -2.317726890822809E-01
  -2.346873416791315E-01  -2.376389044478044E-01  -2.406274815424005E-01
  -2.436534991937569E-01  -2.467177606540591E-01  -2.498203977932434E-01
  -2.529621285344790E-01  -2.561432290465353E-01  -2.593643883753500E-01
  -2.626260403298137E-01  -2.659288603580978E-01  -2.692728767414287E-01
  -2.726590767500783E-01  -2.760878379662488E-01  -2.795597188406886E-01
  -2.830751910206253E-01  -2.866348978106732E-01  -2.902393235260066E-01
  -2.938889728634910E-01  -2.975846291892057E-01  -3.013265643545857E-01
  -3.051155908811256E-01  -3.089523556620883E-01  -3.128372582277432E-01
  -3.167709156892236E-01  -3.207540039098324E-01  -3.247872124410902E-01
  -3.288709723873935E-01  -3.330063341160479E-01  -3.371932450840083E-01
  -3.414330172059219E-01  -3.457260020178667E-01  -3.500730433198789E-01
  -3.544744963348001E-01  -3.589312512933609E-01  -3.634442197189327E-01
  -3.680136270154093E-01  -3.726405822809329E-01  -3.773255667788802E-01
  -3.820695111870838E-01  -3.868728862973727E-01  -3.917366614759445E-01
  -3.966615476827311E-01  -4.016482830711192E-01  -4.066976007117189E-01
  -4.118103436542233E-01  -4.169872964409826E-01  -4.222292531044576E-01
  -4.275369480010598E-01  -4.329113865626635E-01  -4.383532717428533E-01
  -4.438634982931893E-01  -4.494428149238718E-01  -4.550921850399563E-01
  -4.608126073564782E-01  -4.666045755803494E-01  -4.724694871539064E-01
  -4.784078368233780E-01  -4.844208043437521E-01  -4.905092154807664E-01
  -4.966739509075588E-01  -5.029161477594242E-01  -5.092365247858357E-01
  -5.156362782749078E-01  -5.221163151015111E-01  -5.286776241046955E-01
  -5.353212422403302E-01  -5.420481510073660E-01  -5.488594661044512E-01
  -5.557561805295093E-01  -5.627393675658734E-01  -5.698101122894910E-01
  -5.769694669733232E-01  -5.842186686554891E-01  -5.915586751406661E-01
  -5.989906176658488E-01  -6.065158616917019E-01  -6.141352523573582E-01
  -6.218502295633783E-01  -6.296617989998197E-01  -6.375712844886774E-01
  -6.455797978908278E-01  -6.536886359409557E-01  -6.618989896450520E-01
  -6.702122712893548E-01  -6.786295554264408E-01  -6.871522876186109E-01
  -6.957816282856575E-01  -7.045190439208353E-01  -7.133657982725357E-01
  -7.223232505868280E-01  -7.313927293413629E-01  -7.405757171326846E-01
  -7.498736064549973E-01  -7.592877405338712E-01  -7.688196086945327E-01
  -7.784706257846450E-01  -7.882423054457934E-01  -7.981361494433585E-01
  -8.081536540704084E-01  -8.182962895559642E-01  -8.285656291064099E-01
  -8.389632417659936E-01  -8.494907609708546E-01  -8.601497226659855E-01
  -8.709416693124226E-01  -8.818684099389813E-01  -8.929314673703903E-01
  -9.041325179461728E-01  -9.154733629706522E-01  -9.269555650961880E-01
  -9.385810688480429E-01  -9.503513587829309E-01  -9.622684195621725E-01
  -9.743339371961985E-01  -9.865497501294138E-01  -9.989177344580042E-01
  -1.011439690712770E+00  -1.024117490336875E+00  -1.036953089764039E+00
  -1.049948359929079E+00  -1.063105323621310E+00  -1.076425780357783E+00
  -1.089911888732813E+00  -1.103565542011109E+00  -1.117388793831337E+00
  -1.131383752486077E+00  -1.145552444015385E+00  -1.159896942064391E+00
  -1.174419414929678E+00  -1.189122024727316E+00  -1.204006878671567E+00
  -1.219076184796604E+00  -1.234332201986497E+00  -1.249777107770923E+00
  -1.265413182689512E+00  -1.281242741383263E+00  -1.297268076987004E+00
  -1.313491517606511E+00  -1.329915462038988E+00  -1.346542170028721E+00
  -1.363374242060814E+00  -1.380413950392665E+00  -1.397663863429623E+00
  -1.415126392713802E+00  -1.432804070245679E+00  -1.450699454074638E+00
  -1.468815077861727E+00  -1.487153520267054E+00  -1.505717437563467E+00
  -1.524509397768314E+00  -1.543532131620974E+00  -1.562788257526664E+00
  -1.582280530543414E+00  -1.602011742601931E+00  -1.621984565642943E+00
  -1.642201808002197E+00  -1.662666331145795E+00  -1.683380926809631E+00
  -1.704348508965367E+00  -1.725571925609133E+00  -1.747054125734543E+00
  -1.768798060390104E+00  -1.790806639681604E+00  -1.813082928095563E+00
  -1.835629897599059E+00  -1.858450619378186E+00  -1.881548139746501E+00
  -1.904925563584884E+00  -1.928585996019216E+00  -1.952532592078532E+00
  -1.976768504175030E+00  -2.001296925294598E+00  -2.026121069164757E+00
  -2.051244139049496E+00  -2.076669442519908E+00  -2.102400211561992E+00
  -2.128439746588656E+00  -2.154791385651924E+00  -2.181458450465875E+00
  -2.208444301782421E+00  -2.235752343814326E+00  -2.263385944549878E+00
  -2.291348520009226E+00  -2.319643519133642E+00  -2.348274375895013E+00
  -2.377244531508097E+00  -2.406557529904774E+00  -2.436216794438089E+00
  -2.466225858590143E+00  -2.496588248164745E+00  -2.527307461699362E+00
  -2.558387077046582E+00  -2.589830604034411E+00  -2.621641615855847E+00
  -2.653823671965558E+00  -2.686380342404146E+00  -2.719315180376896E+00
  -2.752631748055776E+00  -2.786333646068499E+00  -2.820424415100497E+00
  -2.854907639427953E+00  -2.889786857528637E+00  -2.925065641281876E+00
  -2.960747538923407E+00  -2.996836052032013E+00  -3.033334731760775E+00
  -3.070247071456205E+00  -3.107576570897681E+00  -3.145326658268807E+00
  -3.183500821832066E+00  -3.222102449423364E+00  -3.261134942078474E+00
  -3.300601628129112E+00  -3.340505876183219E+00  -3.380850934278673E+00
  -3.421640055350245E+00  -3.462876426221751E+00  -3.504563203824958E+00
  -3.546703490227149E+00  -3.589300292635137E+00  -3.632356622044242E+00
  -3.675875358248625E+00  -3.719859366202694E+00  -3.764311399625161E+00
  -3.809234140572691E+00  -3.854630206072219E+00  -3.900502093058041E+00
  -3.946852217163322E+00  -3.993682898143287E+00  -4.040996325848049E+00
  -4.088794616573736E+00  -4.137079707549763E+00  -4.185853476083814E+00
  -4.235117600108946E+00  -4.284873660655553E+00  -4.335123066615871E+00
  -4.385867095202897E+00  -4.437106812574342E+00  -4.488843160723846E+00
  -4.541076860149417E+00  -4.593808456591944E+00  -4.647038305794275E+00
  -4.700766512761234E+00  -4.754993007002462E+00  -4.809717444864106E+00
  -4.864939278647114E+00  -4.920657662106109E+00  -4.976871518234240E+00
  -5.033579469968345E+00  -5.090779853698407E+00  -5.148470703626494E+00
  -5.206649734959022E+00  -5.265314323868786E+00  -5.324461488157738E+00
  -5.384087929938332E+00  -5.444189912796226E+00  -5.504763331140317E+00
  -5.565803684895577E+00  -5.627306016009790E+00  -5.689264937998516E+00
  -5.751674595748959E+00  -5.814528638043519E+00  -5.877820234963416E+00
  -5.941542009339301E+00  -6.005686040268976E+00  -6.070243848352632E+00
  -6.135206369021880E+00  -6.200563913627221E+00  -6.266306154208294E+00
  -6.332422121502972E+00  -6.398900136165175E+00  -6.465727833282997E+00
  -6.532892068290352E+00  -6.600378984359594E+00  -6.668173881171207E+00
  -6.736261259817908E+00  -6.804624762946546E+00  -6.873247142256545E+00
  -6.942110242464985E+00  -7.011194948324381E+00  -7.080481163370784E+00
  -7.149947789758613E+00  -7.219572652939071E+00  -7.289332500120565E+00
  -7.359202965565103E+00  -7.429158513826039E+00  -7.499172382057232E+00
  -7.569216612419211E+00  -7.639261928659550E+00  -7.709277750300544E+00
  -7.779232119669409E+00  -7.849091678813835E+00  -7.918821620593029E+00
  -7.988385625052835E+00  -8.057745851596273E+00  -8.126862848541279E+00
  -8.195695555769554E+00  -8.264201206923914E+00  -8.332335313295317E+00
  -8.400051608594680E+00  -8.467301994379483E+00  -8.534036476653696E+00
  -8.600203171075577E+00  -8.665748170740315E+00  -8.730615561454329E+00
  -8.794747335788273E+00  -8.858083359416440E+00  -8.920561301048750E+00
  -8.982116602412844E+00  -9.042682415739705E+00  -9.102189546973108E+00
  -9.160566421924784E+00  -9.217739020134488E+00  -9.273630838074510E+00
  -9.328162841540575E+00  -9.381253400496504E+00  -9.432818276846319E+00
  -9.482770543897374E+00  -9.531020579153207E+00  -9.577475992931454E+00
  -9.622041623826448E+00  -9.664619476720560E+00  -9.705108704866078E+00
  -9.743405579551833E+00  -9.779403470431546E+00  -9.812992814497989E+00
  -9.844061113324599E+00  -9.872492912679249E+00  -9.898169801998293E+00
  -9.920970410326746E+00  -9.940770428984791E+00  -9.957442599587750E+00
  -9.970856761816378E+00  -9.980879869576938E+00  -9.987376033665342E+00
  -9.990206562464593E+00  -9.989230032148214E+00  -9.984302351767667E+00
  -9.975276835899251E+00  -9.962004321807314E+00  -9.944333241700576E+00
  -9.922109779373741E+00  -9.895177984285908E+00  -9.863379930038988E+00
  -9.826555890534564E+00  -9.784544521983420E+00  -9.737183077050602E+00
  -9.684307629635541E+00  -9.625753323733832E+00  -9.561354651961040E+00
  -9.490945753374774E+00  -9.414360732630641E+00  -9.331434013951281E+00
  -9.242000720551559E+00  -9.145897083095377E+00  -9.042960878341461E+00
  -8.933031892093609E+00  -8.815952453691381E+00  -8.691567944832983E+00
  -8.559727396771720E+00  -8.420284115027627E+00  -8.273096316412619E+00
  -8.118027845546791E+00  -7.954948915934324E+00  -7.783736889838721E+00
  -7.604277121869117E+00  -7.416463833303723E+00  -7.220201052827889E+00
  -7.015403584066178E+00  -6.801998046333054E+00  -6.579923966032240E+00
  -6.349134904736303E+00  -6.109599660185751E+00  -5.861303517893788E+00
  -5.604249552984186E+00  -5.338459998040449E+00  -5.063977664451002E+00
  -4.780867421190763E+00  -4.489217731762309E+00  -4.189142249923023E+00
  -3.880781473002912E+00  -3.564304447551791E+00  -3.239910542076473E+00
  -2.907831254911358E+00  -2.568332100449339E+00  -2.221714528164583E+00
  -1.868317896757041E+00  -1.508521502894411E+00  -1.142746645070986E+00
  -7.714587353654636E-01  -3.951694572146920E-01  -1.443894379737998E-02
   3.701219915074105E-01   7.578496069597875E-01   1.148024956800036E+00
   1.539871582856321E+00   1.932553205522488E+00   2.325171376545974E+00
   2.716763136249170E+00   3.106298660941583E+00   3.492678890251902E+00
   3.874733168506324E+00   4.251216875420013E+00   4.620809052939784E+00
   4.982110045812163E+00   5.333639123945595E+00   5.673832126490659E+00
   6.001039079257783E+00   6.313521823692724E+00   6.609451629508651E+00
   6.886906791732024E+00   7.143870207675604E+00   7.378226926929301E+00
   7.587761662723086E+00   7.770156266926868E+00   7.922987145606413E+00
   8.043722633001668E+00   8.129720291217669E+00   8.178224157263747E+00
   8.186361934774480E+00   8.151142128037010E+00   8.069451157143073E+00
   7.938050454914571E+00   7.753573617170913E+00   7.512523632645419E+00
   7.211270288809198E+00   6.846047850942926E+00   6.412953139815469E+00
   5.907944147253735E+00   5.326839686515346E+00   4.665312744255443E+00
   3.918986470799611E+00   3.083339660432943E+00   2.155827566310828E+00
   1.115701665564691E+00   1.204872530990766E-01  -1.190789678749807E-02
   1.106518869948048E-03  -2.927902247668048E-04  -2.602629253205060E-04
  -3.668592773322960E-04  -4.567991848026148E-04  -5.455021815426757E-04
  -6.314169574478347E-04  -7.146788859842522E-04  -7.952567445671061E-04
  -8.731401179519567E-04  -9.483168958883194E-04  -1.020777851001341E-03
  -1.090514709716828E-03  -1.157519607552319E-03  -1.221786620519571E-03
  -1.283309704868029E-03  -1.342081423588241E-03  -1.398116871227062E-03
  -1.451280295432168E-03  -1.501790371520638E-03  -1.549520096428714E-03
  -1.594476560864875E-03  -1.636654381351350E-03  -1.676046821167797E-03
  -1.712649968808503E-03  -1.746457115553268E-03  -1.777462276151724E-03
  -1.805660012942620E-03   0.000000000000000E+00   0.000000000000000E+00
   0.000000000000000E+00   0.000000000000000E+00   0.000000000000000E+00
   0.000000000000000E+00   0.000000000000000E+00   0.000000000000000E+00
   0.000000000000000E+00   0.000000000000000E+00   0.000000000000000E+00
   0.000000000000000E+00   0.000000000000000E+00   0.000000000000000E+00
   0.000000000000000E+00   0.000000000000000E+00   0.000000000000000E+00
   0.000000000000000E+00   0.000000000000000E+00   0.000000000000000E+00
   0.000000000000000E+00   0.000000000000000E+00   0.000000000000000E+00
   0.000000000000000E+00   0.000000000000000E+00   0.000000000000000E+00
   0.000000000000000E+00   0.000000000000000E+00   0.000000000000000E+00
   0.000000000000000E+00   0.000000000000000E+00   0.000000000000000E+00
   0.000000000000000E+00   0.000000000000000E+00   0.000000000000000E+00
   0.000000000000000E+00   0.000000000000000E+00   0.000000000000000E+00
   0.000000000000000E+00   0.000000000000000E+00   0.000000000000000E+00
   0.000000000000000E+00   0.000000000000000E+00   0.000000000000000E+00
   0.000000000000000E+00   0.000000000000000E+00   0.000000000000000E+00
   0.000000000000000E+00   0.000000000000000E+00   0.000000000000000E+00
   0.000000000000000E+00   0.000000000000000E+00   0.000000000000000E+00
   0.000000000000000E+00   0.000000000000000E+00   0.000000000000000E+00
   0.000000000000000E+00   0.000000000000000E+00   0.000000000000000E+00
   0.000000000000000E+00   0.000000000000000E+00   0.000000000000000E+00
   0.000000000000000E+00   0.000000000000000E+00   0.000000000000000E+00
   0.000000000000000E+00   0.000000000000000E+00   0.000000000000000E+00
   0.000000000000000E+00   0.000000000000000E+00   0.000000000000000E+00
   0.000000000000000E+00   0.000000000000000E+00   0.000000000000000E+00
   0.000000000000000E+00   0.000000000000000E+00   0.000000000000000E+00
   0.000000000000000E+00   0.000000000000000E+00   0.000000000000000E+00
   0.000000000000000E+00   0.000000000000000E+00   0.000000000000000E+00
   0.000000000000000E+00   0.000000000000000E+00   0.000000000000000E+00
   0.000000000000000E+00   0.000000000000000E+00   0.000000000000000E+00
   0.000000000000000E+00   0.000000000000000E+00   0.000000000000000E+00
   0.000000000000000E+00   0.000000000000000E+00   0.000000000000000E+00
   0.000000000000000E+00   0.000000000000000E+00   0.000000000000000E+00
   0.000000000000000E+00   0.000000000000000E+00   0.000000000000000E+00
   0.000000000000000E+00   0.000000000000000E+00   0.000000000000000E+00
   0.000000000000000E+00   0.000000000000000E+00   0.000000000000000E+00
   0.000000000000000E+00   0.000000000000000E+00   0.000000000000000E+00
   0.000000000000000E+00   0.000000000000000E+00   0.000000000000000E+00
   0.000000000000000E+00   0.000000000000000E+00   0.000000000000000E+00
   0.000000000000000E+00   0.000000000000000E+00   0.000000000000000E+00
   0.000000000000000E+00   0.000000000000000E+00   0.000000000000000E+00
   0.000000000000000E+00   0.000000000000000E+00   0.000000000000000E+00
   0.000000000000000E+00   0.000000000000000E+00   0.000000000000000E+00
   0.000000000000000E+00   0.000000000000000E+00   0.000000000000000E+00
   0.000000000000000E+00   0.000000000000000E+00   0.000000000000000E+00
   0.000000000000000E+00   0.000000000000000E+00   0.000000000000000E+00
   0.000000000000000E+00   0.000000000000000E+00   0.000000000000000E+00
   0.000000000000000E+00   0.000000000000000E+00   0.000000000000000E+00
   0.000000000000000E+00   0.000000000000000E+00   0.000000000000000E+00
   0.000000000000000E+00   0.000000000000000E+00   0.000000000000000E+00
   0.000000000000000E+00   0.000000000000000E+00   0.000000000000000E+00
   0.000000000000000E+00   0.000000000000000E+00   0.000000000000000E+00
   0.000000000000000E+00   0.000000000000000E+00   0.000000000000000E+00
   0.000000000000000E+00   0.000000000000000E+00   0.000000000000000E+00
   0.000000000000000E+00   0.000000000000000E+00   0.000000000000000E+00
   0.000000000000000E+00   0.000000000000000E+00   0.000000000000000E+00
   0.000000000000000E+00   0.000000000000000E+00   0.000000000000000E+00
   0.000000000000000E+00   0.000000000000000E+00   0.000000000000000E+00
   0.000000000000000E+00   0.000000000000000E+00   0.000000000000000E+00
   0.000000000000000E+00   0.000000000000000E+00   0.000000000000000E+00
   0.000000000000000E+00   0.000000000000000E+00   0.000000000000000E+00
   0.000000000000000E+00   0.000000000000000E+00   0.000000000000000E+00
   0.000000000000000E+00   0.000000000000000E+00   0.000000000000000E+00
   0.000000000000000E+00   0.000000000000000E+00   0.000000000000000E+00
   0.000000000000000E+00   0.000000000000000E+00   0.000000000000000E+00
   0.000000000000000E+00   0.000000000000000E+00   0.000000000000000E+00
   0.000000000000000E+00   0.000000000000000E+00   0.000000000000000E+00
   0.000000000000000E+00   0.000000000000000E+00   0.000000000000000E+00
   0.000000000000000E+00   0.000000000000000E+00   0.000000000000000E+00
   0.000000000000000E+00   0.000000000000000E+00   0.000000000000000E+00
   0.000000000000000E+00   0.000000000000000E+00   0.000000000000000E+00
   0.000000000000000E+00   0.000000000000000E+00   0.000000000000000E+00
   0.000000000000000E+00   0.000000000000000E+00   0.000000000000000E+00
   0.000000000000000E+00   0.000000000000000E+00   0.000000000000000E+00
   0.000000000000000E+00   0.000000000000000E+00   0.000000000000000E+00
   0.000000000000000E+00   0.000000000000000E+00   0.000000000000000E+00
   0.000000000000000E+00   0.000000000000000E+00   0.000000000000000E+00
   0.000000000000000E+00   0.000000000000000E+00   0.000000000000000E+00
   0.000000000000000E+00   0.000000000000000E+00   0.000000000000000E+00
   0.000000000000000E+00   0.000000000000000E+00   0.000000000000000E+00
   0.000000000000000E+00   0.000000000000000E+00   0.000000000000000E+00
   0.000000000000000E+00   0.000000000000000E+00   0.000000000000000E+00
   0.000000000000000E+00   0.000000000000000E+00   0.000000000000000E+00
   0.000000000000000E+00   0.000000000000000E+00   0.000000000000000E+00
   0.000000000000000E+00   0.000000000000000E+00   0.000000000000000E+00
   0.000000000000000E+00   0.000000000000000E+00   0.000000000000000E+00
   0.000000000000000E+00   0.000000000000000E+00   0.000000000000000E+00
   0.000000000000000E+00   0.000000000000000E+00   0.000000000000000E+00
   0.000000000000000E+00   0.000000000000000E+00   0.000000000000000E+00
   0.000000000000000E+00   0.000000000000000E+00   0.000000000000000E+00
   0.000000000000000E+00   0.000000000000000E+00   0.000000000000000E+00
   0.000000000000000E+00   0.000000000000000E+00   0.000000000000000E+00
   0.000000000000000E+00   0.000000000000000E+00   0.000000000000000E+00
   0.000000000000000E+00   0.000000000000000E+00   0.000000000000000E+00
   0.000000000000000E+00   0.000000000000000E+00   0.000000000000000E+00
   0.000000000000000E+00   0.000000000000000E+00   0.000000000000000E+00
   0.000000000000000E+00   0.000000000000000E+00   0.000000000000000E+00
   0.000000000000000E+00   0.000000000000000E+00   0.000000000000000E+00
   0.000000000000000E+00   0.000000000000000E+00   0.000000000000000E+00
   0.000000000000000E+00   0.000000000000000E+00   0.000000000000000E+00
   0.000000000000000E+00   0.000000000000000E+00   0.000000000000000E+00
   0.000000000000000E+00   0.000000000000000E+00   0.000000000000000E+00
   0.000000000000000E+00   0.000000000000000E+00   0.000000000000000E+00
   0.000000000000000E+00   0.000000000000000E+00   0.000000000000000E+00
   0.000000000000000E+00   0.000000000000000E+00   0.000000000000000E+00
   0.000000000000000E+00   0.000000000000000E+00   0.000000000000000E+00
   0.000000000000000E+00   0.000000000000000E+00
    </PP_BETA.2>
    <PP_BETA.3 index="3" label="2P" angular_momentum="1" cutoff_radius_index="751" cutoff_radius="0.900000000000000" ultrasoft_cutoff_radius="1.35000000000000">
   3.603423324710260E-06   3.694644431719129E-06   3.788174812622030E-06
   3.884072926995397E-06   3.982398714328422E-06   4.083213631487255E-06
   4.186580691127695E-06   4.292564501080278E-06   4.401231304732387E-06
   4.512649022432711E-06   4.626887293943765E-06   4.744017521969194E-06
   4.864112916782950E-06   4.987248541988249E-06   5.113501361434992E-06
   5.242950287324803E-06   5.375676229533966E-06   5.511762146184929E-06
   5.651293095498032E-06   5.794356288955952E-06   5.941041145813884E-06
   6.091439348989799E-06   6.245644902369488E-06   6.403754189562349E-06
   6.565866034144599E-06   6.732081761427480E-06   6.902505261789248E-06
   7.077243055610381E-06   7.256404359852623E-06   7.440101156323577E-06
   7.628448261669305E-06   7.821563399138945E-06   8.019567272165992E-06
   8.222583639812335E-06   8.430739394122239E-06   8.644164639434436E-06
   8.862992773702164E-06   9.087360571871790E-06   9.317408271372180E-06
   9.553279659768357E-06   9.795122164633956E-06   1.004308694569904E-05
   1.029732898933053E-05   1.055800720540452E-05   1.082528452663097E-05
   1.109932801039271E-05   1.138030894316269E-05   1.166840294756453E-05
   1.196379009214334E-05   1.226665500391552E-05   1.257718698376766E-05
   1.289558012477696E-05   1.322203343352688E-05   1.355675095449401E-05
   1.389994189758393E-05   1.425182076889542E-05   1.461260750479539E-05
   1.498252760938771E-05   1.536181229546230E-05   1.575069862901238E-05
   1.614942967741011E-05   1.655825466133360E-05   1.697742911053988E-05
   1.740721502358140E-05   1.784788103156594E-05   1.829970256606193E-05
   1.876296203125468E-05   1.923794898046073E-05   1.972496029711068E-05
   2.022430038031401E-05   2.073628133512117E-05   2.126122316760260E-05
   2.179945398486622E-05   2.235131020013843E-05   2.291713674303710E-05
   2.349728727516736E-05   2.409212441117577E-05   2.470201994540044E-05
   2.532735508425896E-05   2.596852068451961E-05   2.662591749760419E-05
   2.729995642007602E-05   2.799105875046899E-05   2.869965645261846E-05
   2.942619242565890E-05   3.017112078085619E-05   3.093490712544874E-05
   3.171802885367407E-05   3.252097544516289E-05   3.334424877088773E-05
   3.418836340685633E-05   3.505384695574700E-05   3.594124037668638E-05
   3.685109832337575E-05   3.778398949077767E-05   3.874049697057878E-05
   3.972121861565233E-05   4.072676741374678E-05   4.175777187063523E-05
   4.281487640296478E-05   4.389874174105068E-05   4.501004534186860E-05
   4.614948181250177E-05   4.731776334430842E-05   4.851562015808098E-05
   4.974380096047441E-05   5.100307341199042E-05   5.229422460680899E-05
   5.361806156476753E-05   5.497541173579567E-05   5.636712351711973E-05
   5.779406678356190E-05   5.925713343126427E-05   6.075723793517851E-05
   6.229531792066909E-05   6.387233474958768E-05   6.548927412118488E-05
   6.714714668823565E-05   6.884698868876257E-05   7.058986259375280E-05
   7.237685777127270E-05   7.420909116739641E-05   7.608770800437322E-05
   7.801388249647050E-05   7.998881858394032E-05   8.201375068556669E-05
   8.408994447026670E-05   8.621869764822559E-05   8.840134078206166E-05
   9.063923811852800E-05   9.293378844126978E-05   9.528642594517253E-05
   9.769862113284596E-05   1.001718817338048E-04   1.027077536469221E-04
   1.053078219067415E-04   1.079737116742561E-04   1.107070892527711E-04
   1.135096631294860E-04   1.163831850434487E-04   1.193294510805456E-04
   1.223503027962181E-04   1.254476283666023E-04   1.286233637688138E-04
   1.318794939911171E-04   1.352180542737323E-04   1.386411313810592E-04
   1.421508649061119E-04   1.457494486079792E-04   1.494391317831507E-04
   1.532222206715598E-04   1.571010798982290E-04   1.610781339514163E-04
   1.651558686981858E-04   1.693368329383538E-04   1.736236399977775E-04
   1.780189693619870E-04   1.825255683511805E-04   1.871462538376281E-04
   1.918839140065641E-04   1.967415101616598E-04   2.017220785762165E-04
   2.068287323912280E-04   2.120646635615040E-04   2.174331448510731E-04
   2.229375318791029E-04   2.285812652176372E-04   2.343678725424370E-04
   2.403009708382924E-04   2.463842686601740E-04   2.526215684516343E-04
   2.590167689219259E-04   2.655738674833017E-04   2.722969627500385E-04
   2.791902571007419E-04   2.862580593055276E-04   2.935047872197419E-04
   3.009349705458817E-04   3.085532536654624E-04   3.163643985425965E-04
   3.243732877010948E-04   3.325849272769691E-04   3.410044501482231E-04
   3.496371191439115E-04   3.584883303344639E-04   3.675636164053260E-04
   3.768686501160533E-04   3.864092478469895E-04   3.961913732357735E-04
   4.062211409059453E-04   4.165048202899673E-04   4.270488395490882E-04
   4.378597895924610E-04   4.489444281980645E-04   4.603096842379927E-04
   4.719626620107482E-04   4.839106456832792E-04   4.961611038455037E-04
   5.087216941802026E-04   5.216002682511943E-04   5.348048764127718E-04
   5.483437728435157E-04   5.622254207075857E-04   5.764584974467606E-04
   5.910519002065263E-04   6.060147513995931E-04   6.213564044103679E-04
   6.370864494439007E-04   6.532147195230114E-04   6.697512966373348E-04
   6.867065180481201E-04   7.040909827527776E-04   7.219155581131651E-04
   7.401913866518115E-04   7.589298930203186E-04   7.781427911442853E-04
   7.978420915492857E-04   8.180401088724199E-04   8.387494695642022E-04
   8.599831197855914E-04   8.817543335050872E-04   9.040767208010293E-04
   9.269642363742259E-04   9.504311882763076E-04   9.744922468592589E-04
   9.991624539517018E-04   1.024457232267765E-03   1.050392395054345E-03
   1.076984155982871E-03   1.104249139291765E-03   1.132204390185919E-03
   1.160867385499785E-03   1.190256044630679E-03   1.220388740749225E-03
   1.251284312293953E-03   1.282962074757218E-03   1.315441832769931E-03
   1.348743892492569E-03   1.383696497511456E-03   1.418708087527167E-03
   1.454299079201982E-03   1.490904369717873E-03   1.528069410035800E-03
   1.566691883625820E-03   1.606374128209436E-03   1.647073796019631E-03
   1.688767078995354E-03   1.731529584618992E-03   1.775308983469912E-03
   1.820295047705783E-03   1.866446651716135E-03   1.913615375516482E-03
   1.962065429155972E-03   2.011776834538133E-03   2.062677100577530E-03
   2.114905329386553E-03   2.168501581173304E-03   2.223359612390122E-03
   2.279610981759821E-03   2.337357060574862E-03   2.396513196125720E-03
   2.457155108491954E-03   2.519423052630851E-03   2.583138166905732E-03
   2.648580436726660E-03   2.715557576843837E-03   2.784365330013968E-03
   2.854799860626183E-03   2.927117947230723E-03   3.001240253333886E-03
   3.077136137524380E-03   3.155076747185015E-03   3.234889858562219E-03
   3.316841416123548E-03   3.400837686920670E-03   3.486852780372624E-03
   3.575095613727887E-03   3.665708802684839E-03   3.758412385875195E-03
   3.853598435499129E-03   3.951130441647742E-03   4.051129284276581E-03
   4.153692538105390E-03   4.258869636135127E-03   4.366668249637285E-03
   4.477204913314988E-03   4.590539319155529E-03   4.706767001900096E-03
   4.825825291585442E-03   4.947999980085107E-03   5.073306663860324E-03
   5.201709249127262E-03   5.333360223216893E-03   5.468366842265460E-03
   5.606839144767243E-03   5.748691515994235E-03   5.894269331297178E-03
   6.043393273823278E-03   6.196421010350979E-03   6.353217868353239E-03
   6.514079769239666E-03   6.678916573873405E-03   6.847949239129821E-03
   7.021323727858755E-03   7.198976330210551E-03   7.381321773131118E-03
   7.568029894454206E-03   7.759597022902152E-03   7.956036299498891E-03
   8.157369940892605E-03   8.363951463060685E-03   8.575559417408040E-03
   8.792645305456398E-03   9.015216349848851E-03   9.243342579473606E-03
   9.477350468357610E-03   9.717225453829449E-03   9.963123989124884E-03
   1.021525111916215E-02   1.047381458238493E-02   1.073897967605735E-02
   1.101065626180778E-02   1.128941243701379E-02   1.157516855027578E-02
   1.186803666983895E-02   1.216844730696982E-02   1.247637626982039E-02
   1.279218108992126E-02   1.311589628478273E-02   1.344782399249897E-02
   1.378819868121393E-02   1.413705671915733E-02   1.449490312542137E-02
   1.486162918718087E-02   1.523780398161232E-02   1.562338964335643E-02
   1.601876547649937E-02   1.642416832099248E-02   1.683978631558584E-02
   1.726596294570796E-02   1.770284643225369E-02   1.815080436046076E-02
   1.861014378315880E-02   1.908098484251537E-02   1.956387617053212E-02
   2.005885606170277E-02   2.056643834542453E-02   2.108686672504033E-02
   2.162046914459446E-02   2.216751827628261E-02   2.272838092862222E-02
   2.330313891610199E-02   2.389672789870358E-02   2.449000115834637E-02
   2.512539311505965E-02   2.574791592016697E-02   2.640194099185941E-02
   2.708161264714429E-02   2.774799961799203E-02   2.846869700407991E-02
   2.917248878366096E-02   2.992008194711113E-02   3.067205493603875E-02
   3.145539287923438E-02   3.224575240475620E-02   3.305878833086801E-02
   3.390049368289986E-02   3.475480916714148E-02   3.563521724452463E-02
   3.653929178763387E-02   3.745587692647828E-02   3.840741409496802E-02
   3.938563570329510E-02   4.036964973821106E-02   4.139636099759705E-02
   4.244924980802117E-02   4.351358147698500E-02   4.461648144889765E-02
   4.574755469439756E-02   4.690079531397535E-02   4.809073999477906E-02
   4.930703496140543E-02   5.054675727213596E-02   5.183359771205682E-02
   5.314009051919683E-02   5.448282718716144E-02   5.585958225234999E-02
   5.727582713284229E-02   5.872230948740988E-02   6.020671595897369E-02
   6.172715052306665E-02   6.329007793728993E-02   6.488839223446921E-02
   6.652892427124640E-02   6.820963491998634E-02   6.993599018757456E-02
   7.170224620422570E-02   7.351457397204712E-02   7.537156425456612E-02
   7.727752280607486E-02   7.922845133424861E-02   8.123388350301555E-02
   8.328378192468186E-02   8.538848609591063E-02   8.754486501356296E-02
   8.976394970494818E-02   9.201450564329158E-02   9.436095503072531E-02
   9.672858665121714E-02   9.917962888363061E-02   1.016742030679793E-01
   1.042592067379209E-01   1.068766673475984E-01   1.095845678957500E-01
   1.123474460900438E-01   1.151881161348460E-01   1.180877732562596E-01
   1.210880137135683E-01   1.241205595966111E-01   1.272714371279798E-01
   1.304737675095726E-01   1.337700393386632E-01   1.371527528283161E-01
   1.405988602913276E-01   1.441579212511621E-01   1.477998964245313E-01
   1.515167653579726E-01   1.553413696970896E-01   1.592704255150200E-01
   1.632753273744889E-01   1.673945540060323E-01   1.716185252647646E-01
   1.759489783749257E-01   1.803819060892721E-01   1.849301744365973E-01
   1.895881204215190E-01   1.943696737715810E-01   1.992703255656574E-01
   2.042885368954261E-01   2.094345273269309E-01   2.147161428667693E-01
   2.201186395088834E-01   2.256659491854859E-01   2.313500040752285E-01
   2.371727037420912E-01   2.431441537711034E-01   2.492661842040798E-01
   2.555381678293873E-01   2.619739304832566E-01   2.685556844529148E-01
   2.753231891590891E-01   2.822422267685299E-01   2.893405147707168E-01
   2.966194727105100E-01   3.040740104054416E-01   3.117191307217765E-01
   3.195515341211234E-01   3.275822249953961E-01   3.358126385598865E-01
   3.442465961551422E-01   3.528916224127659E-01   3.617543369103177E-01
   3.708307589449003E-01   3.801418629850012E-01   3.896763636462919E-01
   3.994555416633038E-01   4.094714164368760E-01   4.197401887885354E-01
   4.302604085961216E-01   4.410448927521580E-01   4.520942868310207E-01
   4.634198583898764E-01   4.750232477841981E-01   4.869156813618115E-01
   4.991037091890045E-01   5.115885760291005E-01   5.243875451733654E-01
   5.374984110375783E-01   5.509338411043926E-01   5.647025302393165E-01
   5.788092181408839E-01   5.932618314020296E-01   6.080734952201401E-01
   6.232461761995020E-01   6.387946089961993E-01   6.547211669910723E-01
   6.710433382221221E-01   6.877606502665113E-01   7.048926640939464E-01
   7.224388669201295E-01   7.404187263983147E-01   7.588334212428609E-01
   7.777025560538938E-01   7.970259612973934E-01   8.168260777851049E-01
   8.371029595087591E-01   8.578761398135792E-01   8.791519475370670E-01
   9.009450085990718E-01   9.232665636274681E-01   9.461255148402636E-01
   9.695391826312956E-01   9.935195252498754E-01   1.018073853853896E+00
   1.043223821132662E+00   1.068975172921451E+00   1.095347879361978E+00
   1.122349440259971E+00   1.150001721720738E+00   1.178311446705883E+00
   1.207299877103553E+00   1.236976696945046E+00   1.267360862919626E+00
   1.298467138264299E+00   1.330310487208442E+00   1.362907680350875E+00
   1.396274452195362E+00   1.430429096245384E+00   1.465387421923398E+00
   1.501166410993130E+00   1.537783313953477E+00   1.575259209734375E+00
   1.613605749279429E+00   1.652849564491017E+00   1.693001551519419E+00
   1.734086008460265E+00   1.776119413974685E+00   1.819122092209161E+00
   1.863113845595536E+00   1.908114824000379E+00   1.954143639996789E+00
   2.001224156217761E+00   2.049372898755515E+00   2.098614349963328E+00
   2.148968042227223E+00   2.200454172423922E+00   2.253098204654671E+00
   2.306917675862791E+00   2.361936528236693E+00   2.418177518551603E+00
   2.475661183116231E+00   2.534410852003795E+00   2.594449454633548E+00
   2.655798850936564E+00   2.718481979537640E+00   2.782521269893833E+00
   2.847940575537935E+00   2.914761164528303E+00   2.983006369410519E+00
   3.052699718554788E+00   3.123861748612440E+00   3.196517274435770E+00
   3.270686825185932E+00   3.346393518084046E+00   3.423658461546669E+00
   3.502503596649307E+00   3.582950225063938E+00   3.665018722606961E+00
   3.748730205247643E+00   3.834103484082044E+00   3.921159110072221E+00
   4.009914957139147E+00   4.100389091877714E+00   4.192599116855519E+00
   4.286560793790329E+00   4.382290660514057E+00   4.479802046062076E+00
   4.579108494097543E+00   4.680222849931198E+00   4.783155433399962E+00
   4.887915142780315E+00   4.994511276052222E+00   5.102948546672767E+00
   5.213232362397608E+00   5.325365275391409E+00   5.439347163475393E+00
   5.555176971167370E+00   5.672850356511901E+00   5.792361334851645E+00
   5.913699655676758E+00   6.036854226883314E+00   6.161809130992012E+00
   6.288546889193420E+00   6.417044429461974E+00   6.547277192972011E+00
   6.679215495189325E+00   6.812825502051638E+00   6.948069187668509E+00
   7.084904385229571E+00   7.223282887818080E+00   7.363152263119474E+00
   7.504453880207208E+00   7.647123995268437E+00   7.791091519304871E+00
   7.936280612361486E+00   8.082606614878486E+00   8.229979230801931E+00
   8.378299767341204E+00   8.527461778933841E+00   8.677350136983392E+00
   8.827841369234065E+00   8.978802498638686E+00   9.130090213286152E+00
   9.281552536497173E+00   9.433024644213504E+00   9.584332679894857E+00
   9.735289374371931E+00   9.885696256321594E+00   1.003534162969049E+01
   1.018400039349740E+01   1.033143346048035E+01   1.047738756130204E+01
   1.062159393918964E+01   1.076376797002914E+01   1.090360891749049E+01
   1.104079905871799E+01   1.117500250667666E+01   1.130586556997326E+01
   1.143301532378854E+01   1.155605904898835E+01   1.167458393859823E+01
   1.178815628004855E+01   1.189632035009475E+01   1.199859848381982E+01
   1.209449003562150E+01   1.218347067972377E+01   1.226499235603671E+01
   1.233848192228754E+01   1.240334141662760E+01   1.245894671952328E+01
   1.250464811266198E+01   1.253976915579182E+01   1.256360617475821E+01
   1.257542900127896E+01   1.257448005804832E+01   1.255997389120472E+01
   1.253109850028886E+01   1.248701404837732E+01   1.242685407202066E+01
   1.234972560708036E+01   1.225470970665094E+01   1.214086218511227E+01
   1.200721481156268E+01   1.185277603556085E+01   1.167653276927194E+01
   1.147745203914860E+01   1.125448274011364E+01   1.100655778717874E+01
   1.073259715483857E+01   1.043151026952205E+01   1.010219982905585E+01
   9.743565230534955E+00   9.354506850919620E+00   8.933930822090929E+00
   8.480754288661501E+00   7.993910934566088E+00   7.472357513232396E+00
   6.915080838044901E+00   6.321105562772118E+00   5.689502154247521E+00
   5.019396552776470E+00   4.309979508316246E+00   3.560517621460804E+00
   2.770364964960663E+00   1.938975318423445E+00   1.065915679650061E+00
   1.508803415806597E-01  -8.062930910818977E-01  -1.805608526874266E+00
  -2.846893129640421E+00  -3.929779273628810E+00  -5.053685643339804E+00
  -6.217796435374112E+00  -7.421040096221759E+00  -8.662067439945076E+00
  -9.939228421139205E+00  -1.125054803098010E+01  -1.259370194124631E+01
  -1.396599119878442E+01  -1.536431657430035E+01  -1.678515254681156E+01
  -1.822452133135266E+01  -1.967796714978431E+01  -2.114053018872301E+01
  -2.260672262150683E+01  -2.407050412318358E+01  -2.552526045785953E+01
  -2.696378287874268E+01  -2.837825041743326E+01  -2.976021560864456E+01
  -3.110059308407335E+01  -3.238965383613186E+01  -3.361702345363437E+01
  -3.477168763537429E+01  -3.584200371707993E+01  -3.681572145591053E+01
  -3.768001229831043E+01  -3.842150963380573E+01  -3.902636034139550E+01
  -3.948029036808157E+01  -3.976868438909014E+01  -3.987668215571239E+01
  -3.978929282705940E+01  -3.949152880520387E+01  -3.896856183415139E+01
  -3.820590159250742E+01  -3.718960086056859E+01  -3.590648699162466E+01
  -3.434442362503614E+01  -3.249260328410969E+01  -3.034187312495510E+01
  -2.788509643233169E+01  -2.511755036584464E+01  -2.203736268966259E+01
  -1.864598833926902E+01  -1.494872722645391E+01  -1.095528404243464E+01
  -6.680371051794282E+00  -2.144353515056991E+00   2.626062207951691E+00
   7.597099435925429E+00   1.272714098804170E+01   1.796592224703170E+01
   2.325368905834591E+01   2.852032552309254E+01   3.368445661200633E+01
   3.865253185010880E+01   4.331789832027124E+01   4.755987160844984E+01
   5.124281613222544E+01   5.421524707632393E+01   5.630889925406841E+01
   5.733896370379345E+01   5.710506291108270E+01   5.539116863567484E+01
   5.196558053765551E+01   4.658145124377583E+01   3.897399765960748E+01
   2.889219335167466E+01   1.579807861798925E+01   1.798132958584514E+00
  -1.758072233634470E-01   1.946408481294944E-02  -3.112873924014312E-04
   1.251271393756824E-03   7.152854455442122E-04   4.040159816140129E-04
   8.674422935809126E-05  -2.140048745197208E-04  -5.008383492327226E-04
  -7.738740864030556E-04  -1.033450412232646E-03  -1.279917985839492E-03
  -1.513601144939061E-03  -1.734845728185441E-03  -1.943979899255328E-03
  -2.141337308873958E-03  -2.327237957948317E-03  -2.502001235743213E-03
  -2.666096689266578E-03  -2.818370225754787E-03  -2.973299540930043E-03
  -3.096440639828533E-03  -3.221236793186800E-03  -3.335549332705445E-03
  -3.440930854111139E-03  -3.537518663704048E-03  -3.625612625722819E-03
  -3.705455230582749E-03  -3.777315721160929E-03   0.000000000000000E+00
   0.000000000000000E+00   0.000000000000000E+00   0.000000000000000E+00
   0.000000000000000E+00   0.000000000000000E+00   0.000000000000000E+00
   0.000000000000000E+00   0.000000000000000E+00   0.000000000000000E+00
   0.000000000000000E+00   0.000000000000000E+00   0.000000000000000E+00
   0.000000000000000E+00   0.000000000000000E+00   0.000000000000000E+00
   0.000000000000000E+00   0.000000000000000E+00   0.000000000000000E+00
   0.000000000000000E+00   0.000000000000000E+00   0.000000000000000E+00
   0.000000000000000E+00   0.000000000000000E+00   0.000000000000000E+00
   0.000000000000000E+00   0.000000000000000E+00   0.000000000000000E+00
   0.000000000000000E+00   0.000000000000000E+00   0.000000000000000E+00
   0.000000000000000E+00   0.000000000000000E+00   0.000000000000000E+00
   0.000000000000000E+00   0.000000000000000E+00   0.000000000000000E+00
   0.000000000000000E+00   0.000000000000000E+00   0.000000000000000E+00
   0.000000000000000E+00   0.000000000000000E+00   0.000000000000000E+00
   0.000000000000000E+00   0.000000000000000E+00   0.000000000000000E+00
   0.000000000000000E+00   0.000000000000000E+00   0.000000000000000E+00
   0.000000000000000E+00   0.000000000000000E+00   0.000000000000000E+00
   0.000000000000000E+00   0.000000000000000E+00   0.000000000000000E+00
   0.000000000000000E+00   0.000000000000000E+00   0.000000000000000E+00
   0.000000000000000E+00   0.000000000000000E+00   0.000000000000000E+00
   0.000000000000000E+00   0.000000000000000E+00   0.000000000000000E+00
   0.000000000000000E+00   0.000000000000000E+00   0.000000000000000E+00
   0.000000000000000E+00   0.000000000000000E+00   0.000000000000000E+00
   0.000000000000000E+00   0.000000000000000E+00   0.000000000000000E+00
   0.000000000000000E+00   0.000000000000000E+00   0.000000000000000E+00
   0.000000000000000E+00   0.000000000000000E+00   0.000000000000000E+00
   0.000000000000000E+00   0.000000000000000E+00   0.000000000000000E+00
   0.000000000000000E+00   0.000000000000000E+00   0.000000000000000E+00
   0.000000000000000E+00   0.000000000000000E+00   0.000000000000000E+00
   0.000000000000000E+00   0.000000000000000E+00   0.000000000000000E+00
   0.000000000000000E+00   0.000000000000000E+00   0.000000000000000E+00
   0.000000000000000E+00   0.000000000000000E+00   0.000000000000000E+00
   0.000000000000000E+00   0.000000000000000E+00   0.000000000000000E+00
   0.000000000000000E+00   0.000000000000000E+00   0.000000000000000E+00
   0.000000000000000E+00   0.000000000000000E+00   0.000000000000000E+00
   0.000000000000000E+00   0.000000000000000E+00   0.000000000000000E+00
   0.000000000000000E+00   0.000000000000000E+00   0.000000000000000E+00
   0.000000000000000E+00   0.000000000000000E+00   0.000000000000000E+00
   0.000000000000000E+00   0.000000000000000E+00   0.000000000000000E+00
   0.000000000000000E+00   0.000000000000000E+00   0.000000000000000E+00
   0.000000000000000E+00   0.000000000000000E+00   0.000000000000000E+00
   0.000000000000000E+00   0.000000000000000E+00   0.000000000000000E+00
   0.000000000000000E+00   0.000000000000000E+00   0.000000000000000E+00
   0.000000000000000E+00   0.000000000000000E+00   0.000000000000000E+00
   0.000000000000000E+00   0.000000000000000E+00   0.000000000000000E+00
   0.000000000000000E+00   0.000000000000000E+00   0.000000000000000E+00
   0.000000000000000E+00   0.000000000000000E+00   0.000000000000000E+00
   0.000000000000000E+00   0.000000000000000E+00   0.000000000000000E+00
   0.000000000000000E+00   0.000000000000000E+00   0.000000000000000E+00
   0.000000000000000E+00   0.000000000000000E+00   0.000000000000000E+00
   0.000000000000000E+00   0.000000000000000E+00   0.000000000000000E+00
   0.000000000000000E+00   0.000000000000000E+00   0.000000000000000E+00
   0.000000000000000E+00   0.000000000000000E+00   0.000000000000000E+00
   0.000000000000000E+00   0.000000000000000E+00   0.000000000000000E+00
   0.000000000000000E+00   0.000000000000000E+00   0.000000000000000E+00
   0.000000000000000E+00   0.000000000000000E+00   0.000000000000000E+00
   0.000000000000000E+00   0.000000000000000E+00   0.000000000000000E+00
   0.000000000000000E+00   0.000000000000000E+00   0.000000000000000E+00
   0.000000000000000E+00   0.000000000000000E+00   0.000000000000000E+00
   0.000000000000000E+00   0.000000000000000E+00   0.000000000000000E+00
   0.000000000000000E+00   0.000000000000000E+00   0.000000000000000E+00
   0.000000000000000E+00   0.000000000000000E+00   0.000000000000000E+00
   0.000000000000000E+00   0.000000000000000E+00   0.000000000000000E+00
   0.000000000000000E+00   0.000000000000000E+00   0.000000000000000E+00
   0.000000000000000E+00   0.000000000000000E+00   0.000000000000000E+00
   0.000000000000000E+00   0.000000000000000E+00   0.000000000000000E+00
   0.000000000000000E+00   0.000000000000000E+00   0.000000000000000E+00
   0.000000000000000E+00   0.000000000000000E+00   0.000000000000000E+00
   0.000000000000000E+00   0.000000000000000E+00   0.000000000000000E+00
   0.000000000000000E+00   0.000000000000000E+00   0.000000000000000E+00
   0.000000000000000E+00   0.000000000000000E+00   0.000000000000000E+00
   0.000000000000000E+00   0.000000000000000E+00   0.000000000000000E+00
   0.000000000000000E+00   0.000000000000000E+00   0.000000000000000E+00
   0.000000000000000E+00   0.000000000000000E+00   0.000000000000000E+00
   0.000000000000000E+00   0.000000000000000E+00   0.000000000000000E+00
   0.000000000000000E+00   0.000000000000000E+00   0.000000000000000E+00
   0.000000000000000E+00   0.000000000000000E+00   0.000000000000000E+00
   0.000000000000000E+00   0.000000000000000E+00   0.000000000000000E+00
   0.000000000000000E+00   0.000000000000000E+00   0.000000000000000E+00
   0.000000000000000E+00   0.000000000000000E+00   0.000000000000000E+00
   0.000000000000000E+00   0.000000000000000E+00   0.000000000000000E+00
   0.000000000000000E+00   0.000000000000000E+00   0.000000000000000E+00
   0.000000000000000E+00   0.000000000000000E+00   0.000000000000000E+00
   0.000000000000000E+00   0.000000000000000E+00   0.000000000000000E+00
   0.000000000000000E+00   0.000000000000000E+00   0.000000000000000E+00
   0.000000000000000E+00   0.000000000000000E+00   0.000000000000000E+00
   0.000000000000000E+00   0.000000000000000E+00   0.000000000000000E+00
   0.000000000000000E+00   0.000000000000000E+00   0.000000000000000E+00
   0.000000000000000E+00   0.000000000000000E+00   0.000000000000000E+00
   0.000000000000000E+00   0.000000000000000E+00   0.000000000000000E+00
   0.000000000000000E+00   0.000000000000000E+00   0.000000000000000E+00
   0.000000000000000E+00   0.000000000000000E+00   0.000000000000000E+00
   0.000000000000000E+00   0.000000000000000E+00   0.000000000000000E+00
   0.000000000000000E+00   0.000000000000000E+00   0.000000000000000E+00
   0.000000000000000E+00   0.000000000000000E+00   0.000000000000000E+00
   0.000000000000000E+00   0.000000000000000E+00   0.000000000000000E+00
   0.000000000000000E+00   0.000000000000000E+00   0.000000000000000E+00
   0.000000000000000E+00   0.000000000000000E+00   0.000000000000000E+00
   0.000000000000000E+00   0.000000000000000E+00   0.000000000000000E+00
   0.000000000000000E+00   0.000000000000000E+00   0.000000000000000E+00
   0.000000000000000E+00   0.000000000000000E+00   0.000000000000000E+00
   0.000000000000000E+00   0.000000000000000E+00   0.000000000000000E+00
   0.000000000000000E+00   0.000000000000000E+00   0.000000000000000E+00
   0.000000000000000E+00   0.000000000000000E+00   0.000000000000000E+00
   0.000000000000000E+00   0.000000000000000E+00
    </PP_BETA.3>
    <PP_BETA.4 index="4" label="2P" angular_momentum="1" cutoff_radius_index="751" cutoff_radius="0.900000000000000" ultrasoft_cutoff_radius="1.35000000000000">
  -5.141727480643454E-06  -5.271890946089816E-06  -5.405349516097784E-06
  -5.542186606674671E-06  -5.682487745516057E-06  -5.826340625463465E-06
  -5.973835159315452E-06  -6.125063536026177E-06  -6.280120278326662E-06
  -6.439102301804805E-06  -6.602108975480906E-06  -6.769242183916770E-06
  -6.940606390897083E-06  -7.116308704722890E-06  -7.296458945158056E-06
  -7.481169712070345E-06  -7.670556455810332E-06  -7.864737549371879E-06
  -8.063834362379371E-06  -8.267971336948055E-06  -8.477276065464637E-06
  -8.691879370337057E-06  -8.911915385763086E-06  -9.137521641568935E-06
  -9.368839149170299E-06  -9.606012489709392E-06  -9.849189904423367E-06
  -1.009852338730035E-05  -1.035416878008105E-05  -1.061628586966553E-05
  -1.088503848798559E-05  -1.116059461440570E-05  -1.144312648071612E-05
  -1.173281067878396E-05  -1.202982827092954E-05  -1.233436490309681E-05
  -1.264661092088887E-05  -1.296676148854089E-05  -1.329501671090484E-05
  -1.363158175852249E-05  -1.397666699586434E-05  -1.433048811281526E-05
  -1.469326625948867E-05  -1.506522818445345E-05  -1.544660637646037E-05
  -1.583763920975606E-05  -1.623857109307591E-05  -1.664965262240870E-05
  -1.707114073762850E-05  -1.750329888309189E-05  -1.794639717230048E-05
  -1.840071255673229E-05  -1.886652899894693E-05  -1.934413765007303E-05
  -1.983383703178910E-05  -2.033593322291082E-05  -2.085074005070234E-05
  -2.137857928703050E-05  -2.191978084948479E-05  -2.247468300758894E-05
  -2.304363259423245E-05  -2.362698522245509E-05  -2.422510550771909E-05
  -2.483836729580836E-05  -2.546715389649731E-05  -2.611185832313461E-05
  -2.677288353829265E-05  -2.745064270563554E-05  -2.814555944816324E-05
  -2.885806811299356E-05  -2.958861404284683E-05  -3.033765385440373E-05
  -3.110565572370986E-05  -3.189309967880533E-05  -3.270047789976286E-05
  -3.352829502632086E-05  -3.437706847330519E-05  -3.524732875403552E-05
  -3.613961981191920E-05  -3.705449936043975E-05  -3.799253923175194E-05
  -3.895432573410232E-05  -3.994046001829802E-05  -4.095155845345262E-05
  -4.198825301224510E-05  -4.305119166593087E-05  -4.414103878935382E-05
  -4.525847557621100E-05  -4.640420046483031E-05  -4.757892957472728E-05
  -4.878339715421312E-05  -5.001835603933496E-05  -5.128457812443447E-05
  -5.258285484461874E-05  -5.391399767044625E-05  -5.527883861513504E-05
  -5.667823075461263E-05  -5.811304876073075E-05  -5.958418944797925E-05
  -6.109257233404111E-05  -6.263914021453728E-05  -6.422485975232329E-05
  -6.585072208170372E-05  -6.751774342794328E-05  -6.922696574246213E-05
  -7.097945735411065E-05  -7.277631363693346E-05  -7.461865769483808E-05
  -7.650764106359686E-05  -7.844444443062171E-05  -8.043027837295979E-05
  -8.246638411397373E-05  -8.455403429917765E-05  -8.669453379171514E-05
  -8.888922048797573E-05  -9.113946615385981E-05  -9.344667728221500E-05
  -9.581229597198062E-05  -9.823780082958811E-05  -1.007247078931832E-04
  -1.032745715802448E-04  -1.058889856591965E-04  -1.085695842456144E-04
  -1.113180428236572E-04  -1.141360792933556E-04  -1.170254550444147E-04
  -1.199879760572035E-04  -1.230254940316174E-04  -1.261399075445205E-04
  -1.293331632364913E-04  -1.326072570286125E-04  -1.359642353700685E-04
  -1.394061965173270E-04  -1.429352918457066E-04  -1.465537271941521E-04
  -1.502637642440517E-04  -1.540677219329674E-04  -1.579679779041543E-04
  -1.619669699927800E-04  -1.660671977497724E-04  -1.702712240042457E-04
  -1.745816764654859E-04  -1.790012493654947E-04  -1.835327051431193E-04
  -1.881788761708223E-04  -1.929426665251675E-04  -1.978270538021349E-04
  -2.028350909783949E-04  -2.079699083197055E-04  -2.132347153376321E-04
  -2.186328027958025E-04  -2.241675447669624E-04  -2.298424007421116E-04
  -2.356609177930408E-04  -2.416267327896232E-04  -2.477435746732432E-04
  -2.540152667877890E-04  -2.604457292696637E-04  -2.670389814983089E-04
  -2.737991446087776E-04  -2.807304440679189E-04  -2.878372123157970E-04
  -2.951238914739870E-04  -3.025950361224447E-04  -3.102553161466921E-04
  -3.181095196570827E-04  -3.261625559820002E-04  -3.344194587368300E-04
  -3.428853889706495E-04  -3.515656383925946E-04  -3.604656326799110E-04
  -3.695909348697842E-04  -3.789472488370406E-04  -3.885404228599169E-04
  -3.983764532761201E-04  -4.084614882314555E-04  -4.188018315233956E-04
  -4.294039465419549E-04  -4.402744603103707E-04  -4.514201676281001E-04
  -4.628480353187212E-04  -4.745652065854173E-04  -4.865790054767386E-04
  -4.988969414654626E-04  -5.115267141434046E-04  -5.244762180351060E-04
  -5.377535475334464E-04  -5.513670019602208E-04  -5.653250907548854E-04
  -5.796365387947075E-04  -5.943102918496300E-04  -6.093555221753065E-04
  -6.247816342477522E-04  -6.405982706432475E-04  -6.568153180671502E-04
  -6.734429135353790E-04  -6.904914507124767E-04  -7.079715864101674E-04
  -7.258942472505176E-04  -7.442706364978575E-04  -7.631122410637155E-04
  -7.824308386892055E-04  -8.022385053092975E-04  -8.225476226036317E-04
  -8.433708857385836E-04  -8.647213113054112E-04  -8.866122454595012E-04
  -9.090573722657461E-04  -9.320707222553344E-04  -9.556666811992845E-04
  -9.798599991041991E-04  -1.004665799435932E-03  -1.030099588576868E-03
  -1.056177265522795E-03  -1.082915131825426E-03  -1.110329901786768E-03
  -1.138438712911797E-03  -1.167259136625883E-03  -1.196809189263774E-03
  -1.227107343336981E-03  -1.258172539086590E-03  -1.290024196328835E-03
  -1.322682226600732E-03  -1.356167045613486E-03  -1.390499586021434E-03
  -1.425701310514491E-03  -1.461794225242397E-03  -1.498800893579074E-03
  -1.536744450235789E-03  -1.575648615731973E-03  -1.615537711232677E-03
  -1.656436673762136E-03  -1.698371071802782E-03  -1.741367121289646E-03
  -1.785451702010110E-03  -1.830652374419260E-03  -1.876997396881508E-03
  -1.924515743349133E-03  -1.974388703556138E-03  -2.024346338002707E-03
  -2.075130900877224E-03  -2.127362675075627E-03  -2.180392583107605E-03
  -2.235503006594359E-03  -2.292125309152629E-03  -2.350199706266291E-03
  -2.409691566822428E-03  -2.470709219807035E-03  -2.533177932444333E-03
  -2.597368239272097E-03  -2.663221928570645E-03  -2.730526754713063E-03
  -2.799659845792957E-03  -2.870592859233046E-03  -2.943222147511246E-03
  -3.017746474189751E-03  -3.094222610766445E-03  -3.172499274163346E-03
  -3.252764111589702E-03  -3.335161604084209E-03  -3.419571197079367E-03
  -3.506100747973168E-03  -3.594950491598795E-03  -3.685865259439687E-03
  -3.779244369481915E-03  -3.874813689913429E-03  -3.972994935867041E-03
  -4.073497515861808E-03  -4.176687793594269E-03  -4.282452231838796E-03
  -4.390747620795497E-03  -4.501960481664766E-03  -4.615845071566635E-03
  -4.732781198189661E-03  -4.852634677574457E-03  -4.975368974882887E-03
  -5.101281869179607E-03  -5.230576999776061E-03  -5.362854923841162E-03
  -5.498674913558631E-03  -5.637842514858854E-03  -5.780529783956594E-03
  -5.926876230373506E-03  -6.076952390837465E-03  -6.230768981467016E-03
  -6.388492561963608E-03  -6.550208113115282E-03  -6.716052003639821E-03
  -6.885934879182222E-03  -7.060264379446559E-03  -7.239063014885964E-03
  -7.422278938099188E-03  -7.610129885799668E-03  -7.802769058906629E-03
  -8.000353156375007E-03  -8.202760258005367E-03  -8.410483075820003E-03
  -8.623265746807621E-03  -8.841618664353342E-03  -9.065349505373490E-03
  -9.294880712682075E-03  -9.530083572100140E-03  -9.771273269551815E-03
  -1.001865831830260E-02  -1.027214740639193E-02  -1.053233283115386E-02
  -1.079874297719175E-02  -1.107208628093164E-02  -1.135238152748926E-02
  -1.163966020513043E-02  -1.193442706701674E-02  -1.223636573040299E-02
  -1.254612062021170E-02  -1.286370217676958E-02  -1.318920995805821E-02
  -1.352311017316371E-02  -1.386538172596883E-02  -1.421624798994783E-02
  -1.457600154859245E-02  -1.494493874864187E-02  -1.532329551812739E-02
  -1.571094301044928E-02  -1.610869210250272E-02  -1.651642880803999E-02
  -1.693431337586677E-02  -1.736295984747784E-02  -1.780233360007046E-02
  -1.825294505954698E-02  -1.871484313888908E-02  -1.918845926882764E-02
  -1.967412765772104E-02  -2.017190027917468E-02  -2.068249780950796E-02
  -2.120576490781930E-02  -2.174251398300822E-02  -2.229269022744054E-02
  -2.285683553796778E-02  -2.343528746861440E-02  -2.402831430385430E-02
  -2.463640670096274E-02  -2.525977538334393E-02  -2.589894521662688E-02
  -2.655435424270144E-02  -2.722617374977485E-02  -2.791518674064080E-02
  -2.862144734462179E-02  -2.934568918341504E-02  -3.008825959330084E-02
  -3.084962649947848E-02  -3.163017919366244E-02  -3.243044043572824E-02
  -3.325052764225792E-02  -3.409748009183743E-02  -3.494399000104834E-02
  -3.585058011080577E-02  -3.673882310903236E-02  -3.767199577220347E-02
  -3.864178833452159E-02  -3.959259197117379E-02  -4.062090396622282E-02
  -4.162509308014151E-02  -4.269177229155446E-02  -4.376470510319588E-02
  -4.488238552088179E-02  -4.601007793952593E-02  -4.717012437535087E-02
  -4.837108811131929E-02  -4.959002463529474E-02  -5.084620232082700E-02
  -5.213613423797128E-02  -5.344392367211537E-02  -5.480156617448265E-02
  -5.619729728743672E-02  -5.760127780824625E-02  -5.906617920926507E-02
  -6.056843172460805E-02  -6.208700648196301E-02  -6.366058901939234E-02
  -6.527439696823516E-02  -6.691980347396782E-02  -6.861758721042512E-02
  -7.035296010198289E-02  -7.212175202137766E-02  -7.395776768303849E-02
  -7.582181961419020E-02  -7.773757218015219E-02  -7.970186446738084E-02
  -8.172248720496963E-02  -8.378624936594591E-02  -8.590410855116745E-02
  -8.807336644342166E-02  -9.030324946728828E-02  -9.258360476618896E-02
  -9.492419304481678E-02  -9.732208941520630E-02  -9.978510924337836E-02
  -1.023050426045106E-01  -1.048906960756698E-01  -1.075400652173801E-01
  -1.102592844081181E-01  -1.130426541475859E-01  -1.159037700387851E-01
  -1.188283184258559E-01  -1.218310387228937E-01  -1.249074750847002E-01
  -1.280733576805407E-01  -1.312841205659062E-01  -1.346316799349317E-01
  -1.380094468476344E-01  -1.415061867071999E-01  -1.450650215034716E-01
  -1.487528398386411E-01  -1.524869527508343E-01  -1.563500618979073E-01
  -1.602915837129092E-01  -1.643440699846395E-01  -1.684806609967860E-01
  -1.727607510773029E-01  -1.770868673773734E-01  -1.815818048632359E-01
  -1.861500781934124E-01  -1.908523530312559E-01  -1.956779103294075E-01
  -2.005938551090110E-01  -2.056709196115161E-01  -2.108662131261543E-01
  -2.161683020043702E-01  -2.216240325121244E-01  -2.272287454841937E-01
  -2.329415720221362E-01  -2.388174570462510E-01  -2.448426970079965E-01
  -2.510197830896411E-01  -2.573429783886191E-01  -2.638306579928997E-01
  -2.704746982338103E-01  -2.772950126603574E-01  -2.842851333406304E-01
  -2.914428626609131E-01  -2.987827827327304E-01  -3.063160809073153E-01
  -3.140217014872039E-01  -3.219337939109242E-01  -3.300408439737000E-01
  -3.383455306493552E-01  -3.468622930936855E-01  -3.555937125775531E-01
  -3.645388887383147E-01  -3.737175448210628E-01  -3.831042757911972E-01
  -3.927558215037424E-01  -4.026233247728233E-01  -4.127463315237618E-01
  -4.231268573245862E-01  -4.337576149681496E-01  -4.446600100350125E-01
  -4.558292980154965E-01  -4.672811849878856E-01  -4.790176915064829E-01
  -4.910442522007428E-01  -5.033715832896899E-01  -5.160091187572545E-01
  -5.289511408716023E-01  -5.422275685054686E-01  -5.558222704356974E-01
  -5.697655912670070E-01  -5.840461070571147E-01  -5.986869169648654E-01
  -6.136859189751402E-01  -6.290613707805996E-01  -6.448141642490682E-01
  -6.609603378934670E-01  -6.775022041799277E-01  -6.944557372541725E-01
  -7.118302503779447E-01  -7.296274766757930E-01  -7.478720053602261E-01
  -7.665606457629459E-01  -7.857114171453821E-01  -8.053366955066976E-01
  -8.254431674777639E-01  -8.460421060265494E-01  -8.671521756093240E-01
  -8.887761180040711E-01  -9.109348984045431E-01  -9.336318374579528E-01
  -9.568918118646658E-01  -9.807140790234036E-01  -1.005126473077479E+00
  -1.030128170567929E+00  -1.055746880895335E+00  -1.081984176852455E+00
  -1.108867952540277E+00  -1.136397854589543E+00  -1.164605809506231E+00
  -1.193491774586953E+00  -1.223083514189924E+00  -1.253389931283888E+00
  -1.284431772016828E+00  -1.316224940086435E+00  -1.348781996824267E+00
  -1.382127511404207E+00  -1.416278386988939E+00  -1.451244899120341E+00
  -1.487057766852224E+00  -1.523725012200627E+00  -1.561274942553154E+00
  -1.599718056634658E+00  -1.639085354173498E+00  -1.679386201083172E+00
  -1.720650713429369E+00  -1.762892464378240E+00  -1.806138250519271E+00
  -1.850408871806117E+00  -1.895725404987553E+00  -1.942111481174318E+00
  -1.989589248797744E+00  -2.038184486143290E+00  -2.087919415753912E+00
  -2.138817906188579E+00  -2.190904207474231E+00  -2.244207999158004E+00
  -2.298745496717364E+00  -2.354554269461505E+00  -2.411649411955494E+00
  -2.470065119674168E+00  -2.529824407013499E+00  -2.590955749912227E+00
  -2.653486856581015E+00  -2.717445902139505E+00  -2.782858839358202E+00
  -2.849759084080674E+00  -2.918169550527351E+00  -2.988124476097987E+00
  -3.059650997393935E+00  -3.132777165813077E+00  -3.207538510970456E+00
  -3.283959210596695E+00  -3.362072539682928E+00  -3.441910044501581E+00
  -3.523500050740264E+00  -3.606874827272136E+00  -3.692066021151401E+00
  -3.779103700707282E+00  -3.868019420227564E+00  -3.958843950653947E+00
  -4.051610034586632E+00  -4.146346664909920E+00  -4.243085713526797E+00
  -4.341859265233550E+00  -4.442695064210733E+00  -4.545626884718002E+00
  -4.650682309958251E+00  -4.757892530512562E+00  -4.867285790598151E+00
  -4.978891430365440E+00  -5.092737786765117E+00  -5.208851777691807E+00
  -5.327261276566553E+00  -5.447990761791996E+00  -5.571067085147870E+00
  -5.696513161908747E+00  -5.824352063244746E+00  -5.954606072219935E+00
  -6.087294714294796E+00  -6.222438486520058E+00  -6.360053163822897E+00
  -6.500154680226053E+00  -6.642757817950482E+00  -6.787873594825321E+00
  -6.935510831553973E+00  -7.085678746003662E+00  -7.238379830060332E+00
  -7.393617379682681E+00  -7.551390415842924E+00  -7.711693941556796E+00
  -7.874521412539686E+00  -8.039861374504518E+00  -8.207699799081134E+00
  -8.378016330427158E+00  -8.550789165079451E+00  -8.725989355045456E+00
  -8.903585457866633E+00  -9.083537771858296E+00  -9.265804186869183E+00
  -9.450334980713428E+00  -9.637074201497541E+00  -9.825959596711357E+00
  -1.001692267461584E+01  -1.020988598289576E+01  -1.040476568794379E+01
  -1.060146874477996E+01  -1.079989443858017E+01  -1.099993118366092E+01
  -1.120146021620236E+01  -1.140434977510364E+01  -1.160845963232047E+01
  -1.181363714227152E+01  -1.201971814972711E+01  -1.222652564756076E+01
  -1.243387025377513E+01  -1.264154853832761E+01  -1.284934183098144E+01
  -1.305701859174025E+01  -1.326432843163531E+01  -1.347100754791438E+01
  -1.367677246145803E+01  -1.388132316505448E+01  -1.408434022607182E+01
  -1.428548452440609E+01  -1.448439641474684E+01  -1.468069544192068E+01
  -1.487397847482592E+01  -1.506381916053650E+01  -1.524976757337879E+01
  -1.543134896870464E+01  -1.560806210231164E+01  -1.577937975053544E+01
  -1.594474667500384E+01  -1.610357883222991E+01  -1.625526296590755E+01
  -1.639915545335759E+01  -1.653458074718276E+01  -1.666083149329341E+01
  -1.677716707339914E+01  -1.688281263523186E+01  -1.697695904680916E+01
  -1.705876101210032E+01  -1.712733748643876E+01  -1.718176981506650E+01
  -1.722110258465995E+01  -1.724434207811851E+01  -1.725045561131765E+01
  -1.723837266080830E+01  -1.720698363766985E+01  -1.715513930895816E+01
  -1.708165279043112E+01  -1.698529781130776E+01  -1.686481055366471E+01
  -1.671888995577194E+01  -1.654619858477724E+01  -1.634536384078081E+01
  -1.611497981726654E+01  -1.585360850055861E+01  -1.555978249279985E+01
  -1.523200755946743E+01  -1.486876533503994E+01  -1.446851661177129E+01
  -1.402970590534005E+01  -1.355076511396601E+01  -1.303011922761652E+01
  -1.246619148990590E+01  -1.185740979687967E+01  -1.120221380956809E+01
  -1.049906277465652E+01  -9.746443742123120E+00  -8.942881226420468E+00
  -8.086947543164797E+00  -7.177274281982136E+00  -6.212564068460324E+00
  -5.191604747431484E+00  -4.113283110817974E+00  -2.976601072553422E+00
  -1.780692675575665E+00  -5.248419833055777E-01   7.914972036267045E-01
   2.168680822207307E+00   3.606851252385468E+00   5.105915229258244E+00
   6.665517360483136E+00   8.285013958342461E+00   9.963445667437554E+00
   1.169950739954265E+01   1.349151763301506E+01   1.533738685532171E+01
   1.723458411993306E+01   1.918010239661453E+01   2.117042360610776E+01
   2.320148235855231E+01   2.526862926006834E+01   2.736659377023761E+01
   2.948944720416102E+01   3.163056616744188E+01   3.378259564690143E+01
   3.593741515396277E+01   3.808610426441965E+01   4.021891267371893E+01
   4.232523155185982E+01   4.439356917451096E+01   4.641153161962802E+01
   4.836580773199739E+01   5.024216236506436E+01   5.202543548578024E+01
   5.369955187043251E+01   5.524753959684767E+01   5.665156197012584E+01
   5.789296178440691E+01   5.895232149766889E+01   5.980953976150249E+01
   6.044392821712199E+01   6.083432862820564E+01   6.095925406696006E+01
   6.079705599733506E+01   6.032611941504547E+01   5.952508997135601E+01
   5.837313339176171E+01   5.685023299293880E+01   5.493752488605560E+01
   5.261767645577265E+01   4.987530899616559E+01   4.669746769687436E+01
   4.307414263548662E+01   3.899884144245789E+01   3.446921747769102E+01
   2.948775467202313E+01   2.406251095956668E+01   1.820792130688869E+01
   1.194566167105086E+01   5.305573277575377E+00  -1.673352802631598E+00
  -8.941933107768591E+00  -1.643969161076552E+01  -2.409370801219779E+01
  -3.181741689093906E+01  -3.950936504156948E+01  -4.705193414435848E+01
  -5.431003779913112E+01  -6.112980480182694E+01  -6.733726107673755E+01
  -7.273702668869538E+01  -7.711104547187361E+01  -8.021726876561007E+01
  -8.179001628185928E+01  -8.154139634650394E+01  -7.916120826605797E+01
  -7.431693255955682E+01  -6.665450491752252E+01  -5.579434252223972E+01
  -4.137677767365700E+01  -2.263122981773112E+01  -2.576512131056867E+00
   2.518881933909857E-01  -2.791386716021989E-02   4.187504505416863E-04
  -1.822891923255916E-03  -1.057337375278845E-03  -6.135373378150198E-04
  -1.609159373869296E-04   2.682376661452615E-04   6.776457675639162E-04
   1.067464760888894E-03   1.438167643036586E-03   1.790245560160841E-03
   2.124152678689685E-03   2.440374428075490E-03   2.739371611095116E-03
   3.021613328877383E-03   3.287549760582497E-03   3.537630681660502E-03
   3.772520728232569E-03   3.990566462132247E-03   4.212436830824617E-03
   4.388941710265513E-03   4.567833323026359E-03   4.731773974798414E-03
   4.882977172507318E-03   5.021635694705109E-03   5.148174779524430E-03
   5.262937963780953E-03   5.366307248739981E-03   0.000000000000000E+00
   0.000000000000000E+00   0.000000000000000E+00   0.000000000000000E+00
   0.000000000000000E+00   0.000000000000000E+00   0.000000000000000E+00
   0.000000000000000E+00   0.000000000000000E+00   0.000000000000000E+00
   0.000000000000000E+00   0.000000000000000E+00   0.000000000000000E+00
   0.000000000000000E+00   0.000000000000000E+00   0.000000000000000E+00
   0.000000000000000E+00   0.000000000000000E+00   0.000000000000000E+00
   0.000000000000000E+00   0.000000000000000E+00   0.000000000000000E+00
   0.000000000000000E+00   0.000000000000000E+00   0.000000000000000E+00
   0.000000000000000E+00   0.000000000000000E+00   0.000000000000000E+00
   0.000000000000000E+00   0.000000000000000E+00   0.000000000000000E+00
   0.000000000000000E+00   0.000000000000000E+00   0.000000000000000E+00
   0.000000000000000E+00   0.000000000000000E+00   0.000000000000000E+00
   0.000000000000000E+00   0.000000000000000E+00   0.000000000000000E+00
   0.000000000000000E+00   0.000000000000000E+00   0.000000000000000E+00
   0.000000000000000E+00   0.000000000000000E+00   0.000000000000000E+00
   0.000000000000000E+00   0.000000000000000E+00   0.000000000000000E+00
   0.000000000000000E+00   0.000000000000000E+00   0.000000000000000E+00
   0.000000000000000E+00   0.000000000000000E+00   0.000000000000000E+00
   0.000000000000000E+00   0.000000000000000E+00   0.000000000000000E+00
   0.000000000000000E+00   0.000000000000000E+00   0.000000000000000E+00
   0.000000000000000E+00   0.000000000000000E+00   0.000000000000000E+00
   0.000000000000000E+00   0.000000000000000E+00   0.000000000000000E+00
   0.000000000000000E+00   0.000000000000000E+00   0.000000000000000E+00
   0.000000000000000E+00   0.000000000000000E+00   0.000000000000000E+00
   0.000000000000000E+00   0.000000000000000E+00   0.000000000000000E+00
   0.000000000000000E+00   0.000000000000000E+00   0.000000000000000E+00
   0.000000000000000E+00   0.000000000000000E+00   0.000000000000000E+00
   0.000000000000000E+00   0.000000000000000E+00   0.000000000000000E+00
   0.000000000000000E+00   0.000000000000000E+00   0.000000000000000E+00
   0.000000000000000E+00   0.000000000000000E+00   0.000000000000000E+00
   0.000000000000000E+00   0.000000000000000E+00   0.000000000000000E+00
   0.000000000000000E+00   0.000000000000000E+00   0.000000000000000E+00
   0.000000000000000E+00   0.000000000000000E+00   0.000000000000000E+00
   0.000000000000000E+00   0.000000000000000E+00   0.000000000000000E+00
   0.000000000000000E+00   0.000000000000000E+00   0.000000000000000E+00
   0.000000000000000E+00   0.000000000000000E+00   0.000000000000000E+00
   0.000000000000000E+00   0.000000000000000E+00   0.000000000000000E+00
   0.000000000000000E+00   0.000000000000000E+00   0.000000000000000E+00
   0.000000000000000E+00   0.000000000000000E+00   0.000000000000000E+00
   0.000000000000000E+00   0.000000000000000E+00   0.000000000000000E+00
   0.000000000000000E+00   0.000000000000000E+00   0.000000000000000E+00
   0.000000000000000E+00   0.000000000000000E+00   0.000000000000000E+00
   0.000000000000000E+00   0.000000000000000E+00   0.000000000000000E+00
   0.000000000000000E+00   0.000000000000000E+00   0.000000000000000E+00
   0.000000000000000E+00   0.000000000000000E+00   0.000000000000000E+00
   0.000000000000000E+00   0.000000000000000E+00   0.000000000000000E+00
   0.000000000000000E+00   0.000000000000000E+00   0.000000000000000E+00
   0.000000000000000E+00   0.000000000000000E+00   0.000000000000000E+00
   0.000000000000000E+00   0.000000000000000E+00   0.000000000000000E+00
   0.000000000000000E+00   0.000000000000000E+00   0.000000000000000E+00
   0.000000000000000E+00   0.000000000000000E+00   0.000000000000000E+00
   0.000000000000000E+00   0.000000000000000E+00   0.000000000000000E+00
   0.000000000000000E+00   0.000000000000000E+00   0.000000000000000E+00
   0.000000000000000E+00   0.000000000000000E+00   0.000000000000000E+00
   0.000000000000000E+00   0.000000000000000E+00   0.000000000000000E+00
   0.000000000000000E+00   0.000000000000000E+00   0.000000000000000E+00
   0.000000000000000E+00   0.000000000000000E+00   0.000000000000000E+00
   0.000000000000000E+00   0.000000000000000E+00   0.000000000000000E+00
   0.000000000000000E+00   0.000000000000000E+00   0.000000000000000E+00
   0.000000000000000E+00   0.000000000000000E+00   0.000000000000000E+00
   0.000000000000000E+00   0.000000000000000E+00   0.000000000000000E+00
   0.000000000000000E+00   0.000000000000000E+00   0.000000000000000E+00
   0.000000000000000E+00   0.000000000000000E+00   0.000000000000000E+00
   0.000000000000000E+00   0.000000000000000E+00   0.000000000000000E+00
   0.000000000000000E+00   0.000000000000000E+00   0.000000000000000E+00
   0.000000000000000E+00   0.000000000000000E+00   0.000000000000000E+00
   0.000000000000000E+00   0.000000000000000E+00   0.000000000000000E+00
   0.000000000000000E+00   0.000000000000000E+00   0.000000000000000E+00
   0.000000000000000E+00   0.000000000000000E+00   0.000000000000000E+00
   0.000000000000000E+00   0.000000000000000E+00   0.000000000000000E+00
   0.000000000000000E+00   0.000000000000000E+00   0.000000000000000E+00
   0.000000000000000E+00   0.000000000000000E+00   0.000000000000000E+00
   0.000000000000000E+00   0.000000000000000E+00   0.000000000000000E+00
   0.000000000000000E+00   0.000000000000000E+00   0.000000000000000E+00
   0.000000000000000E+00   0.000000000000000E+00   0.000000000000000E+00
   0.000000000000000E+00   0.000000000000000E+00   0.000000000000000E+00
   0.000000000000000E+00   0.000000000000000E+00   0.000000000000000E+00
   0.000000000000000E+00   0.000000000000000E+00   0.000000000000000E+00
   0.000000000000000E+00   0.000000000000000E+00   0.000000000000000E+00
   0.000000000000000E+00   0.000000000000000E+00   0.000000000000000E+00
   0.000000000000000E+00   0.000000000000000E+00   0.000000000000000E+00
   0.000000000000000E+00   0.000000000000000E+00   0.000000000000000E+00
   0.000000000000000E+00   0.000000000000000E+00   0.000000000000000E+00
   0.000000000000000E+00   0.000000000000000E+00   0.000000000000000E+00
   0.000000000000000E+00   0.000000000000000E+00   0.000000000000000E+00
   0.000000000000000E+00   0.000000000000000E+00   0.000000000000000E+00
   0.000000000000000E+00   0.000000000000000E+00   0.000000000000000E+00
   0.000000000000000E+00   0.000000000000000E+00   0.000000000000000E+00
   0.000000000000000E+00   0.000000000000000E+00   0.000000000000000E+00
   0.000000000000000E+00   0.000000000000000E+00   0.000000000000000E+00
   0.000000000000000E+00   0.000000000000000E+00   0.000000000000000E+00
   0.000000000000000E+00   0.000000000000000E+00   0.000000000000000E+00
   0.000000000000000E+00   0.000000000000000E+00   0.000000000000000E+00
   0.000000000000000E+00   0.000000000000000E+00   0.000000000000000E+00
   0.000000000000000E+00   0.000000000000000E+00   0.000000000000000E+00
   0.000000000000000E+00   0.000000000000000E+00   0.000000000000000E+00
   0.000000000000000E+00   0.000000000000000E+00   0.000000000000000E+00
   0.000000000000000E+00   0.000000000000000E+00   0.000000000000000E+00
   0.000000000000000E+00   0.000000000000000E+00   0.000000000000000E+00
   0.000000000000000E+00   0.000000000000000E+00   0.000000000000000E+00
   0.000000000000000E+00   0.000000000000000E+00   0.000000000000000E+00
   0.000000000000000E+00   0.000000000000000E+00   0.000000000000000E+00
   0.000000000000000E+00   0.000000000000000E+00   0.000000000000000E+00
   0.000000000000000E+00   0.000000000000000E+00   0.000000000000000E+00
   0.000000000000000E+00   0.000000000000000E+00
    </PP_BETA.4>
    <PP_DIJ columns="4" rows="4">
  0.550453240338433       0.390803142101055       0.000000000000000E+000
  0.000000000000000E+000
  0.390803142101055       0.276147194082472       0.000000000000000E+000
  0.000000000000000E+000
  0.000000000000000E+000  0.000000000000000E+000  0.156604451163392     
  0.148540624964266     
  0.000000000000000E+000  0.000000000000000E+000  0.148540624964266     
  0.135229886305889     
    </PP_DIJ>
    <PP_AUGMENTATION q_with_l="true" nqf="0" nqlc="3" shape="PSQ" cutoff_r="-1.00000000000000" cutoff_r_index="759" augmentation_epsilon="1.000000000000000E-012" l_max_aug="2">
      <PP_Q size="16">
 -0.141368059589248      -0.124111591853473       0.000000000000000E+000
  0.000000000000000E+000
 -0.124111591853473      -0.110262597309357       0.000000000000000E+000
  0.000000000000000E+000
  0.000000000000000E+000  0.000000000000000E+000  8.026030264003314E-002
  6.100789000136127E-002
  0.000000000000000E+000  0.000000000000000E+000  6.100789000136127E-002
  4.627507668203208E-002
      </PP_Q>
<!--augmentation charge multipoles ( only for PAW) 
multipole array dims = (nbeta,nbeta,2*lmax+1)-->
      <PP_MULTIPOLES nbeta="4" lmax="1">
 -0.141368059589248      -0.124111591853473       0.000000000000000E+000
  0.000000000000000E+000
 -0.124111591853473      -0.110262597309357       0.000000000000000E+000
  0.000000000000000E+000
  0.000000000000000E+000  0.000000000000000E+000  8.026030264003314E-002
  6.100789000136127E-002
  0.000000000000000E+000  0.000000000000000E+000  6.100789000136127E-002
  4.627507668203208E-002
  0.000000000000000E+000  0.000000000000000E+000  1.576898034796371E-002
  9.952854805750092E-003
  0.000000000000000E+000  0.000000000000000E+000  1.098312481221072E-002
  6.836586576197489E-003
  1.576898034796371E-002  1.098312481221072E-002  0.000000000000000E+000
  0.000000000000000E+000
  9.952854805750092E-003  6.836586576197489E-003  0.000000000000000E+000
  0.000000000000000E+000
  0.000000000000000E+000  0.000000000000000E+000  0.000000000000000E+000
  0.000000000000000E+000
  0.000000000000000E+000  0.000000000000000E+000  0.000000000000000E+000
  0.000000000000000E+000
  0.000000000000000E+000  0.000000000000000E+000  2.504559078241012E-002
  1.916955602707401E-002
  0.000000000000000E+000  0.000000000000000E+000  1.916955602707401E-002
  1.459918890697457E-002
      </PP_MULTIPOLES>
      <PP_QIJL.1.1.0 first_index="1" second_index="1" composite_index="1" angular_momentum="0" size="1085">
  -4.598607068974325E-08  -4.715021353927673E-08  -4.834382680164061E-08
  -4.956765652369718E-08  -5.082246763856537E-08  -5.210904444372776E-08
  -5.342819109124149E-08  -5.478073209035863E-08  -5.616751282287027E-08
  -5.758940007149726E-08  -5.904728256165602E-08  -6.054207151694019E-08
  -6.207470122866399E-08  -6.364612963982336E-08  -6.525733894384108E-08
  -6.690933619846733E-08  -6.860315395522307E-08  -7.033985090477674E-08
  -7.212051253865881E-08  -7.394625182772845E-08  -7.581820991781413E-08
  -7.773755684296586E-08  -7.970549225676254E-08  -8.172324618213267E-08
  -8.379207978015740E-08  -8.591328613833415E-08  -8.808819107879715E-08
  -9.031815398699696E-08  -9.260456866135801E-08  -9.494886418444616E-08
  -9.735250581618851E-08  -9.981699590970631E-08  -1.023438748503315E-07
  -1.049347220183945E-07  -1.075911567763862E-07  -1.103148394811074E-07
  -1.131074725214431E-07  -1.159708013824076E-07  -1.189066157361250E-07
  -1.219167505604291E-07  -1.250030872857795E-07  -1.281675549712124E-07
  -1.314121315100608E-07  -1.347388448661971E-07  -1.381497743415721E-07
  -1.416470518758395E-07  -1.452328633788828E-07  -1.489094500970740E-07
  -1.526791100141187E-07  -1.565441992873650E-07  -1.605071337204702E-07
  -1.645703902733505E-07  -1.687365086103529E-07  -1.730080926876203E-07
  -1.773878123806411E-07  -1.818784051529976E-07  -1.864826777673614E-07
  -1.912035080398015E-07  -1.960438466385016E-07  -2.010067189280148E-07
  -2.060952268602006E-07  -2.113125509130357E-07  -2.166619520785022E-07
  -2.221467739008008E-07  -2.277704445661615E-07  -2.335364790455548E-07
  -2.394484812916484E-07  -2.455101464913787E-07  -2.517252633755447E-07
  -2.580977165868718E-07  -2.646314891080180E-07  -2.713306647510498E-07
  -2.781994307099363E-07  -2.852420801776577E-07  -2.924630150295709E-07
  -2.998667485746965E-07  -3.074579083766599E-07  -3.152412391460422E-07
  -3.232216057059494E-07  -3.314039960326571E-07  -3.397935243732237E-07
  -3.483954344420300E-07  -3.572151026982363E-07  -3.662580417062069E-07
  -3.755299035810064E-07  -3.850364835211110E-07  -3.947837234305570E-07
  -4.047777156327779E-07  -4.150247066784578E-07  -4.255311012497819E-07
  -4.363034661635156E-07  -4.473485344754263E-07  -4.586732096886048E-07
  -4.702845700683181E-07  -4.821898730660954E-07  -4.943965598557993E-07
  -5.069122599845365E-07  -5.197447961412965E-07  -5.329021890463092E-07
  -5.463926624641794E-07  -5.602246483439137E-07  -5.744067920890798E-07
  -5.889479579613665E-07  -6.038572346209372E-07  -6.191439408070373E-07
  -6.348176311623933E-07  -6.508881022050636E-07  -6.673653984514590E-07
  -6.842598186943635E-07  -7.015819224398850E-07  -7.193425365073422E-07
  -7.375527617962352E-07  -7.562239802245113E-07  -7.753678618424705E-07
  -7.949963721267566E-07  -8.151217794589833E-07  -8.357566627936840E-07
  -8.569139195203681E-07  -8.786067735245968E-07  -9.008487834531237E-07
  -9.236538511882525E-07  -9.470362305367243E-07  -9.710105361385530E-07
  -9.955917526013781E-07  -1.020795243866055E-06  -1.046636762809309E-06
  -1.073132461089488E-06  -1.100298899241541E-06  -1.128153057027547E-06
  -1.156712344049255E-06  -1.185994610629259E-06  -1.216018158967639E-06
  -1.246801754580996E-06  -1.278364638031070E-06  -1.310726536950255E-06
  -1.343907678371506E-06  -1.377928801370379E-06  -1.412811170027086E-06
  -1.448576586716660E-06  -1.485247405735558E-06  -1.522846547273171E-06
  -1.561397511737042E-06  -1.600924394440673E-06  -1.641451900663149E-06
  -1.683005361089976E-06  -1.725610747644756E-06  -1.769294689721638E-06
  -1.814084490828662E-06  -1.860008145652383E-06  -1.907094357554486E-06
  -1.955372556511260E-06  -2.004872917507202E-06  -2.055626379394212E-06
  -2.107664664228163E-06  -2.161020297094958E-06  -2.215726626438406E-06
  -2.271817844902689E-06  -2.329329010702396E-06  -2.388296069533484E-06
  -2.448755877038886E-06  -2.510746221842741E-06  -2.574305849167729E-06
  -2.639474485050181E-06  -2.706292861168139E-06  -2.774802740297915E-06
  -2.845046942414907E-06  -2.917069371455236E-06  -2.990915042754625E-06
  -3.066630111181911E-06  -3.144261899984657E-06  -3.223858930364834E-06
  -3.305470951803228E-06  -3.389148973151306E-06  -3.474945294510121E-06
  -3.562913539916141E-06  -3.653108690854301E-06  -3.745587120619489E-06
  -3.840406629547581E-06  -3.937626481138331E-06  -4.037307439092557E-06
  -4.139511805286691E-06  -4.244303458708646E-06  -4.351747895379016E-06
  -4.461912269282820E-06  -4.574865434337238E-06  -4.690677987421458E-06
  -4.809422312495819E-06  -4.931172625837423E-06  -5.056005022420758E-06
  -5.183997523472249E-06  -5.315230125228242E-06  -5.449784848927277E-06
  -5.587745792067405E-06  -5.729199180960931E-06  -5.874233424619291E-06
  -6.022939170001545E-06  -6.175409358661407E-06  -6.331739284827674E-06
  -6.492026654954759E-06  -6.656371648780358E-06  -6.824876981928197E-06
  -6.997647970095434E-06  -7.174792594864206E-06  -7.356421571178919E-06
  -7.542648416531190E-06  -7.733589521895522E-06  -7.929364224460442E-06
  -8.130094882199953E-06  -8.335906950332341E-06  -8.546929059713846E-06
  -8.763293097216033E-06  -8.985134288137538E-06  -9.212591280700936E-06
  -9.445806232688099E-06  -9.684924900267879E-06  -9.930096729071364E-06
  -1.018147494757218E-05  -1.043921666282937E-05  -1.070348295865312E-05
  -1.097443899625467E-05  -1.125225411744263E-05  -1.153710195043101E-05
  -1.182916051832414E-05  -1.212861235034679E-05  -1.243564459588875E-05
  -1.275044914143464E-05  -1.307322273045285E-05  -1.340416708631736E-05
  -1.374348903833986E-05  -1.409140065099073E-05  -1.444811935638894E-05
  -1.481386809014465E-05  -1.518887543063794E-05  -1.557337574182162E-05
  -1.596760931963683E-05  -1.637182254213232E-05  -1.678626802338221E-05
  -1.721120477129685E-05  -1.764689834942619E-05  -1.809362104285648E-05
  -1.855165202830291E-05  -1.902127754850587E-05  -1.950279109103772E-05
  -1.999649357163305E-05  -2.050269352215612E-05  -2.102170728332243E-05
  -2.155385920229538E-05  -2.209948183528024E-05  -2.265891615524250E-05
  -2.323251176487976E-05  -2.382062711497972E-05  -2.442362972830088E-05
  -2.504189642911487E-05  -2.567581357855393E-05  -2.632577731591004E-05
  -2.699219380603576E-05  -2.767547949300160E-05  -2.837606136016700E-05
  -2.909437719682790E-05  -2.983087587160630E-05  -3.058601761275221E-05
  -3.136027429553295E-05  -3.215412973688807E-05  -3.296807999753405E-05
  -3.380263369170642E-05  -3.465831230473212E-05  -3.553565051863021E-05
  -3.643519654594288E-05  -3.735751247200520E-05  -3.830317460586622E-05
  -3.927277384007959E-05  -4.026691601958817E-05  -4.128622231993127E-05
  -4.233132963501036E-05  -4.340289097465421E-05  -4.450157587223054E-05
  -4.562807080255775E-05  -4.678307961037646E-05  -4.796732394964709E-05
  -4.918154373394693E-05  -5.042649759824563E-05  -5.170296337234717E-05
  -5.301173856629129E-05  -5.435364086801682E-05  -5.572950865359532E-05
  -5.714020151035170E-05  -5.858660077319762E-05  -6.006961007450896E-05
  -6.159015590788987E-05  -6.314918820617296E-05  -6.474768093401327E-05
  -6.638663269544509E-05  -6.806706735677658E-05  -6.979003468521007E-05
  -7.155661100358298E-05  -7.336789986163457E-05  -7.522503272421595E-05
  -7.712916967686811E-05  -7.908150014920577E-05  -8.108324365655496E-05
  -8.313565056030250E-05  -8.524000284742933E-05  -8.739761492970860E-05
  -8.960983446306348E-05  -9.187804318759200E-05  -9.420365778877609E-05
  -9.658813078040990E-05  -9.903295140979045E-05  -1.015396465857310E-04
  -1.041097818299701E-04  -1.067449622525625E-04  -1.094468335518560E-04
  -1.122170830396678E-04  -1.150574406922960E-04  -1.179696802280124E-04
  -1.209556202116991E-04  -1.240171251873139E-04  -1.271561068388757E-04
  -1.303745251806898E-04  -1.336743897775439E-04  -1.370577609956220E-04
  -1.405267512849112E-04  -1.440835264938838E-04  -1.477303072172668E-04
  -1.514693701777218E-04  -1.553030496422896E-04  -1.592337388744594E-04
  -1.632638916227622E-04  -1.673960236467946E-04  -1.716327142816097E-04
  -1.759766080414339E-04  -1.804304162636865E-04  -1.849969187943142E-04
  -1.896789657154651E-04  -1.944794791165592E-04  -1.994014549098388E-04
  -2.044479646915000E-04  -2.096221576495505E-04  -2.149272625195450E-04
  -2.203665895893972E-04  -2.259435327544864E-04  -2.316615716243031E-04
  -2.375242736819233E-04  -2.435352964976147E-04  -2.496983899979216E-04
  -2.560173987916057E-04  -2.624962645538451E-04  -2.691390284701443E-04
  -2.759498337414265E-04  -2.829329281518235E-04  -2.900926667007178E-04
  -2.974335143006154E-04  -3.049600485424857E-04  -3.126769625302287E-04
  -3.205890677859722E-04  -3.287012972279512E-04  -3.370187082227496E-04
  -3.455464857137415E-04  -3.542899454276027E-04  -3.632545371608101E-04
  -3.724458481480999E-04  -3.818696065148817E-04  -3.915316848156855E-04
  -4.014381036607339E-04  -4.115950354328025E-04  -4.220088080965812E-04
  -4.326859091027820E-04  -4.436329893893227E-04  -4.548568674819433E-04
  -4.663645336966795E-04  -4.781631544466758E-04  -4.902600766558644E-04
  -5.026628322821208E-04  -5.153791429525360E-04  -5.284169247135324E-04
  -5.417842928986006E-04  -5.554895671164909E-04  -5.695412763627823E-04
  -5.839481642577948E-04  -5.987191944138848E-04  -6.138635559352470E-04
  -6.293906690533835E-04  -6.453101909015172E-04  -6.616320214312600E-04
  -6.783663094749410E-04  -6.955234589570708E-04  -7.131141352585043E-04
  -7.311492717369138E-04  -7.496400764073108E-04  -7.685980387863929E-04
  -7.880349369045964E-04  -8.079628444898307E-04  -8.283941383269076E-04
  -8.493415057968447E-04  -8.708179526002278E-04  -8.928368106689686E-04
  -9.154117462708586E-04  -9.385567683114004E-04  -9.622862368375358E-04
  -9.866148717479391E-04  -1.011557761714664E-03  -1.037130373321043E-03
  -1.063348560420783E-03  -1.090228573723401E-03  -1.117787070611131E-03
  -1.146041125192625E-03  -1.175008238598844E-03  -1.204706349526605E-03
  -1.235153845035456E-03  -1.266369571603534E-03  -1.298372846448268E-03
  -1.331183469117868E-03  -1.364821733359610E-03  -1.399308439271133E-03
  -1.434664905740974E-03  -1.470912983184756E-03  -1.508075066583529E-03
  -1.546174108830849E-03  -1.585233634395378E-03  -1.625277753305812E-03
  -1.666331175465104E-03  -1.708419225301092E-03  -1.751567856760666E-03
  -1.795803668654836E-03  -1.841153920362106E-03  -1.887646547897672E-03
  -1.935310180356134E-03  -1.984174156735420E-03  -2.034268543149871E-03
  -2.085624150440407E-03  -2.138272552189897E-03  -2.192246103151919E-03
  -2.247577958101184E-03  -2.304302091114071E-03  -2.362453315287726E-03
  -2.422067302906327E-03  -2.483180606063229E-03  -2.545830677747669E-03
  -2.610055893404991E-03  -2.675895572979241E-03  -2.743390003447150E-03
  -2.812580461852600E-03  -2.883509238850615E-03  -2.956219662770168E-03
  -3.030756124204925E-03  -3.107164101141242E-03  -3.185490184632692E-03
  -3.265782105030388E-03  -3.348088758778469E-03  -3.432460235784039E-03
  -3.518947847370828E-03  -3.607604154825906E-03  -3.698482998548571E-03
  -3.791639527810703E-03  -3.887130231137607E-03  -3.985012967318360E-03
  -4.085346997054607E-03  -4.188193015256511E-03  -4.293613183994575E-03
  -4.401671166115746E-03  -4.512432159532063E-03  -4.625962932190004E-03
  -4.742331857728147E-03  -4.861608951830941E-03  -4.983865909285641E-03
  -5.109176141749402E-03  -5.237614816233097E-03  -5.369258894307925E-03
  -5.504187172040632E-03  -5.642480320662505E-03  -5.784220927976883E-03
  -5.929493540509352E-03  -6.078384706404075E-03  -6.230983019069295E-03
  -6.387379161574025E-03  -6.547665951797403E-03  -6.711938388331300E-03
  -6.880293697135690E-03  -7.052831378945771E-03  -7.229653257428268E-03
  -7.410863528083683E-03  -7.596568807889857E-03  -7.786878185680902E-03
  -7.981903273254510E-03  -8.181758257198846E-03  -8.386559951428969E-03
  -8.596427850421026E-03  -8.811484183130497E-03  -9.031853967579473E-03
  -9.257665066095376E-03  -9.489048241181788E-03  -9.726137211999894E-03
  -9.969068711436302E-03  -1.021798254373110E-02  -1.047302164263686E-02
  -1.073433213007672E-02  -1.100206337526679E-02  -1.127636805426474E-02
  -1.155740220990347E-02  -1.184532531206488E-02  -1.214030031824537E-02
  -1.244249373436074E-02  -1.275207567573359E-02  -1.306921992820284E-02
  -1.339410400928959E-02  -1.372690922934902E-02  -1.406782075263314E-02
  -1.441702765818316E-02  -1.477472300046565E-02  -1.514110386965953E-02
  -1.551637145149558E-02  -1.590073108654315E-02  -1.629439232883162E-02
  -1.669756900368772E-02  -1.711047926466103E-02  -1.753334564940293E-02
  -1.796639513435531E-02  -1.840985918809653E-02  -1.886397382318322E-02
  -1.932897964631640E-02  -1.980512190665034E-02  -2.029265054205214E-02
  -2.079182022310812E-02  -2.130289039466265E-02  -2.182612531466158E-02
  -2.236179409006027E-02  -2.291017070954311E-02  -2.347153407278628E-02
  -2.404616801598279E-02  -2.463436133333166E-02  -2.523640779417867E-02
  -2.585260615547874E-02  -2.648326016923283E-02  -2.712867858453498E-02
  -2.778917514384510E-02  -2.846506857308492E-02  -2.915668256513335E-02
  -2.986434575627659E-02  -3.058839169514704E-02  -3.132915880366142E-02
  -3.208699032944542E-02  -3.286223428920806E-02  -3.365524340250223E-02
  -3.446637501528378E-02  -3.529599101265225E-02  -3.614445772012946E-02
  -3.701214579280317E-02  -3.789943009163185E-02  -3.880668954617756E-02
  -3.973430700300063E-02  -4.068266905891753E-02  -4.165216587829002E-02
  -4.264319099347789E-02  -4.365614108755387E-02  -4.469141575834115E-02
  -4.574941726279768E-02  -4.683055024073341E-02  -4.793522141680642E-02
  -4.906383927970688E-02  -5.021681373739487E-02  -5.139455574721867E-02
  -5.259747691969891E-02  -5.382598909472040E-02  -5.508050388883402E-02
  -5.636143221232601E-02  -5.766918375467055E-02  -5.900416643693976E-02
  -6.036678582970004E-02  -6.175744453488598E-02  -6.317654153009709E-02
  -6.462447147372458E-02  -6.610162396927503E-02  -6.760838278721770E-02
  -6.914512504264764E-02  -7.071222032701897E-02  -7.231002979217072E-02
  -7.393890518483694E-02  -7.559918782980318E-02  -7.729120755984956E-02
  -7.901528159059751E-02  -8.077171333836071E-02  -8.256079117909119E-02
  -8.438278714650028E-02  -8.623795556743977E-02  -8.812653163262905E-02
  -9.004872990083052E-02  -9.200474273459681E-02  -9.399473866574130E-02
  -9.601886068872853E-02  -9.807722448022725E-02  -1.001699165431345E-01
  -1.022969922734549E-01  -1.044584739485053E-01  -1.066543486350274E-01
  -1.088845660159026E-01  -1.111490361343102E-01  -1.134476270543251E-01
  -1.157801624371276E-01  -1.181464190322064E-01  -1.205461240831522E-01
  -1.229789526478964E-01  -1.254445248335268E-01  -1.279424029461137E-01
  -1.304720885563301E-01  -1.330330194820091E-01  -1.356245666891997E-01
  -1.382460311137207E-01  -1.408966404056993E-01  -1.435755456001096E-01
  -1.462818177168963E-01  -1.490144442948861E-01  -1.517723258643595E-01
  -1.545542723638700E-01  -1.573589995076775E-01  -1.601851251109846E-01
  -1.630311653810572E-01  -1.658955311832579E-01  -1.687765242920311E-01
  -1.716723336379599E-01  -1.745810315631532E-01  -1.775005700984393E-01
  -1.804287772771225E-01  -1.833633535014119E-01  -1.863018679790646E-01
  -1.892417552492775E-01  -1.921803118184393E-01  -1.951146929279978E-01
  -1.980419094784103E-01  -2.009588251349384E-01  -2.038621536428930E-01
  -2.067484563818577E-01  -2.096141401903936E-01  -2.124554554947594E-01
  -2.152684947772600E-01  -2.180491914219592E-01  -2.207933189776354E-01
  -2.234964908800421E-01  -2.261541606777008E-01  -2.287616228076420E-01
  -2.313140139696492E-01  -2.338063151496806E-01  -2.362333543451891E-01
  -2.385898100470249E-01  -2.408702155344713E-01  -2.430689640416616E-01
  -2.451803148551906E-01  -2.471984004040625E-01  -2.491172344042105E-01
  -2.509307211206450E-01  -2.526326658107467E-01  -2.542167864123285E-01
  -2.556767265397457E-01  -2.570060698504922E-01  -2.581983558433420E-01
  -2.592470971470666E-01  -2.601457983560662E-01  -2.608879764657664E-01
  -2.614671829563154E-01  -2.618770275678555E-01  -2.621112038043729E-01
  -2.621635161957416E-01  -2.620279093389860E-01  -2.616984987298952E-01
  -2.611696033848219E-01  -2.604357802397029E-01  -2.594918602989225E-01
  -2.583329864905277E-01  -2.569546531663727E-01  -2.553527471659265E-01
  -2.535235903406386E-01  -2.514639834118088E-01  -2.491712510087911E-01
  -2.466432877059903E-01  -2.438786048464220E-01  -2.408763779065674E-01
  -2.376364941218166E-01  -2.341596000539528E-01  -2.304471487419274E-01
  -2.265014460345826E-01  -2.223256956591718E-01  -2.179240425325047E-01
  -2.133016137725369E-01  -2.084645568174075E-01  -2.034200740064988E-01
  -1.981764529244516E-01  -1.927430917544808E-01  -1.871305188323004E-01
  -1.813504055370034E-01  -1.754155716008658E-01  -1.693399818670782E-01
  -1.631387334735050E-01  -1.568280323927013E-01  -1.504251582146279E-01
  -1.439484160197979E-01  -1.374170741584301E-01  -1.308512867268071E-01
  -1.242719995171446E-01  -1.177008382135802E-01  -1.111599776162156E-01
  -1.046719906997660E-01  -9.825967635539000E-02  -9.194586472631158E-02
  -8.575319913262024E-02  -7.970389369094362E-02  -7.381946587389242E-02
  -6.812044342546121E-02  -6.262604525568101E-02  -5.735383618456822E-02
  -5.231935569578213E-02  -4.753572119876374E-02  -4.301320668877168E-02
  -3.875879814176948E-02  -3.477572749019811E-02  -3.106298760079248E-02
  -2.761483132145116E-02  -2.442025838491450E-02  -2.146249475666318E-02
  -1.872292373127826E-02  -1.619603816895832E-02  -1.387947982452076E-02
  -1.177006787295787E-02  -9.863776939837421E-03  -8.155713437814183E-03
  -6.640090087569384E-03  -5.310198551628287E-03  -4.158380169828280E-03
  -3.175994856653763E-03  -2.353388304021098E-03  -1.679857729153689E-03
  -1.143616517154777E-03  -7.317582323894678E-04  -4.302206132220654E-04
  -2.237503218452952E-04  -9.586939608885459E-05  -2.884454436324901E-05
  -3.660639170566249E-06   0.000000000000000E+00   0.000000000000000E+00
   0.000000000000000E+00   0.000000000000000E+00   0.000000000000000E+00
   0.000000000000000E+00   0.000000000000000E+00   0.000000000000000E+00
   0.000000000000000E+00   0.000000000000000E+00   0.000000000000000E+00
   0.000000000000000E+00   0.000000000000000E+00   0.000000000000000E+00
   0.000000000000000E+00   0.000000000000000E+00   0.000000000000000E+00
   0.000000000000000E+00   0.000000000000000E+00   0.000000000000000E+00
   0.000000000000000E+00   0.000000000000000E+00   0.000000000000000E+00
   0.000000000000000E+00   0.000000000000000E+00   0.000000000000000E+00
   0.000000000000000E+00   0.000000000000000E+00   0.000000000000000E+00
   0.000000000000000E+00   0.000000000000000E+00   0.000000000000000E+00
   0.000000000000000E+00   0.000000000000000E+00   0.000000000000000E+00
   0.000000000000000E+00   0.000000000000000E+00   0.000000000000000E+00
   0.000000000000000E+00   0.000000000000000E+00   0.000000000000000E+00
   0.000000000000000E+00   0.000000000000000E+00   0.000000000000000E+00
   0.000000000000000E+00   0.000000000000000E+00   0.000000000000000E+00
   0.000000000000000E+00   0.000000000000000E+00   0.000000000000000E+00
   0.000000000000000E+00   0.000000000000000E+00   0.000000000000000E+00
   0.000000000000000E+00   0.000000000000000E+00   0.000000000000000E+00
   0.000000000000000E+00   0.000000000000000E+00   0.000000000000000E+00
   0.000000000000000E+00   0.000000000000000E+00   0.000000000000000E+00
   0.000000000000000E+00   0.000000000000000E+00   0.000000000000000E+00
   0.000000000000000E+00   0.000000000000000E+00   0.000000000000000E+00
   0.000000000000000E+00   0.000000000000000E+00   0.000000000000000E+00
   0.000000000000000E+00   0.000000000000000E+00   0.000000000000000E+00
   0.000000000000000E+00   0.000000000000000E+00   0.000000000000000E+00
   0.000000000000000E+00   0.000000000000000E+00   0.000000000000000E+00
   0.000000000000000E+00   0.000000000000000E+00   0.000000000000000E+00
   0.000000000000000E+00   0.000000000000000E+00   0.000000000000000E+00
   0.000000000000000E+00   0.000000000000000E+00   0.000000000000000E+00
   0.000000000000000E+00   0.000000000000000E+00   0.000000000000000E+00
   0.000000000000000E+00   0.000000000000000E+00   0.000000000000000E+00
   0.000000000000000E+00   0.000000000000000E+00   0.000000000000000E+00
   0.000000000000000E+00   0.000000000000000E+00   0.000000000000000E+00
   0.000000000000000E+00   0.000000000000000E+00   0.000000000000000E+00
   0.000000000000000E+00   0.000000000000000E+00   0.000000000000000E+00
   0.000000000000000E+00   0.000000000000000E+00   0.000000000000000E+00
   0.000000000000000E+00   0.000000000000000E+00   0.000000000000000E+00
   0.000000000000000E+00   0.000000000000000E+00   0.000000000000000E+00
   0.000000000000000E+00   0.000000000000000E+00   0.000000000000000E+00
   0.000000000000000E+00   0.000000000000000E+00   0.000000000000000E+00
   0.000000000000000E+00   0.000000000000000E+00   0.000000000000000E+00
   0.000000000000000E+00   0.000000000000000E+00   0.000000000000000E+00
   0.000000000000000E+00   0.000000000000000E+00   0.000000000000000E+00
   0.000000000000000E+00   0.000000000000000E+00   0.000000000000000E+00
   0.000000000000000E+00   0.000000000000000E+00   0.000000000000000E+00
   0.000000000000000E+00   0.000000000000000E+00   0.000000000000000E+00
   0.000000000000000E+00   0.000000000000000E+00   0.000000000000000E+00
   0.000000000000000E+00   0.000000000000000E+00   0.000000000000000E+00
   0.000000000000000E+00   0.000000000000000E+00   0.000000000000000E+00
   0.000000000000000E+00   0.000000000000000E+00   0.000000000000000E+00
   0.000000000000000E+00   0.000000000000000E+00   0.000000000000000E+00
   0.000000000000000E+00   0.000000000000000E+00   0.000000000000000E+00
   0.000000000000000E+00   0.000000000000000E+00   0.000000000000000E+00
   0.000000000000000E+00   0.000000000000000E+00   0.000000000000000E+00
   0.000000000000000E+00   0.000000000000000E+00   0.000000000000000E+00
   0.000000000000000E+00   0.000000000000000E+00   0.000000000000000E+00
   0.000000000000000E+00   0.000000000000000E+00   0.000000000000000E+00
   0.000000000000000E+00   0.000000000000000E+00   0.000000000000000E+00
   0.000000000000000E+00   0.000000000000000E+00   0.000000000000000E+00
   0.000000000000000E+00   0.000000000000000E+00   0.000000000000000E+00
   0.000000000000000E+00   0.000000000000000E+00   0.000000000000000E+00
   0.000000000000000E+00   0.000000000000000E+00   0.000000000000000E+00
   0.000000000000000E+00   0.000000000000000E+00   0.000000000000000E+00
   0.000000000000000E+00   0.000000000000000E+00   0.000000000000000E+00
   0.000000000000000E+00   0.000000000000000E+00   0.000000000000000E+00
   0.000000000000000E+00   0.000000000000000E+00   0.000000000000000E+00
   0.000000000000000E+00   0.000000000000000E+00   0.000000000000000E+00
   0.000000000000000E+00   0.000000000000000E+00   0.000000000000000E+00
   0.000000000000000E+00   0.000000000000000E+00   0.000000000000000E+00
   0.000000000000000E+00   0.000000000000000E+00   0.000000000000000E+00
   0.000000000000000E+00   0.000000000000000E+00   0.000000000000000E+00
   0.000000000000000E+00   0.000000000000000E+00   0.000000000000000E+00
   0.000000000000000E+00   0.000000000000000E+00   0.000000000000000E+00
   0.000000000000000E+00   0.000000000000000E+00   0.000000000000000E+00
   0.000000000000000E+00   0.000000000000000E+00   0.000000000000000E+00
   0.000000000000000E+00   0.000000000000000E+00   0.000000000000000E+00
   0.000000000000000E+00   0.000000000000000E+00   0.000000000000000E+00
   0.000000000000000E+00   0.000000000000000E+00   0.000000000000000E+00
   0.000000000000000E+00   0.000000000000000E+00   0.000000000000000E+00
   0.000000000000000E+00   0.000000000000000E+00   0.000000000000000E+00
   0.000000000000000E+00   0.000000000000000E+00   0.000000000000000E+00
   0.000000000000000E+00   0.000000000000000E+00   0.000000000000000E+00
   0.000000000000000E+00   0.000000000000000E+00   0.000000000000000E+00
   0.000000000000000E+00   0.000000000000000E+00   0.000000000000000E+00
   0.000000000000000E+00   0.000000000000000E+00   0.000000000000000E+00
   0.000000000000000E+00   0.000000000000000E+00   0.000000000000000E+00
   0.000000000000000E+00   0.000000000000000E+00   0.000000000000000E+00
   0.000000000000000E+00   0.000000000000000E+00   0.000000000000000E+00
   0.000000000000000E+00   0.000000000000000E+00   0.000000000000000E+00
   0.000000000000000E+00   0.000000000000000E+00   0.000000000000000E+00
   0.000000000000000E+00   0.000000000000000E+00   0.000000000000000E+00
   0.000000000000000E+00   0.000000000000000E+00   0.000000000000000E+00
   0.000000000000000E+00   0.000000000000000E+00   0.000000000000000E+00
   0.000000000000000E+00   0.000000000000000E+00   0.000000000000000E+00
   0.000000000000000E+00   0.000000000000000E+00   0.000000000000000E+00
   0.000000000000000E+00   0.000000000000000E+00   0.000000000000000E+00
   0.000000000000000E+00   0.000000000000000E+00   0.000000000000000E+00
   0.000000000000000E+00   0.000000000000000E+00   0.000000000000000E+00
   0.000000000000000E+00   0.000000000000000E+00   0.000000000000000E+00
   0.000000000000000E+00   0.000000000000000E+00   0.000000000000000E+00
   0.000000000000000E+00   0.000000000000000E+00   0.000000000000000E+00
   0.000000000000000E+00   0.000000000000000E+00   0.000000000000000E+00
   0.000000000000000E+00   0.000000000000000E+00   0.000000000000000E+00
   0.000000000000000E+00   0.000000000000000E+00   0.000000000000000E+00
   0.000000000000000E+00   0.000000000000000E+00   0.000000000000000E+00
   0.000000000000000E+00   0.000000000000000E+00   0.000000000000000E+00
   0.000000000000000E+00   0.000000000000000E+00   0.000000000000000E+00
   0.000000000000000E+00   0.000000000000000E+00   0.000000000000000E+00
   0.000000000000000E+00   0.000000000000000E+00   0.000000000000000E+00
   0.000000000000000E+00   0.000000000000000E+00   0.000000000000000E+00
   0.000000000000000E+00   0.000000000000000E+00   0.000000000000000E+00
   0.000000000000000E+00   0.000000000000000E+00   0.000000000000000E+00
   0.000000000000000E+00   0.000000000000000E+00   0.000000000000000E+00
   0.000000000000000E+00   0.000000000000000E+00   0.000000000000000E+00
   0.000000000000000E+00   0.000000000000000E+00   0.000000000000000E+00
   0.000000000000000E+00   0.000000000000000E+00
      </PP_QIJL.1.1.0>
      <PP_QIJL.1.2.0 first_index="1" second_index="2" composite_index="2" angular_momentum="0" size="1085">
  -4.781187743425204E-08  -4.902224078692500E-08  -5.026324462928482E-08
  -5.153566462879188E-08  -5.284029608901034E-08  -5.417795444669729E-08
  -5.554947578147675E-08  -5.695571733841561E-08  -5.839755806382839E-08
  -5.987589915464683E-08  -6.139166462169553E-08  -6.294580186722770E-08
  -6.453928227708152E-08  -6.617310182782603E-08  -6.784828170927826E-08
  -6.956586896277782E-08  -7.132693713562073E-08  -7.313258695205982E-08
  -7.498394700129109E-08  -7.688217444285780E-08  -7.882845572990991E-08
  -8.082400735077454E-08  -8.287007658929857E-08  -8.496794230443935E-08
  -8.711891572959135E-08  -8.932434129214645E-08  -9.158559745380299E-08
  -9.390409757214616E-08  -9.628129078403980E-08  -9.871866291138141E-08
  -1.012177373897855E-07  -1.037800762207778E-07  -1.064072809480929E-07
  -1.091009936586883E-07  -1.118628980090986E-07  -1.146947202777704E-07
  -1.175982304440394E-07  -1.205752432944207E-07  -1.236276195569039E-07
  -1.267572670639652E-07  -1.299661419450182E-07  -1.332562498490541E-07
  -1.366296471982313E-07  -1.400884424732005E-07  -1.436347975309681E-07
  -1.472709289561193E-07  -1.509991094462496E-07  -1.548216692324673E-07
  -1.587409975358561E-07  -1.627595440608084E-07  -1.668798205261610E-07
  -1.711044022350931E-07  -1.754359296847646E-07  -1.798771102167030E-07
  -1.844307197089711E-07  -1.890996043111679E-07  -1.938866822233550E-07
  -1.987949455200139E-07  -2.038274620201776E-07  -2.089873772049050E-07
  -2.142779161832929E-07  -2.197023857082615E-07  -2.252641762433659E-07
  -2.309667640819303E-07  -2.368137135198291E-07  -2.428086790832672E-07
  -2.489554078129605E-07  -2.552577416061387E-07  -2.617196196178343E-07
  -2.683450807229633E-07  -2.751382660407267E-07  -2.821034215229238E-07
  -2.892449006077838E-07  -2.965671669409786E-07  -3.040747971655219E-07
  -3.117724837822861E-07  -3.196650380829403E-07  -3.277573931571300E-07
  -3.360546069757850E-07  -3.445618655524813E-07  -3.532844861848268E-07
  -3.622279207779092E-07  -3.713977592518700E-07  -3.807997330357430E-07
  -3.904397186497403E-07  -4.003237413782151E-07  -4.104579790356132E-07
  -4.208487658277535E-07  -4.315025963108546E-07  -4.424261294507884E-07
  -4.536261927850837E-07  -4.651097866902952E-07  -4.768840887573989E-07
  -4.889564582779451E-07  -5.013344408437831E-07  -5.140257730632155E-07
  -5.270383873965514E-07  -5.403804171140596E-07  -5.540602013794357E-07
  -5.680862904619556E-07  -5.824674510805634E-07  -5.972126718832520E-07
  -6.123311690651451E-07  -6.278323921287992E-07  -6.437260297903288E-07
  -6.600220160350297E-07  -6.767305363263091E-07  -6.938620339717844E-07
  -7.114272166505355E-07  -7.294370631055959E-07  -7.479028300058479E-07
  -7.668360589816320E-07  -7.862485838384535E-07  -8.061525379532992E-07
  -8.265603618581861E-07  -8.474848110156788E-07  -8.689389637912391E-07
  -8.909362296273925E-07  -9.134903574248085E-07  -9.366154441355510E-07
  -9.603259435738440E-07  -9.846366754498872E-07  -1.009562834632346E-06
  -1.035120000645312E-06  -1.061324147405679E-06  -1.088191653206987E-06
  -1.115739310956023E-06  -1.143984338668530E-06  -1.172944390230614E-06
  -1.202637566432557E-06  -1.233082426281935E-06  -1.264297998603123E-06
  -1.296303793930409E-06  -1.329119816702188E-06  -1.362766577763819E-06
  -1.397265107186974E-06  -1.432636967413499E-06  -1.468904266731984E-06
  -1.506089673095472E-06  -1.544216428288957E-06  -1.583308362455474E-06
  -1.623389908989927E-06  -1.664486119809914E-06  -1.706622681013100E-06
  -1.749825928930947E-06  -1.794122866588784E-06  -1.839541180582560E-06
  -1.886109258382787E-06  -1.933856206076491E-06  -1.982811866558283E-06
  -2.033006838181866E-06  -2.084472493883698E-06  -2.137241000790702E-06
  -2.191345340324309E-06  -2.246819328813406E-06  -2.303697638628997E-06
  -2.362015819853894E-06  -2.421810322500891E-06  -2.483118519293322E-06
  -2.545978729022290E-06  -2.610430240495055E-06  -2.676513337089664E-06
  -2.744269321931082E-06  -2.813740543704571E-06  -2.884970423122510E-06
  -2.958003480061028E-06  -3.032885361383663E-06  -3.109662869469131E-06
  -3.188383991461284E-06  -3.269097929259404E-06  -3.351855130267527E-06
  -3.436707318922191E-06  -3.523707529018073E-06  -3.612910136851890E-06
  -3.704370895205209E-06  -3.798146968187301E-06  -3.894296966960060E-06
  -3.992880986366968E-06  -4.093960642489266E-06  -4.197599111152683E-06
  -4.303861167408692E-06  -4.412813226015199E-06  -4.524523382941635E-06
  -4.639061457924656E-06  -4.756499038100903E-06  -4.876909522743976E-06
  -5.000368169133904E-06  -5.126952139587315E-06  -5.256740549678028E-06
  -5.389814517678092E-06  -5.526257215249954E-06  -5.666153919421852E-06
  -5.809592065878364E-06  -5.956661303599828E-06  -6.107453550884583E-06
  -6.262063052788883E-06  -6.420586440020735E-06  -6.583122789323975E-06
  -6.749773685390652E-06  -6.920643284340280E-06  -7.095838378805373E-06
  -7.275468464664412E-06  -7.459645809463297E-06  -7.648485522568509E-06
  -7.842105627095575E-06  -8.040627133657589E-06  -8.244174115980320E-06
  -8.452873788430481E-06  -8.666856585506107E-06  -8.886256243338413E-06
  -9.111209883255886E-06  -9.341858097463256E-06  -9.578345036888196E-06
  -9.820818501251093E-06  -1.006943003141397E-05  -1.032433500406589E-05
  -1.058569272880469E-05  -1.085366654767463E-05  -1.112842393722301E-05
  -1.141013661313897E-05  -1.169898063753963E-05  -1.199513652897120E-05
  -1.229878937519278E-05  -1.261012894881406E-05  -1.292934982585870E-05
  -1.325665150732699E-05  -1.359223854383477E-05  -1.393632066340497E-05
  -1.428911290249246E-05  -1.465083574032383E-05  -1.502171523663526E-05
  -1.540198317289550E-05  -1.579187719710083E-05  -1.619164097223330E-05
  -1.660152432847440E-05  -1.702178341926876E-05  -1.745268088133632E-05
  -1.789448599873123E-05  -1.834747487105106E-05  -1.881193058590067E-05
  -1.928814339571782E-05  -1.977641089907216E-05  -2.027703822654872E-05
  -2.079033823133332E-05  -2.131663168461814E-05  -2.185624747594885E-05
  -2.240952281863899E-05  -2.297680346037880E-05  -2.355844389917025E-05
  -2.415480760472276E-05  -2.476626724544715E-05  -2.539320492118990E-05
  -2.603601240185195E-05  -2.669509137204132E-05  -2.737085368191159E-05
  -2.806372160434239E-05  -2.877412809862236E-05  -2.950251708079838E-05
  -3.024934370085967E-05  -3.101507462692943E-05  -3.180018833664020E-05
  -3.260517541587536E-05  -3.343053886506177E-05  -3.427679441320460E-05
  -3.514447083985980E-05  -3.603411030524405E-05  -3.694626868868819E-05
  -3.788151593564396E-05  -3.884043641346040E-05  -3.982362927615098E-05
  -4.083170883837784E-05  -4.186530495888646E-05  -4.292506343362815E-05
  -4.401164639881536E-05  -4.512573274416013E-05  -4.626801853655200E-05
  -4.743921745443925E-05  -4.864006123318258E-05  -4.987130012165830E-05
  -5.113370335039453E-05  -5.242805961153025E-05  -5.375517755089654E-05
  -5.511588627252368E-05  -5.651103585588869E-05  -5.794149788622322E-05
  -5.940816599821079E-05  -6.091195643341115E-05  -6.245380861175654E-05
  -6.403468571747452E-05  -6.565557529980089E-05  -6.731748988885361E-05
  -6.902146762705093E-05  -7.076857291646309E-05  -7.255989708249979E-05
  -7.439655905434363E-05  -7.627970606255005E-05  -7.821051435424692E-05
  -8.019018992637435E-05  -8.221996927741951E-05  -8.430112017811090E-05
  -8.643494246154729E-05  -8.862276883325152E-05  -9.086596570164760E-05
  -9.316593402947481E-05  -9.552411020666511E-05  -9.794196694522017E-05
  -1.004210141966432E-04  -1.029628000924886E-04  -1.055689119086108E-04
  -1.082409770537065E-04  -1.109806640827580E-04  -1.137896837360036E-04
  -1.166697900040732E-04  -1.196227812199447E-04  -1.226505011783942E-04
  -1.257548402836253E-04  -1.289377367257876E-04  -1.322011776871010E-04
  -1.355472005783322E-04  -1.389778943063789E-04  -1.424954005737399E-04
  -1.461019152106694E-04  -1.497996895408289E-04  -1.535910317812769E-04
  -1.574783084776511E-04  -1.614639459754230E-04  -1.655504319281211E-04
  -1.697403168434504E-04  -1.740362156682480E-04  -1.784408094132439E-04
  -1.829568468186204E-04  -1.875871460613806E-04  -1.923345965055731E-04
  -1.972021604964337E-04  -2.021928751995385E-04  -2.073098544860870E-04
  -2.125562908654574E-04  -2.179354574662145E-04  -2.234507100667658E-04
  -2.291054891769010E-04  -2.349033221714762E-04  -2.408478254775302E-04
  -2.469427068161627E-04  -2.531917675005247E-04  -2.595989047913092E-04
  -2.661681143111682E-04  -2.729034925195011E-04  -2.798092392491175E-04
  -2.868896603062922E-04  -2.941491701357761E-04  -3.015922945523697E-04
  -3.092236735406845E-04  -3.170480641247849E-04  -3.250703433094191E-04
  -3.332955110945979E-04  -3.417286935653257E-04  -3.503751460583210E-04
  -3.592402564076172E-04  -3.683295482709740E-04  -3.776486845390719E-04
  -3.872034708295222E-04  -3.969998590677459E-04  -4.070439511568624E-04
  -4.173420027387379E-04  -4.279004270484213E-04  -4.387257988642421E-04
  -4.498248585558774E-04  -4.612045162327872E-04  -4.728718559954327E-04
  -4.848341402917742E-04  -4.970988143815941E-04  -5.096735109112388E-04
  -5.225660546014593E-04  -5.357844670510593E-04  -5.493369716591422E-04
  -5.632319986688121E-04  -5.774781903352239E-04  -5.920844062209811E-04
  -6.070597286219148E-04  -6.224134681263578E-04  -6.381551693111046E-04
  -6.542946165772911E-04  -6.708418401295436E-04  -6.878071221017750E-04
  -7.052010028331111E-04  -7.230342872974852E-04  -7.413180516905428E-04
  -7.600636501775297E-04  -7.792827218059813E-04  -7.989871975870470E-04
  -8.191893077494089E-04  -8.399015891698280E-04  -8.611368929844061E-04
  -8.829083923847977E-04  -9.052295906036290E-04  -9.281143290935105E-04
  -9.515767959041161E-04  -9.756315342618522E-04  -1.000293451356805E-03
  -1.025577827341675E-03  -1.051500324547541E-03  -1.078076996921399E-03
  -1.105324299690462E-03  -1.133259099258392E-03  -1.161898683338651E-03
  -1.191260771330296E-03  -1.221363524941669E-03  -1.252225559067439E-03
  -1.283865952924693E-03  -1.316304261453745E-03  -1.349560526989513E-03
  -1.383655291209407E-03  -1.418609607363712E-03  -1.454445052794672E-03
  -1.491183741750460E-03  -1.528848338500410E-03  -1.567462070757956E-03
  -1.607048743417804E-03  -1.647632752614037E-03  -1.689239100105883E-03
  -1.731893407998006E-03  -1.775621933802300E-03  -1.820451585848222E-03
  -1.866409939048847E-03  -1.913525251029896E-03  -1.961826478629078E-03
  -2.011343294773222E-03  -2.062106105740684E-03  -2.114146068816715E-03
  -2.167495110349465E-03  -2.222185944214417E-03  -2.278252090695161E-03
  -2.335727895788380E-03  -2.394648550941155E-03  -2.455050113228618E-03
  -2.516969525980102E-03  -2.580444639862031E-03  -2.645514234425718E-03
  -2.712218040128452E-03  -2.780596760836143E-03  -2.850692096815897E-03
  -2.922546768226918E-03  -2.996204539118034E-03  -3.071710241940365E-03
  -3.149109802583382E-03  -3.228450265942774E-03  -3.309779822028449E-03
  -3.393147832620857E-03  -3.478604858483959E-03  -3.566202687142893E-03
  -3.655994361234413E-03  -3.748034207438053E-03  -3.842377865995754E-03
  -3.939082320827712E-03  -4.038205930251884E-03  -4.139808458314484E-03
  -4.243951106738559E-03  -4.350696547497497E-03  -4.460108956020107E-03
  -4.572254045033551E-03  -4.687199099050117E-03  -4.805013009503542E-03
  -4.925766310539988E-03  -5.049531215468733E-03  -5.176381653876758E-03
  -5.306393309411245E-03  -5.439643658233317E-03  -5.576212008145694E-03
  -5.716179538396569E-03  -5.859629340161055E-03  -6.006646457700960E-03
  -6.157317930202907E-03  -6.311732834293763E-03  -6.469982327231771E-03
  -6.632159690770491E-03  -6.798360375691783E-03  -6.968682047003011E-03
  -7.143224629792162E-03  -7.322090355733835E-03  -7.505383810237132E-03
  -7.693211980225465E-03  -7.885684302536623E-03  -8.082912712929654E-03
  -8.285011695683766E-03  -8.492098333772263E-03  -8.704292359592702E-03
  -8.921716206232569E-03  -9.144495059247061E-03  -9.372756908924054E-03
  -9.606632603007996E-03  -9.846255899852510E-03  -1.009176352196843E-02
  -1.034329520993102E-02  -1.060099377660737E-02  -1.086500516166132E-02
  -1.113547848629006E-02  -1.141256610814295E-02  -1.169642367636889E-02
  -1.198721018673512E-02  -1.228508803675575E-02  -1.259022308076355E-02
  -1.290278468485454E-02  -1.322294578162903E-02  -1.355088292464840E-02
  -1.388677634252084E-02  -1.423080999252351E-02  -1.458317161366297E-02
  -1.494405277906838E-02  -1.531364894760663E-02  -1.569215951459996E-02
  -1.607978786152068E-02  -1.647674140452861E-02  -1.688323164170947E-02
  -1.729947419886399E-02  -1.772568887368777E-02  -1.816209967817353E-02
  -1.860893487905712E-02  -1.906642703611806E-02  -1.953481303813557E-02
  -2.001433413628912E-02  -2.050523597478090E-02  -2.100776861844586E-02
  -2.152218657710138E-02  -2.204874882637637E-02  -2.258771882474475E-02
  -2.313936452647425E-02  -2.370395839018652E-02  -2.428177738270822E-02
  -2.487310297787726E-02  -2.547822114995059E-02  -2.609742236124282E-02
  -2.673100154360615E-02  -2.737925807334319E-02  -2.804249573912480E-02
  -2.872102270246388E-02  -2.941515145027528E-02  -3.012519873902997E-02
  -3.085148552998824E-02  -3.159433691497409E-02  -3.235408203212783E-02
  -3.313105397104892E-02  -3.392558966671581E-02  -3.473802978154130E-02
  -3.556871857489666E-02  -3.641800375940733E-02  -3.728623634329512E-02
  -3.817377045801231E-02  -3.908096317038077E-02  -4.000817427842050E-02
  -4.095576609001784E-02  -4.192410318355196E-02  -4.291355214956540E-02
  -4.392448131252895E-02  -4.495726043171920E-02  -4.601226038019041E-02
  -4.708985280078784E-02  -4.819040973811475E-02  -4.931430324532763E-02
  -5.046190496460178E-02  -5.163358568006958E-02  -5.282971484200136E-02
  -5.405066006096138E-02  -5.529678657063643E-02  -5.656845665800189E-02
  -5.786602905945400E-02  -5.918985832150552E-02  -6.054029412461133E-02
  -6.191768056865730E-02  -6.332235541862197E-02  -6.475464930888966E-02
  -6.621488490467227E-02  -6.770337601897504E-02  -6.922042668352192E-02
  -7.076633017204330E-02  -7.234136797431570E-02  -7.394580871933752E-02
  -7.557990704602244E-02  -7.724390241979487E-02  -7.893801789348273E-02
  -8.066245881091721E-02  -8.241741145167239E-02  -8.420304161541034E-02
  -8.601949314433319E-02  -8.786688638229782E-02  -8.974531656920406E-02
  -9.165485216933959E-02  -9.359553313244875E-02  -9.556736908638445E-02
  -9.757033746031848E-02  -9.960438153760541E-02  -1.016694084375406E-01
  -1.037652870254121E-01  -1.058918457504224E-01  -1.080488704112602E-01
  -1.102361018493179E-01  -1.124532335697978E-01  -1.146999092912180E-01
  -1.169757204241218E-01  -1.192802034801216E-01  -1.216128374127568E-01
  -1.239730408920285E-01  -1.263601695148939E-01  -1.287735129544473E-01
  -1.312122920510102E-01  -1.336756558488690E-01  -1.361626785829710E-01
  -1.386723566204915E-01  -1.412036053628325E-01  -1.437552561143149E-01
  -1.463260529245566E-01  -1.489146494123252E-01  -1.515196055794852E-01
  -1.541393846245481E-01  -1.567723497662770E-01  -1.594167610887775E-01
  -1.620707724205597E-01  -1.647324282611451E-01  -1.673996607699403E-01
  -1.700702868333052E-01  -1.727420052269876E-01  -1.754123938924022E-01
  -1.780789073465803E-01  -1.807388742470107E-01  -1.833894951340298E-01
  -1.860278403748962E-01  -1.886508483351926E-01  -1.912553238047359E-01
  -1.938379367067340E-01  -1.963952211205060E-01  -1.989235746496525E-01
  -2.014192581691421E-01  -2.038783959863343E-01  -2.062969764524849E-01
  -2.086708530627684E-01  -2.109957460842732E-01  -2.132672447527735E-01
  -2.154808100803373E-01  -2.176317783169568E-01  -2.197153651103905E-01
  -2.217266704092243E-01  -2.236606841548007E-01  -2.255122928080737E-01
  -2.272762867576031E-01  -2.289473686547796E-01  -2.305201627219107E-01
  -2.319892250779885E-01  -2.333490551257495E-01  -2.345941080419710E-01
  -2.357188084108179E-01  -2.367175650373758E-01  -2.375847869752585E-01
  -2.383149007983153E-01  -2.389023691419126E-01  -2.393417105340185E-01
  -2.396275205302849E-01  -2.397544941604981E-01  -2.397174496860739E-01
  -2.395113536596862E-01  -2.391313472685981E-01  -2.385727739327611E-01
  -2.378312081172533E-01  -2.369024853060973E-01  -2.357827330709285E-01
  -2.344684031533558E-01  -2.329563044641835E-01  -2.312436368859375E-01
  -2.293280257473963E-01  -2.272075568201167E-01  -2.248808116672688E-01
  -2.223469031545952E-01  -2.196055109119904E-01  -2.166569165122165E-01
  -2.135020381107294E-01  -2.101424642676069E-01  -2.065804866493478E-01
  -2.028191312849771E-01  -1.988621880276682E-01  -1.947142378502168E-01
  -1.903806775803210E-01  -1.858677416600984E-01  -1.811825204937483E-01
  -1.763329749280661E-01  -1.713279463929332E-01  -1.661771622130890E-01
  -1.608912355888606E-01  -1.554816597321774E-01  -1.499607956354386E-01
  -1.443418529448292E-01  -1.386388634065682E-01  -1.328666463545661E-01
  -1.270407657109936E-01  -1.211774779773939E-01  -1.152936707031565E-01
  -1.094067909301571E-01  -1.035347631271061E-01  -9.769589614417967E-02
  -9.190877873758506E-02  -8.619216323440904E-02  -8.056483692985121E-02
  -7.504548083146592E-02  -6.965251538766359E-02  -6.440393286021691E-02
  -5.931711602255464E-02  -5.440864288707517E-02  -4.969407718589078E-02
  -4.518774435077466E-02  -4.090249276081497E-02  -3.684944005205431E-02
  -3.303770431472356E-02  -2.947412004408615E-02  -2.616293876495020E-02
  -2.310551432356851E-02  -2.029997294139603E-02  -1.774086826211583E-02
  -1.541882180761211E-02  -1.332014950309028E-02  -1.142647525151722E-02
  -9.717830504628600E-03  -8.184418262694781E-03  -6.818850158026801E-03
  -5.613088710903491E-03  -4.558495558288855E-03  -3.645885716381358E-03
  -2.865588279818643E-03  -2.207514016957735E-03  -1.661230379082723E-03
  -1.216044500412627E-03  -8.610948232923854E-04  -5.854520362383875E-04
  -3.782300591223531E-04  -2.287078457560709E-04  -1.264627957874020E-04
  -6.151657057443249E-05  -2.449408601798431E-05  -6.796403960590558E-06
  -7.881557206879108E-07   0.000000000000000E+00   0.000000000000000E+00
   0.000000000000000E+00   0.000000000000000E+00   0.000000000000000E+00
   0.000000000000000E+00   0.000000000000000E+00   0.000000000000000E+00
   0.000000000000000E+00   0.000000000000000E+00   0.000000000000000E+00
   0.000000000000000E+00   0.000000000000000E+00   0.000000000000000E+00
   0.000000000000000E+00   0.000000000000000E+00   0.000000000000000E+00
   0.000000000000000E+00   0.000000000000000E+00   0.000000000000000E+00
   0.000000000000000E+00   0.000000000000000E+00   0.000000000000000E+00
   0.000000000000000E+00   0.000000000000000E+00   0.000000000000000E+00
   0.000000000000000E+00   0.000000000000000E+00   0.000000000000000E+00
   0.000000000000000E+00   0.000000000000000E+00   0.000000000000000E+00
   0.000000000000000E+00   0.000000000000000E+00   0.000000000000000E+00
   0.000000000000000E+00   0.000000000000000E+00   0.000000000000000E+00
   0.000000000000000E+00   0.000000000000000E+00   0.000000000000000E+00
   0.000000000000000E+00   0.000000000000000E+00   0.000000000000000E+00
   0.000000000000000E+00   0.000000000000000E+00   0.000000000000000E+00
   0.000000000000000E+00   0.000000000000000E+00   0.000000000000000E+00
   0.000000000000000E+00   0.000000000000000E+00   0.000000000000000E+00
   0.000000000000000E+00   0.000000000000000E+00   0.000000000000000E+00
   0.000000000000000E+00   0.000000000000000E+00   0.000000000000000E+00
   0.000000000000000E+00   0.000000000000000E+00   0.000000000000000E+00
   0.000000000000000E+00   0.000000000000000E+00   0.000000000000000E+00
   0.000000000000000E+00   0.000000000000000E+00   0.000000000000000E+00
   0.000000000000000E+00   0.000000000000000E+00   0.000000000000000E+00
   0.000000000000000E+00   0.000000000000000E+00   0.000000000000000E+00
   0.000000000000000E+00   0.000000000000000E+00   0.000000000000000E+00
   0.000000000000000E+00   0.000000000000000E+00   0.000000000000000E+00
   0.000000000000000E+00   0.000000000000000E+00   0.000000000000000E+00
   0.000000000000000E+00   0.000000000000000E+00   0.000000000000000E+00
   0.000000000000000E+00   0.000000000000000E+00   0.000000000000000E+00
   0.000000000000000E+00   0.000000000000000E+00   0.000000000000000E+00
   0.000000000000000E+00   0.000000000000000E+00   0.000000000000000E+00
   0.000000000000000E+00   0.000000000000000E+00   0.000000000000000E+00
   0.000000000000000E+00   0.000000000000000E+00   0.000000000000000E+00
   0.000000000000000E+00   0.000000000000000E+00   0.000000000000000E+00
   0.000000000000000E+00   0.000000000000000E+00   0.000000000000000E+00
   0.000000000000000E+00   0.000000000000000E+00   0.000000000000000E+00
   0.000000000000000E+00   0.000000000000000E+00   0.000000000000000E+00
   0.000000000000000E+00   0.000000000000000E+00   0.000000000000000E+00
   0.000000000000000E+00   0.000000000000000E+00   0.000000000000000E+00
   0.000000000000000E+00   0.000000000000000E+00   0.000000000000000E+00
   0.000000000000000E+00   0.000000000000000E+00   0.000000000000000E+00
   0.000000000000000E+00   0.000000000000000E+00   0.000000000000000E+00
   0.000000000000000E+00   0.000000000000000E+00   0.000000000000000E+00
   0.000000000000000E+00   0.000000000000000E+00   0.000000000000000E+00
   0.000000000000000E+00   0.000000000000000E+00   0.000000000000000E+00
   0.000000000000000E+00   0.000000000000000E+00   0.000000000000000E+00
   0.000000000000000E+00   0.000000000000000E+00   0.000000000000000E+00
   0.000000000000000E+00   0.000000000000000E+00   0.000000000000000E+00
   0.000000000000000E+00   0.000000000000000E+00   0.000000000000000E+00
   0.000000000000000E+00   0.000000000000000E+00   0.000000000000000E+00
   0.000000000000000E+00   0.000000000000000E+00   0.000000000000000E+00
   0.000000000000000E+00   0.000000000000000E+00   0.000000000000000E+00
   0.000000000000000E+00   0.000000000000000E+00   0.000000000000000E+00
   0.000000000000000E+00   0.000000000000000E+00   0.000000000000000E+00
   0.000000000000000E+00   0.000000000000000E+00   0.000000000000000E+00
   0.000000000000000E+00   0.000000000000000E+00   0.000000000000000E+00
   0.000000000000000E+00   0.000000000000000E+00   0.000000000000000E+00
   0.000000000000000E+00   0.000000000000000E+00   0.000000000000000E+00
   0.000000000000000E+00   0.000000000000000E+00   0.000000000000000E+00
   0.000000000000000E+00   0.000000000000000E+00   0.000000000000000E+00
   0.000000000000000E+00   0.000000000000000E+00   0.000000000000000E+00
   0.000000000000000E+00   0.000000000000000E+00   0.000000000000000E+00
   0.000000000000000E+00   0.000000000000000E+00   0.000000000000000E+00
   0.000000000000000E+00   0.000000000000000E+00   0.000000000000000E+00
   0.000000000000000E+00   0.000000000000000E+00   0.000000000000000E+00
   0.000000000000000E+00   0.000000000000000E+00   0.000000000000000E+00
   0.000000000000000E+00   0.000000000000000E+00   0.000000000000000E+00
   0.000000000000000E+00   0.000000000000000E+00   0.000000000000000E+00
   0.000000000000000E+00   0.000000000000000E+00   0.000000000000000E+00
   0.000000000000000E+00   0.000000000000000E+00   0.000000000000000E+00
   0.000000000000000E+00   0.000000000000000E+00   0.000000000000000E+00
   0.000000000000000E+00   0.000000000000000E+00   0.000000000000000E+00
   0.000000000000000E+00   0.000000000000000E+00   0.000000000000000E+00
   0.000000000000000E+00   0.000000000000000E+00   0.000000000000000E+00
   0.000000000000000E+00   0.000000000000000E+00   0.000000000000000E+00
   0.000000000000000E+00   0.000000000000000E+00   0.000000000000000E+00
   0.000000000000000E+00   0.000000000000000E+00   0.000000000000000E+00
   0.000000000000000E+00   0.000000000000000E+00   0.000000000000000E+00
   0.000000000000000E+00   0.000000000000000E+00   0.000000000000000E+00
   0.000000000000000E+00   0.000000000000000E+00   0.000000000000000E+00
   0.000000000000000E+00   0.000000000000000E+00   0.000000000000000E+00
   0.000000000000000E+00   0.000000000000000E+00   0.000000000000000E+00
   0.000000000000000E+00   0.000000000000000E+00   0.000000000000000E+00
   0.000000000000000E+00   0.000000000000000E+00   0.000000000000000E+00
   0.000000000000000E+00   0.000000000000000E+00   0.000000000000000E+00
   0.000000000000000E+00   0.000000000000000E+00   0.000000000000000E+00
   0.000000000000000E+00   0.000000000000000E+00   0.000000000000000E+00
   0.000000000000000E+00   0.000000000000000E+00   0.000000000000000E+00
   0.000000000000000E+00   0.000000000000000E+00   0.000000000000000E+00
   0.000000000000000E+00   0.000000000000000E+00   0.000000000000000E+00
   0.000000000000000E+00   0.000000000000000E+00   0.000000000000000E+00
   0.000000000000000E+00   0.000000000000000E+00   0.000000000000000E+00
   0.000000000000000E+00   0.000000000000000E+00   0.000000000000000E+00
   0.000000000000000E+00   0.000000000000000E+00   0.000000000000000E+00
   0.000000000000000E+00   0.000000000000000E+00   0.000000000000000E+00
   0.000000000000000E+00   0.000000000000000E+00   0.000000000000000E+00
   0.000000000000000E+00   0.000000000000000E+00   0.000000000000000E+00
   0.000000000000000E+00   0.000000000000000E+00   0.000000000000000E+00
   0.000000000000000E+00   0.000000000000000E+00   0.000000000000000E+00
   0.000000000000000E+00   0.000000000000000E+00   0.000000000000000E+00
   0.000000000000000E+00   0.000000000000000E+00   0.000000000000000E+00
   0.000000000000000E+00   0.000000000000000E+00   0.000000000000000E+00
   0.000000000000000E+00   0.000000000000000E+00   0.000000000000000E+00
   0.000000000000000E+00   0.000000000000000E+00   0.000000000000000E+00
   0.000000000000000E+00   0.000000000000000E+00   0.000000000000000E+00
   0.000000000000000E+00   0.000000000000000E+00   0.000000000000000E+00
   0.000000000000000E+00   0.000000000000000E+00   0.000000000000000E+00
   0.000000000000000E+00   0.000000000000000E+00   0.000000000000000E+00
   0.000000000000000E+00   0.000000000000000E+00   0.000000000000000E+00
   0.000000000000000E+00   0.000000000000000E+00   0.000000000000000E+00
   0.000000000000000E+00   0.000000000000000E+00   0.000000000000000E+00
   0.000000000000000E+00   0.000000000000000E+00   0.000000000000000E+00
   0.000000000000000E+00   0.000000000000000E+00   0.000000000000000E+00
   0.000000000000000E+00   0.000000000000000E+00   0.000000000000000E+00
   0.000000000000000E+00   0.000000000000000E+00   0.000000000000000E+00
   0.000000000000000E+00   0.000000000000000E+00
      </PP_QIJL.1.2.0>
      <PP_QIJL.1.3.1 first_index="1" second_index="3" composite_index="4" angular_momentum="1" size="1085">
   9.557103871671356E-12   9.922299866858078E-12   1.030145072840793E-11
   1.069508969950856E-11   1.110377039962677E-11   1.152806760312612E-11
   1.196857804763738E-11   1.242592127331821E-11   1.290074049418252E-11
   1.339370350272538E-11   1.390550360911488E-11   1.443686061627273E-11
   1.498852183221454E-11   1.556126312107339E-11   1.615588999428544E-11
   1.677323874347129E-11   1.741417761660751E-11   1.807960803914164E-11
   1.877046588176835E-11   1.948772277665013E-11   2.023238748393280E-11
   2.100550731047858E-11   2.180816958281160E-11   2.264150317634751E-11
   2.350668010305804E-11   2.440491715980279E-11   2.533747763964759E-11
   2.630567310857527E-11   2.731086525008792E-11   2.835446778029537E-11
   2.943794843618215E-11   3.056283103985063E-11   3.173069764164245E-11
   3.294319074515286E-11   3.420201561726727E-11   3.550894268646818E-11
   3.686581003278650E-11   3.827452597289853E-11   3.973707174400416E-11
   4.125550429026182E-11   4.283195915569727E-11   4.446865348765696E-11
   4.616788915502858E-11   4.793205598561461E-11   4.976363512721263E-11
   5.166520253712763E-11   5.363943260502643E-11   5.568910191422740E-11
   5.781709314671635E-11   6.002639913738074E-11   6.232012708316262E-11
   6.470150291305248E-11   6.717387582506803E-11   6.974072299659905E-11
   7.240565447474475E-11   7.517241825351741E-11   7.804490554505785E-11
   8.102715625227227E-11   8.412336465058913E-11   8.733788528682694E-11
   9.067523910346682E-11   9.414011979694661E-11   9.773740041891607E-11
   1.014721402297379E-10   1.053495918138748E-10   1.093752084671659E-10
   1.135546518663862E-10   1.178938000318739E-10   1.223987555944223E-10
   1.270758543780666E-10   1.319316743108320E-10   1.369730446759789E-10
   1.422070557167547E-10   1.476410686081583E-10   1.532827258097466E-10
   1.591399618140358E-10   1.652210143056210E-10   1.715344357467040E-10
   1.780891054053244E-10   1.848942418432114E-10   1.919594158808145E-10
   1.992945640577543E-10   2.069100026076180E-10   2.148164419667552E-10
   2.230250018374826E-10   2.315472268268733E-10   2.403951026831364E-10
   2.495810731524121E-10   2.591180574796948E-10   2.690194685784957E-10
   2.792992318947946E-10   2.899718049918189E-10   3.010521978831860E-10
   3.125559941430081E-10   3.244993728226516E-10   3.368991312049631E-10
   3.497727084279797E-10   3.631382100113312E-10   3.770144333198384E-10
   3.914208940001184E-10   4.063778534273615E-10   4.219063472009057E-10
   4.380282147286610E-10   4.547661299420031E-10   4.721436331843321E-10
   4.901851643181297E-10   5.089160970970984E-10   5.283627748517024E-10
   5.485525475383062E-10   5.695138102040198E-10   5.912760429213278E-10
   6.138698522486870E-10   6.373270142753873E-10   6.616805193112169E-10
   6.869646182837814E-10   7.132148709087193E-10   7.404681957005733E-10
   7.687629218946418E-10   7.981388433528243E-10   8.286372745292901E-10
   8.603011085746473E-10   8.931748776603614E-10   9.273048156082332E-10
   9.627389229130241E-10   9.995270342496840E-10   1.037720888560086E-09
   1.077374201817874E-09   1.118542742573727E-09   1.161284410387295E-09
   1.205659317256102E-09   1.251729872155919E-09   1.299560868811534E-09
   1.349219576821310E-09   1.400775836263703E-09   1.454302155918817E-09
   1.509873815243025E-09   1.567568970240201E-09   1.627468763378347E-09
   1.689657437706219E-09   1.754222455330485E-09   1.821254620419914E-09
   1.890848206909716E-09   1.963101091085514E-09   2.038114889233447E-09
   2.115995100549995E-09   2.196851255512423E-09   2.280797069918599E-09
   2.367950604812729E-09   2.458434432521920E-09   2.552375809037134E-09
   2.649906852980801E-09   2.751164731412935E-09   2.856291852736916E-09
   2.965436066976278E-09   3.078750873704143E-09   3.196395637917617E-09
   3.318535814160851E-09   3.445343179211853E-09   3.576996073660240E-09
   3.713679652715766E-09   3.855586146600120E-09   4.002915130888379E-09
   4.155873807180119E-09   4.314677294494912E-09   4.479548931802063E-09
   4.650720592109704E-09   4.828433008555444E-09   5.012936112956469E-09
   5.204489387295711E-09   5.403362228638085E-09   5.609834327989759E-09
   5.824196063633733E-09   6.046748909494123E-09   6.277805859103938E-09
   6.517691865772291E-09   6.766744299569725E-09   7.025313421774960E-09
   7.293762877449200E-09   7.572470206831472E-09   7.861827376273688E-09
   8.162241329461784E-09   8.474134559698661E-09   8.797945704052736E-09
   9.134130160208274E-09   9.483160726884471E-09   9.845528268723525E-09
   1.022174240658339E-08   1.061233223420465E-08   1.101784706226012E-08
   1.143885719083293E-08   1.187595471140887E-08   1.232975433951161E-08
   1.280089427915006E-08   1.329003712029455E-08   1.379787077064301E-08
   1.432510942298684E-08   1.487249455953774E-08   1.544079599462594E-08
   1.603081295723703E-08   1.664337521490889E-08   1.727934424056825E-08
   1.793961442394868E-08   1.862511432929143E-08   1.933680800109856E-08
   2.007569631977359E-08   2.084281840905479E-08   2.163925309722146E-08
   2.246612043412497E-08   2.332458326617926E-08   2.421584887152385E-08
   2.514117065765747E-08   2.610184992393070E-08   2.709923769137240E-08
   2.813473660242442E-08   2.920980289325426E-08   3.032594844141664E-08
   3.148474289174567E-08   3.268781586346142E-08   3.393685924159684E-08
   3.523362955596432E-08   3.657995045100435E-08   3.797771524999133E-08
   3.942888961719615E-08   4.093551432175034E-08   4.249970810709589E-08
   4.412367067005053E-08   4.580968575368125E-08   4.756012435832589E-08
   4.937744807528024E-08   5.126421254783491E-08   5.322307106452205E-08
   5.525677828962854E-08   5.736819413620945E-08   5.956028778705138E-08
   6.183614186923260E-08   6.419895678814399E-08   6.665205522706709E-08
   6.919888681862338E-08   7.184303299466462E-08   7.458821202141710E-08
   7.743828422694996E-08   8.039725742832053E-08   8.346929256601119E-08
   8.665870955358160E-08   8.996999335075034E-08   9.340780026843713E-08
   9.697696451462547E-08   1.006825049902369E-07   1.045296323445663E-07
   1.085237563001879E-07   1.126704932576172E-07   1.169756741904154E-07
   1.214453528418192E-07   1.260858142344127E-07   1.309035835047889E-07
   1.359054350756080E-07   1.410984021779364E-07   1.464897867372312E-07
   1.520871696368591E-07   1.578984213735571E-07   1.639317131197944E-07
   1.701955282085729E-07   1.766986740567832E-07   1.834502945438612E-07
   1.904598828631190E-07   1.977372948637917E-07   2.052927629025276E-07
   2.131369102237639E-07   2.212807658891719E-07   2.297357802771257E-07
   2.385138411739422E-07   2.476272904794806E-07   2.570889415505354E-07
   2.669120972063645E-07   2.771105684216152E-07   2.876986937328684E-07
   2.986913593860356E-07   3.101040202528630E-07   3.219527215458891E-07
   3.342541213623141E-07   3.470255140883918E-07   3.602848546971799E-07
   3.740507839737095E-07   3.883426547029576E-07   4.031805588573320E-07
   4.185853558217889E-07   4.345787016961592E-07   4.511830797157466E-07
   4.684218318328673E-07   4.863191915034247E-07   5.049003177250966E-07
   5.241913303735014E-07   5.442193468875094E-07   5.650125203541218E-07
   5.866000790458361E-07   6.090123674673857E-07   6.322808889678537E-07
   6.564383499786366E-07   6.815187059389254E-07   7.075572089731245E-07
   7.345904573869131E-07   7.626564470513057E-07   7.917946247464389E-07
   8.220459435399507E-07   8.534529202773110E-07   8.860596952648853E-07
   9.199120942280828E-07   9.550576926336948E-07   9.915458824628310E-07
   1.029427941531548E-06   1.068757105453064E-06   1.109588642344412E-06
   1.151979930380271E-06   1.195990538303550E-06   1.241682309004550E-06
   1.289119446285671E-06   1.338368604932860E-06   1.389498984219760E-06
   1.442582424974900E-06   1.497693510347407E-06   1.554909670411997E-06
   1.614311290760192E-06   1.675981825225877E-06   1.740007912907773E-06
   1.806479499647827E-06   1.875489964136585E-06   1.947136248819765E-06
   2.021518995791621E-06   2.098742687862203E-06   2.178915794994744E-06
   2.262150926318243E-06   2.348564987926429E-06   2.438279346683071E-06
   2.531420000262327E-06   2.628117753657950E-06   2.728508402409198E-06
   2.832732922800848E-06   2.940937669293394E-06   3.053274579469091E-06
   3.169901386767369E-06   3.290981841314176E-06   3.416685939146431E-06
   3.547190160151895E-06   3.682677715053537E-06   3.823338801783761E-06
   3.969370871599557E-06   4.120978905310401E-06   4.278375700002487E-06
   4.441782166653281E-06   4.611427639051696E-06   4.787550194447632E-06
   4.970396986381527E-06   5.160224590143429E-06   5.357299361349615E-06
   5.561897808126701E-06   5.774306977417000E-06   5.994824855941331E-06
   6.223760786369946E-06   6.461435899275804E-06   6.708183561468445E-06
   6.964349841321664E-06   7.230293991738351E-06   7.506388951416011E-06
   7.793021865105863E-06   8.090594623574275E-06   8.399524424013140E-06
   8.720244351669101E-06   9.053203983484868E-06   9.398870014584773E-06
   9.757726908463504E-06   1.013027757176324E-05   1.051704405456794E-05
   1.091856827716945E-05   1.133541278430167E-05   1.176816152786601E-05
   1.221742067922442E-05   1.268381947216397E-05   1.316801107767770E-05
   1.367067351175653E-05   1.419251057743105E-05   1.473425284232543E-05
   1.529665865308132E-05   1.588051518799231E-05   1.648663954930259E-05
   1.711587989663595E-05   1.776911662308724E-05   1.844726357557415E-05
   1.915126932108513E-05   1.988211846053651E-05   2.064083299201008E-05
   2.142847372519753E-05   2.224614174896206E-05   2.309497995397365E-05
   2.397617461247259E-05   2.489095701726411E-05   2.584060518214266E-05
   2.682644560601426E-05   2.784985510306034E-05   2.891226270139594E-05
   3.001515161273499E-05   3.116006127567406E-05   3.234858947531225E-05
   3.358239454200531E-05   3.486319763216400E-05   3.619278509409694E-05
   3.757301092201732E-05   3.900579930144548E-05   4.049314724933262E-05
   4.203712735237179E-05   4.363989060707406E-05   4.530366936531595E-05
   4.703078038918760E-05   4.882362801911043E-05   5.068470745933640E-05
   5.261660818507550E-05   5.462201747564411E-05   5.670372407818728E-05
   5.886462200668422E-05   6.110771448109156E-05   6.343611801167099E-05
   6.585306663370212E-05   6.836191629796310E-05   7.096614942254169E-05
   7.366937961173326E-05   7.647535654797725E-05   7.938797106297212E-05
   8.241126039431460E-05   8.554941363423968E-05   8.880677737723716E-05
   9.218786157353507E-05   9.569734559570416E-05   9.934008452583867E-05
   1.031211156710245E-04   1.070456653150634E-04   1.111191557146707E-04
   1.153472123486103E-04   1.197356714285340E-04   1.242905876805438E-04
   1.290182424067738E-04   1.339251518366131E-04   1.390180757774344E-04
   1.443040265750529E-04   1.497902783944112E-04   1.554843768313192E-04
   1.613941488664016E-04   1.675277131727310E-04   1.738934907889896E-04
   1.805002161702831E-04   1.873569486291737E-04   1.944730841797723E-04
   2.018583677981333E-04   2.095229061125847E-04   2.174771805379517E-04
   2.257320608680336E-04   2.342988193411285E-04   2.431891451936819E-04
   2.524151597176653E-04   2.619894318375384E-04   2.719249942232151E-04
   2.822353599557072E-04   2.929345397626084E-04   3.040370598410024E-04
   3.155579802856822E-04   3.275129141411302E-04   3.399180470959502E-04
   3.527901578389823E-04   3.661466390966274E-04   3.800055193713617E-04
   3.943854854017889E-04   4.093059053649498E-04   4.247868528419770E-04
   4.408491315685573E-04   4.575143009919729E-04   4.748047026568598E-04
   4.927434874420882E-04   5.113546436714966E-04   5.306630261214453E-04
   5.506943859483990E-04   5.714754015599842E-04   5.930337104531013E-04
   6.153979420428401E-04   6.385977515060417E-04   6.626638546633902E-04
   6.876280639239499E-04   7.135233253160070E-04   7.403837566279444E-04
   7.682446866827584E-04   7.971426957695303E-04   8.271156572549282E-04
   8.582027803973129E-04   8.904446543856377E-04   9.238832936246829E-04
   9.585621842874938E-04   9.945263321551039E-04   1.031822311762679E-03
   1.070498316870165E-03   1.110604212274329E-03   1.152191586977728E-03
   1.195313808728600E-03   1.240026079944023E-03   1.286385495026728E-03
   1.334451099083962E-03   1.384283948054367E-03   1.435947170246390E-03
   1.489506029288951E-03   1.545027988491909E-03   1.602582776610733E-03
   1.662242455005878E-03   1.724081486183640E-03   1.788176803700763E-03
   1.854607883410461E-03   1.923456816022415E-03   1.994808380943823E-03
   2.068750121362606E-03   2.145372420527529E-03   2.224768579172957E-03
   2.307034894028774E-03   2.392270737347615E-03   2.480578637373411E-03
   2.572064359665727E-03   2.666836989184547E-03   2.765009013029771E-03
   2.866696403718080E-03   2.972018702868067E-03   3.081099105151332E-03
   3.194064542353707E-03   3.311045767375983E-03   3.432177437987873E-03
   3.557598200132475E-03   3.687450770560667E-03   3.821882018556222E-03
   3.961043046492465E-03   4.105089268940190E-03   4.254180490024282E-03
   4.408480978702710E-03   4.568159541616615E-03   4.733389593133763E-03
   4.904349222179648E-03   5.081221255421324E-03   5.264193316337694E-03
   5.453457879677687E-03   5.649212320773202E-03   5.851658959137569E-03
   6.061005095742809E-03   6.277463043328754E-03   6.501250149055914E-03
   6.732588808770371E-03   6.971706472103397E-03   7.218835637581316E-03
   7.474213836871579E-03   7.738083607239421E-03   8.010692451236345E-03
   8.292292782585590E-03   8.583141857172910E-03   8.883501687990795E-03
   9.193638942823159E-03   9.513824823394107E-03   9.844334924638718E-03
   1.018544907268762E-02   1.053745114008771E-02   1.090062883671177E-02
   1.127527347473821E-02   1.166167970600912E-02   1.206014523000244E-02
   1.247097047057854E-02   1.289445821958778E-02   1.333091324535129E-02
   1.378064186395185E-02   1.424395147119986E-02   1.472115003306610E-02
   1.521254553230292E-02   1.571844536890823E-02   1.623915571202048E-02
   1.677498080077361E-02   1.732622219158304E-02   1.789317794928406E-02
   1.847614177949956E-02   1.907540209957700E-02   1.969124104540797E-02
   2.032393341142529E-02   2.097374552106693E-02   2.164093402500360E-02
   2.232574462444794E-02   2.302841071690293E-02   2.374915196176293E-02
   2.448817276325914E-02   2.524566066834100E-02   2.602178467721029E-02
   2.681669346437866E-02   2.763051350830148E-02   2.846334712785800E-02
   2.931527042420085E-02   3.018633112678845E-02   3.107654634275094E-02
   3.198590020911859E-02   3.291434144787392E-02   3.386178082427201E-02
   3.482808850941468E-02   3.581309134866850E-02   3.681657003818314E-02
   3.783825621250547E-02   3.887782944709727E-02   3.993491418045210E-02
   4.100907656148173E-02   4.209982122889842E-02   4.320658803046890E-02
   4.432874869125851E-02   4.546560344132182E-02   4.661637761473950E-02
   4.778021823344119E-02   4.895619059090514E-02   5.014327485257963E-02
   5.134036269173362E-02   5.254625398141594E-02   5.375965356527549E-02
   5.497916813217565E-02   5.620330322181435E-02   5.743046039093110E-02
   5.865893457214339E-02   5.988691165998598E-02   6.111246636132747E-02
   6.233356034998710E-02   6.354804076805505E-02   6.475363911911546E-02
   6.594797060125093E-02   6.712853393035040E-02   6.829271170681206E-02
   6.943777138119420E-02   7.056086687668248E-02   7.165904092835616E-02
   7.272922820110886E-02   7.376825924964538E-02   7.477286538517419E-02
   7.573968451418031E-02   7.666526801491211E-02   7.754608871687406E-02
   7.837855004759367E-02   7.915899640912762E-02   7.988372484409954E-02
   8.054899804739769E-02   8.115105877491034E-02   8.168614569471377E-02
   8.215051071883502E-02   8.254043784497531E-02   8.285226352726374E-02
   8.308239858311098E-02   8.322735162941737E-02   8.328375402565578E-02
   8.324838628358949E-02   8.311820588351257E-02   8.289037641483629E-02
   8.256229793453965E-02   8.213163841042653E-02   8.159636608729003E-02
   8.095478258301754E-02   8.020555648846683E-02   7.934775720973486E-02
   7.838088875443922E-02   7.730492312508058E-02   7.612033294282580E-02
   7.482812288454543E-02   7.342985947519820E-02   7.192769873731224E-02
   7.032441116008237E-02   6.862340341339253E-02   6.682873619782868E-02
   6.494513759163323E-02   6.297801123082286E-02   6.093343864074148E-02
   5.881817502772811E-02   5.663963783999948E-02   5.440588741909929E-02
   5.212559908928835E-02   4.980802607400917E-02   4.746295268818029E-02
   4.510063733461268E-02   4.273174493437879E-02   4.036726854653509E-02
   3.801844008397387E-02   3.569663021107804E-02   3.341323771648268E-02
   3.117956889153457E-02   2.900670771229410E-02   2.690537791972630E-02
   2.488579841793500E-02   2.295753376161990E-02   2.112934187803035E-02
   1.940902156080384E-02   1.780326267688456E-02   1.631750243527350E-02
   1.495579146770899E-02   1.372067385460053E-02   1.261308558051854E-02
   1.163227620586620E-02   1.077575877637736E-02   1.003929313882246E-02
   9.416907866689722E-03   8.900965898652000E-03   8.482278728768444E-03
   8.150273533053164E-03   7.893216944319680E-03   7.698498268705369E-03
   7.552973747245291E-03   7.443371981517108E-03   7.356758845547033E-03
   7.281058085047670E-03   7.205621356411049E-03   7.121838689288958E-03
   7.023777289052680E-03   6.908347841567131E-03   6.773199222349757E-03
   6.616274192303706E-03   6.436040320430769E-03   6.231524933817845E-03
   6.002343597037108E-03   5.748721019819825E-03   5.471503269465106E-03
   5.172160154121141E-03   4.852776646259493E-03   4.516032233847556E-03
   4.165167121388036E-03   3.803934255702357E-03   3.436536223648812E-03
   3.067546162507817E-03   2.701811940279630E-03   2.344343004342275E-03
   2.000179464837104E-03   1.674243175834644E-03   1.371170805081645E-03
   1.095129144678908E-03   8.496132131227130E-04   6.372280372597405E-04
   4.594553844727844E-04   3.164071450252326E-04   2.065675466453865E-04
   1.265269230005250E-04   7.071036011618848E-05   3.277925554912020E-05
   1.061380664701961E-05   1.442728466138909E-06  -1.110223024625157E-16
   0.000000000000000E+00   0.000000000000000E+00   0.000000000000000E+00
   0.000000000000000E+00   0.000000000000000E+00   0.000000000000000E+00
   0.000000000000000E+00   0.000000000000000E+00   0.000000000000000E+00
   0.000000000000000E+00   0.000000000000000E+00   0.000000000000000E+00
   0.000000000000000E+00   0.000000000000000E+00   0.000000000000000E+00
   0.000000000000000E+00   0.000000000000000E+00   0.000000000000000E+00
   0.000000000000000E+00   0.000000000000000E+00   0.000000000000000E+00
   0.000000000000000E+00   0.000000000000000E+00   0.000000000000000E+00
   0.000000000000000E+00   0.000000000000000E+00   0.000000000000000E+00
   0.000000000000000E+00   0.000000000000000E+00   0.000000000000000E+00
   0.000000000000000E+00   0.000000000000000E+00   0.000000000000000E+00
   0.000000000000000E+00   0.000000000000000E+00   0.000000000000000E+00
   0.000000000000000E+00   0.000000000000000E+00   0.000000000000000E+00
   0.000000000000000E+00   0.000000000000000E+00   0.000000000000000E+00
   0.000000000000000E+00   0.000000000000000E+00   0.000000000000000E+00
   0.000000000000000E+00   0.000000000000000E+00   0.000000000000000E+00
   0.000000000000000E+00   0.000000000000000E+00   0.000000000000000E+00
   0.000000000000000E+00   0.000000000000000E+00   0.000000000000000E+00
   0.000000000000000E+00   0.000000000000000E+00   0.000000000000000E+00
   0.000000000000000E+00   0.000000000000000E+00   0.000000000000000E+00
   0.000000000000000E+00   0.000000000000000E+00   0.000000000000000E+00
   0.000000000000000E+00   0.000000000000000E+00   0.000000000000000E+00
   0.000000000000000E+00   0.000000000000000E+00   0.000000000000000E+00
   0.000000000000000E+00   0.000000000000000E+00   0.000000000000000E+00
   0.000000000000000E+00   0.000000000000000E+00   0.000000000000000E+00
   0.000000000000000E+00   0.000000000000000E+00   0.000000000000000E+00
   0.000000000000000E+00   0.000000000000000E+00   0.000000000000000E+00
   0.000000000000000E+00   0.000000000000000E+00   0.000000000000000E+00
   0.000000000000000E+00   0.000000000000000E+00   0.000000000000000E+00
   0.000000000000000E+00   0.000000000000000E+00   0.000000000000000E+00
   0.000000000000000E+00   0.000000000000000E+00   0.000000000000000E+00
   0.000000000000000E+00   0.000000000000000E+00   0.000000000000000E+00
   0.000000000000000E+00   0.000000000000000E+00   0.000000000000000E+00
   0.000000000000000E+00   0.000000000000000E+00   0.000000000000000E+00
   0.000000000000000E+00   0.000000000000000E+00   0.000000000000000E+00
   0.000000000000000E+00   0.000000000000000E+00   0.000000000000000E+00
   0.000000000000000E+00   0.000000000000000E+00   0.000000000000000E+00
   0.000000000000000E+00   0.000000000000000E+00   0.000000000000000E+00
   0.000000000000000E+00   0.000000000000000E+00   0.000000000000000E+00
   0.000000000000000E+00   0.000000000000000E+00   0.000000000000000E+00
   0.000000000000000E+00   0.000000000000000E+00   0.000000000000000E+00
   0.000000000000000E+00   0.000000000000000E+00   0.000000000000000E+00
   0.000000000000000E+00   0.000000000000000E+00   0.000000000000000E+00
   0.000000000000000E+00   0.000000000000000E+00   0.000000000000000E+00
   0.000000000000000E+00   0.000000000000000E+00   0.000000000000000E+00
   0.000000000000000E+00   0.000000000000000E+00   0.000000000000000E+00
   0.000000000000000E+00   0.000000000000000E+00   0.000000000000000E+00
   0.000000000000000E+00   0.000000000000000E+00   0.000000000000000E+00
   0.000000000000000E+00   0.000000000000000E+00   0.000000000000000E+00
   0.000000000000000E+00   0.000000000000000E+00   0.000000000000000E+00
   0.000000000000000E+00   0.000000000000000E+00   0.000000000000000E+00
   0.000000000000000E+00   0.000000000000000E+00   0.000000000000000E+00
   0.000000000000000E+00   0.000000000000000E+00   0.000000000000000E+00
   0.000000000000000E+00   0.000000000000000E+00   0.000000000000000E+00
   0.000000000000000E+00   0.000000000000000E+00   0.000000000000000E+00
   0.000000000000000E+00   0.000000000000000E+00   0.000000000000000E+00
   0.000000000000000E+00   0.000000000000000E+00   0.000000000000000E+00
   0.000000000000000E+00   0.000000000000000E+00   0.000000000000000E+00
   0.000000000000000E+00   0.000000000000000E+00   0.000000000000000E+00
   0.000000000000000E+00   0.000000000000000E+00   0.000000000000000E+00
   0.000000000000000E+00   0.000000000000000E+00   0.000000000000000E+00
   0.000000000000000E+00   0.000000000000000E+00   0.000000000000000E+00
   0.000000000000000E+00   0.000000000000000E+00   0.000000000000000E+00
   0.000000000000000E+00   0.000000000000000E+00   0.000000000000000E+00
   0.000000000000000E+00   0.000000000000000E+00   0.000000000000000E+00
   0.000000000000000E+00   0.000000000000000E+00   0.000000000000000E+00
   0.000000000000000E+00   0.000000000000000E+00   0.000000000000000E+00
   0.000000000000000E+00   0.000000000000000E+00   0.000000000000000E+00
   0.000000000000000E+00   0.000000000000000E+00   0.000000000000000E+00
   0.000000000000000E+00   0.000000000000000E+00   0.000000000000000E+00
   0.000000000000000E+00   0.000000000000000E+00   0.000000000000000E+00
   0.000000000000000E+00   0.000000000000000E+00   0.000000000000000E+00
   0.000000000000000E+00   0.000000000000000E+00   0.000000000000000E+00
   0.000000000000000E+00   0.000000000000000E+00   0.000000000000000E+00
   0.000000000000000E+00   0.000000000000000E+00   0.000000000000000E+00
   0.000000000000000E+00   0.000000000000000E+00   0.000000000000000E+00
   0.000000000000000E+00   0.000000000000000E+00   0.000000000000000E+00
   0.000000000000000E+00   0.000000000000000E+00   0.000000000000000E+00
   0.000000000000000E+00   0.000000000000000E+00   0.000000000000000E+00
   0.000000000000000E+00   0.000000000000000E+00   0.000000000000000E+00
   0.000000000000000E+00   0.000000000000000E+00   0.000000000000000E+00
   0.000000000000000E+00   0.000000000000000E+00   0.000000000000000E+00
   0.000000000000000E+00   0.000000000000000E+00   0.000000000000000E+00
   0.000000000000000E+00   0.000000000000000E+00   0.000000000000000E+00
   0.000000000000000E+00   0.000000000000000E+00   0.000000000000000E+00
   0.000000000000000E+00   0.000000000000000E+00   0.000000000000000E+00
   0.000000000000000E+00   0.000000000000000E+00   0.000000000000000E+00
   0.000000000000000E+00   0.000000000000000E+00   0.000000000000000E+00
   0.000000000000000E+00   0.000000000000000E+00   0.000000000000000E+00
   0.000000000000000E+00   0.000000000000000E+00   0.000000000000000E+00
   0.000000000000000E+00   0.000000000000000E+00   0.000000000000000E+00
   0.000000000000000E+00   0.000000000000000E+00   0.000000000000000E+00
   0.000000000000000E+00   0.000000000000000E+00   0.000000000000000E+00
   0.000000000000000E+00   0.000000000000000E+00   0.000000000000000E+00
   0.000000000000000E+00   0.000000000000000E+00   0.000000000000000E+00
   0.000000000000000E+00   0.000000000000000E+00   0.000000000000000E+00
   0.000000000000000E+00   0.000000000000000E+00   0.000000000000000E+00
   0.000000000000000E+00   0.000000000000000E+00   0.000000000000000E+00
   0.000000000000000E+00   0.000000000000000E+00   0.000000000000000E+00
   0.000000000000000E+00   0.000000000000000E+00   0.000000000000000E+00
   0.000000000000000E+00   0.000000000000000E+00   0.000000000000000E+00
   0.000000000000000E+00   0.000000000000000E+00   0.000000000000000E+00
   0.000000000000000E+00   0.000000000000000E+00   0.000000000000000E+00
   0.000000000000000E+00   0.000000000000000E+00   0.000000000000000E+00
   0.000000000000000E+00   0.000000000000000E+00   0.000000000000000E+00
   0.000000000000000E+00   0.000000000000000E+00   0.000000000000000E+00
   0.000000000000000E+00   0.000000000000000E+00   0.000000000000000E+00
   0.000000000000000E+00   0.000000000000000E+00   0.000000000000000E+00
   0.000000000000000E+00   0.000000000000000E+00   0.000000000000000E+00
   0.000000000000000E+00   0.000000000000000E+00   0.000000000000000E+00
   0.000000000000000E+00   0.000000000000000E+00   0.000000000000000E+00
   0.000000000000000E+00   0.000000000000000E+00   0.000000000000000E+00
   0.000000000000000E+00   0.000000000000000E+00   0.000000000000000E+00
   0.000000000000000E+00   0.000000000000000E+00   0.000000000000000E+00
   0.000000000000000E+00   0.000000000000000E+00
      </PP_QIJL.1.3.1>
      <PP_QIJL.1.4.1 first_index="1" second_index="4" composite_index="7" angular_momentum="1" size="1085">
   6.599484865076194E-12   6.851664341180249E-12   7.113480097379934E-12
   7.385300355097678E-12   7.667507406226445E-12   7.960498150790031E-12
   8.264684655148641E-12   8.580494731534463E-12   8.908372539732424E-12
   9.248779211752497E-12   9.602193500371686E-12   9.969112452458276E-12
   1.035005210802508E-11   1.074554822599475E-11   1.115615703769830E-11
   1.158245602916575E-11   1.202504475331017E-11   1.248454567314650E-11
   1.296160503723148E-11   1.345689378855603E-11   1.397110850816777E-11
   1.450497239485154E-11   1.505923628224527E-11   1.563467969482177E-11
   1.623211194422186E-11   1.685237326748003E-11   1.749633600874439E-11
   1.816490584615218E-11   1.885902306558652E-11   1.957966388310607E-11
   2.032784181790691E-11   2.110460911774830E-11   2.191105823884642E-11
   2.274832338231782E-11   2.361758208933345E-11   2.452005689722605E-11
   2.545701705888118E-11   2.642978032782914E-11   2.743971481154858E-11
   2.848824089558882E-11   2.957683324121576E-11   3.070702285939235E-11
   3.188039926400943E-11   3.309861270739558E-11   3.436337650125048E-11
   3.567646942626458E-11   3.703973823381577E-11   3.845510024326015E-11
   3.992454603847022E-11   4.145014226741320E-11   4.303403454870554E-11
   4.467845048923336E-11   4.638570281708122E-11   4.815819263417590E-11
   4.999841279322044E-11   5.190895140366579E-11   5.389249547165331E-11
   5.595183467904567E-11   5.808986530686146E-11   6.030959430863208E-11
   6.261414353940773E-11   6.500675414636281E-11   6.749079112717375E-11
   7.006974806258056E-11   7.274725202978933E-11   7.552706870362277E-11
   7.841310765259646E-11   8.140942783736762E-11   8.452024331928851E-11
   8.774992918709563E-11   9.110302771006592E-11   9.458425472629824E-11
   9.819850627510135E-11   1.019508654828169E-10   1.058466097117638E-10
   1.098912179823531E-10   1.140903786788178E-10   1.184499975493906E-10
   1.229762060121829E-10   1.276753697784462E-10   1.325540978053419E-10
   1.376192515908127E-10   1.428779548236280E-10   1.483376034021715E-10
   1.540058758360674E-10   1.598907440452657E-10   1.660004845717825E-10
   1.723436902198585E-10   1.789292821409066E-10   1.857665223802478E-10
   1.928650269032749E-10   2.002347791193702E-10   2.078861439225938E-10
   2.158298822688885E-10   2.240771663103051E-10   2.326395951075272E-10
   2.415292109428010E-10   2.507585162562046E-10   2.603404912290806E-10
   2.702886120393614E-10   2.806168698144514E-10   2.913397903083367E-10
   3.024724543305824E-10   3.140305189559537E-10   3.260302395444924E-10
   3.384884926030049E-10   3.514227995201303E-10   3.648513512083564E-10
   3.787930336876422E-10   3.932674546466331E-10   4.082949710188081E-10
   4.238967176123601E-10   4.400946368340591E-10   4.569115095489074E-10
   4.743709871189851E-10   4.924976246665384E-10   5.113169156081007E-10
   5.308553275082066E-10   5.511403393031204E-10   5.722004799469372E-10
   5.940653685343911E-10   6.167657559568153E-10   6.403335681498224E-10
   6.648019509935312E-10   6.902053169284942E-10   7.165793933528531E-10
   7.439612728688270E-10   7.723894654491651E-10   8.019039525969380E-10
   8.325462435748392E-10   8.643594337830558E-10   8.973882653678315E-10
   9.316791901459355E-10   9.672804349335389E-10   1.004242069371385E-09
   1.042616076341589E-09   1.082456425075165E-09   1.123819147053032E-09
   1.166762414807271E-09   1.211346623733452E-09   1.257634477029049E-09
   1.305691073877443E-09   1.355584001001492E-09   1.407383427715417E-09
   1.461162204608712E-09   1.516995966000787E-09   1.574963236310501E-09
   1.635145540490123E-09   1.697627518679020E-09   1.762497045238357E-09
   1.829845352334108E-09   1.899767158242282E-09   1.972360800556705E-09
   2.047728374486728E-09   2.125975876439351E-09   2.207213353087594E-09
   2.291555056134879E-09   2.379119602992928E-09   2.470030143599202E-09
   2.564414533608464E-09   2.662405514201939E-09   2.764140898767040E-09
   2.869763766710071E-09   2.979422664674487E-09   3.093271815447727E-09
   3.211471334850174E-09   3.334187456911605E-09   3.461592767651312E-09
   3.593866447791027E-09   3.731194524741767E-09   3.873770134218830E-09
   4.021793791853168E-09   4.175473675180621E-09   4.335025916405884E-09
   4.500674906352754E-09   4.672653610027878E-09   4.851203894242193E-09
   5.036576867750122E-09   5.229033234385312E-09   5.428843659689262E-09
   5.636289151548176E-09   5.851661455373767E-09   6.075263464383005E-09
   6.307409645554261E-09   6.548426481858520E-09   6.798652931387284E-09
   7.058440904023327E-09   7.328155756323728E-09   7.608176805311627E-09
   7.898897861898938E-09   8.200727784689642E-09   8.514091054943168E-09
   8.839428373505175E-09   9.177197280545918E-09   9.527872798977165E-09
   9.891948102451970E-09   1.026993520888736E-08   1.066236570048386E-08
   1.106979147125510E-08   1.149278550311810E-08   1.193194267163484E-08
   1.238788058253929E-08   1.286124044022405E-08   1.335268794940932E-08
   1.386291425126085E-08   1.439263689527274E-08   1.494260084828253E-08
   1.551357954203550E-08   1.610637596077207E-08   1.672182377036684E-08
   1.736078849060574E-08   1.802416871225119E-08   1.871289736060359E-08
   1.942794300733745E-08   2.017031123245527E-08   2.094104603827303E-08
   2.174123131742691E-08   2.257199237696180E-08   2.343449752064656E-08
   2.432995969173879E-08   2.525963817850751E-08   2.622484038491332E-08
   2.722692366893157E-08   2.826729725110506E-08   2.934742419600763E-08
   3.046882346940221E-08   3.163307207398788E-08   3.284180726673363E-08
   3.409672886091753E-08   3.539960161610664E-08   3.675225771943342E-08
   3.815659936166065E-08   3.961460141164925E-08   4.112831419299161E-08
   4.269986636671081E-08   4.433146792407443E-08   4.602541329373306E-08
   4.778408456754376E-08   4.960995484961531E-08   5.150559173327969E-08
   5.347366091087253E-08   5.551692992139966E-08   5.763827204134863E-08
   5.984067032411624E-08   6.212722179372538E-08   6.450114179872148E-08
   6.696576853236750E-08   6.952456772548424E-08   7.218113751853063E-08
   7.493921351976669E-08   7.780267405660277E-08   8.077554562751374E-08
   8.386200856217247E-08   8.706640289775468E-08   9.039323447966693E-08
   9.384718129526489E-08   9.743310004945872E-08   1.011560329914365E-07
   1.050212150020951E-07   1.090340809521291E-07   1.132002733411076E-07
   1.175256502282689E-07   1.220162934661634E-07   1.266785172487073E-07
   1.315188769856463E-07   1.365441785158873E-07   1.417614876726318E-07
   1.471781402137368E-07   1.528017521312419E-07   1.586402303545334E-07
   1.647017838621633E-07   1.709949352179240E-07   1.775285325473587E-07
   1.843117619715220E-07   1.913541605154319E-07   1.986656295093253E-07
   2.062564485015212E-07   2.141372897024068E-07   2.223192329798109E-07
   2.308137814268000E-07   2.396328775237268E-07   2.487889199172091E-07
   2.582947808395587E-07   2.681638241930993E-07   2.784099243247232E-07
   2.890474855170146E-07   3.000914622232692E-07   3.115573800747693E-07
   3.234613576897709E-07   3.358201293147698E-07   3.486510683297717E-07
   3.619722116504900E-07   3.758022850618359E-07   3.901607295177968E-07
   4.050677284448880E-07   4.205442360876109E-07   4.366120069349987E-07
   4.532936262700412E-07   4.706125418842286E-07   4.885930970026000E-07
   5.072605644640907E-07   5.266411822058034E-07   5.467621901012584E-07
   5.676518682030863E-07   5.893395764445497E-07   6.118557958551199E-07
   6.352321713479190E-07   6.595015561388100E-07   6.846980578590763E-07
   7.108570864266423E-07   7.380154037422100E-07   7.662111752803645E-07
   7.954840236473728E-07   8.258750841805407E-07   8.574270626673573E-07
   8.901842952639864E-07   9.241928106984076E-07   9.595003948432082E-07
   9.961566577499794E-07   1.034213103237807E-06   1.073723201133342E-06
   1.114742462263252E-06   1.157328516303636E-06   1.201541192595798E-06
   1.247442604039522E-06   1.295097234182006E-06   1.344572027624448E-06
   1.395936483870442E-06   1.449262754749274E-06   1.504625745547001E-06
   1.562103219990276E-06   1.621775909223867E-06   1.683727624939734E-06
   1.748045376809243E-06   1.814819494386168E-06   1.884143753647731E-06
   1.956115508351847E-06   2.030835826389519E-06   2.108409631328333E-06
   2.188945849334410E-06   2.272557561688520E-06   2.359362163095671E-06
   2.449481526021242E-06   2.543042171266550E-06   2.640175445038048E-06
   2.741017702739328E-06   2.845710499750967E-06   2.954400789460794E-06
   3.067241128815246E-06   3.184389891680612E-06   3.306011490308853E-06
   3.432276605212623E-06   3.563362423768740E-06   3.699452887880164E-06
   3.840738951039233E-06   3.987418845145730E-06   4.139698357449640E-06
   4.297791118000489E-06   4.461918897999885E-06   4.632311919468044E-06
   4.809209176652971E-06   4.992858769621072E-06   5.183518250494668E-06
   5.381454982807453E-06   5.586946514473080E-06   5.800280964882423E-06
   6.021757426658156E-06   6.251686382619744E-06   6.490390138530575E-06
   6.738203272220220E-06   6.995473099697902E-06   7.262560158894590E-06
   7.539838711696228E-06   7.827697264955892E-06   8.126539111192804E-06
   8.436782889720436E-06   8.758863168967573E-06   9.093231050787832E-06
   9.440354797575926E-06   9.800720483051886E-06   1.017483266759019E-05
   1.056321509901668E-05   1.096641143982469E-05   1.138498602179090E-05
   1.181952462902039E-05   1.227063531047851E-05   1.273894922310350E-05
   1.322512150664588E-05   1.372983219141078E-05   1.425378714012969E-05
   1.479771902522594E-05   1.536238834279042E-05   1.594858446463257E-05
   1.655712672980976E-05   1.718886557710998E-05   1.784468371999056E-05
   1.852549736555325E-05   1.923225747917759E-05   1.996595109649904E-05
   2.072760268448035E-05   2.151827555338071E-05   2.233907332150436E-05
   2.319114143465810E-05   2.407566874233944E-05   2.499388913272948E-05
   2.594708322865182E-05   2.693658014672384E-05   2.796375932201619E-05
   2.903005240061908E-05   3.013694520257350E-05   3.128597975776280E-05
   3.247875641738613E-05   3.371693604379141E-05   3.500224228148996E-05
   3.633646391230802E-05   3.772145729771524E-05   3.915914891148455E-05
   4.065153796593992E-05   4.220069913516337E-05   4.380878537865627E-05
   4.547803086905024E-05   4.721075402761531E-05   4.900936067139441E-05
   5.087634727599155E-05   5.281430435809722E-05   5.482591998203885E-05
   5.691398339474785E-05   5.908138879369929E-05   6.133113923252589E-05
   6.366635066915746E-05   6.609025616151833E-05   6.860621021595063E-05
   7.121769329371944E-05   7.392831648113205E-05   7.674182632895989E-05
   7.966210986706955E-05   8.269319980031348E-05   8.583927989197460E-05
   8.910469054119744E-05   9.249393456111800E-05   9.601168316451010E-05
   9.966278216409210E-05   1.034522583947560E-04   1.073853263652753E-04
   1.114673951472296E-04   1.157040755091356E-04   1.201011873040163E-04
   1.246647671188653E-04   1.294010761947209E-04   1.343166086263175E-04
   1.394180998505386E-04   1.447125354331245E-04   1.502071601634192E-04
   1.559094874671318E-04   1.618273091474242E-04   1.679687054648607E-04
   1.743420555670825E-04   1.809560482793025E-04   1.878196932670492E-04
   1.949423325828310E-04   2.023336526087104E-04   2.100036964070612E-04
   2.179628764920447E-04   2.262219880346852E-04   2.347922225146602E-04
   2.436851818322404E-04   2.529128928940835E-04   2.624878226869006E-04
   2.724228938532302E-04   2.827315007839138E-04   2.934275262420495E-04
   3.045253585335386E-04   3.160399092395204E-04   3.279866315262913E-04
   3.403815390484991E-04   3.532412254616396E-04   3.665828845600830E-04
   3.804243310570055E-04   3.947840220228507E-04   4.096810789989925E-04
   4.251353108034694E-04   4.411672370457210E-04   4.577981123672958E-04
   4.750499514256058E-04   4.929455546377474E-04   5.115085347013490E-04
   5.307633439094093E-04   5.507353022758338E-04   5.714506264883387E-04
   5.929364597050384E-04   6.152209022107845E-04   6.383330429490105E-04
   6.623029919442815E-04   6.871619136303948E-04   7.129420610981647E-04
   7.396768112764152E-04   7.674007010588982E-04   7.961494643889979E-04
   8.259600703130643E-04   8.568707620121739E-04   8.889210968207567E-04
   9.221519872393472E-04   9.566057429469229E-04   9.923261138169361E-04
   1.029358333938995E-03   1.067749166646327E-03   1.107546950546805E-03
   1.148801646552969E-03   1.191564885903766E-03   1.235890019167867E-03
   1.281832166215267E-03   1.329448267140498E-03   1.378797134117025E-03
   1.429939504158507E-03   1.482938092758155E-03   1.537857648372924E-03
   1.594765007714109E-03   1.653729151800603E-03   1.714821262725251E-03
   1.778114781078491E-03   1.843685463966819E-03   1.911611443556366E-03
   1.981973286064269E-03   2.054854051112322E-03   2.130339351348559E-03
   2.208517412233048E-03   2.289479131874300E-03   2.373318140791819E-03
   2.460130861469275E-03   2.550016567550406E-03   2.643077442517173E-03
   2.739418637675890E-03   2.839148329262709E-03   2.942377774464408E-03
   3.049221366134277E-03   3.159796685965601E-03   3.274224555867156E-03
   3.392629087265768E-03   3.515137728040839E-03   3.641881306774264E-03
   3.772994073976564E-03   3.908613739926447E-03   4.048881508735712E-03
   4.193942108225649E-03   4.343943815172960E-03   4.499038475454752E-03
   4.659381518591646E-03   4.825131966156303E-03   4.996452433481788E-03
   5.173509124069331E-03   5.356471816059088E-03   5.545513840090017E-03
   5.740812047835732E-03   5.942546770462848E-03   6.150901766216164E-03
   6.366064156291457E-03   6.588224348111818E-03   6.817575945076779E-03
   7.054315641806110E-03   7.298643103850659E-03   7.550760830792563E-03
   7.810874001605624E-03   8.079190301094025E-03   8.355919726174575E-03
   8.641274370713169E-03   8.935468187571686E-03   9.238716726466810E-03
   9.551236846186530E-03   9.873246399656133E-03   1.020496389029028E-02
   1.054660809801456E-02   1.089839767328777E-02   1.126055069740494E-02
   1.163328420731328E-02   1.201681368312694E-02   1.241135249648416E-02
   1.281711131785179E-02   1.323429748084796E-02   1.366311430162581E-02
   1.410376035133847E-02   1.455642867969089E-02   1.502130598757790E-02
   1.549857174680949E-02   1.598839726493996E-02   1.649094469324065E-02
   1.700636597589656E-02   1.753480173856004E-02   1.807638011446441E-02
   1.863121550639036E-02   1.919940728288454E-02   1.978103840726181E-02
   2.037617399807672E-02   2.098485981993047E-02   2.160712070369131E-02
   2.224295889544501E-02   2.289235233376925E-02   2.355525285523604E-02
   2.423158432839705E-02   2.492124071690146E-02   2.562408407283221E-02
   2.633994246183514E-02   2.706860782215341E-02   2.780983376027201E-02
   2.856333328653022E-02   2.932877649477009E-02   3.010578819086760E-02
   3.089394547583661E-02   3.169277529010979E-02   3.250175192659070E-02
   3.332029452113267E-02   3.414776453024343E-02   3.498346320703646E-02
   3.582662908775135E-02   3.667643550255465E-02   3.753198812579711E-02
   3.839232258245621E-02   3.925640212912303E-02   4.012311542960099E-02
   4.099127444696988E-02   4.185961247582024E-02   4.272678234028181E-02
   4.359135478544129E-02   4.445181709176171E-02   4.530657194416762E-02
   4.615393658952766E-02   4.699214231833793E-02   4.781933430846092E-02
   4.863357187078567E-02   4.943282913861941E-02   5.021499624446473E-02
   5.097788102955285E-02   5.171921133304846E-02   5.243663790917580E-02
   5.312773802159301E-02   5.379001976510914E-02   5.442092716523736E-02
   5.501784610605446E-02   5.557811113631347E-02   5.609901320267160E-02
   5.657780835716499E-02   5.701172748360754E-02   5.739798708432757E-02
   5.773380116448649E-02   5.801639424606552E-02   5.824301553734958E-02
   5.841095427629454E-02   5.851755625743103E-02   5.856024154183599E-02
   5.853652333810118E-02   5.844402802905246E-02   5.828051630414340E-02
   5.804390534088970E-02   5.773229196036812E-02   5.734397666163364E-02
   5.687748841789370E-02   5.633161009342314E-02   5.570540431454830E-02
   5.499823960065370E-02   5.420981653217852E-02   5.334019370216161E-02
   5.238981316627422E-02   5.135952507375074E-02   5.025061112856713E-02
   4.906480649704586E-02   4.780431974536199E-02   4.647185035878641E-02
   4.507060336469675E-02   4.360430055426338E-02   4.207718777423343E-02
   4.049403774151440E-02   3.886014782049482E-02   3.718133219759265E-02
   3.546390789087470E-02   3.371467404629890E-02   3.194088399793590E-02
   3.015020960917188E-02   2.835069746726211E-02   2.655071657659374E-02
   2.475889728849349E-02   2.298406131928891E-02   2.123514284530539E-02
   1.952110082517851E-02   1.785082288762819E-02   1.623302133764800E-02
   1.467612207653038E-02   1.318814750122433E-02   1.177659474554724E-02
   1.044831094821744E-02   9.209367577983693E-03   8.064936210662229E-03
   7.019168531587580E-03   6.075083723335905E-03   5.234466784368636E-03
   4.497781699395360E-03   3.864103734716008E-03   3.331075447378054E-03
   2.894891259276798E-03   2.550315637706694E-03   2.290740021468124E-03
   2.108283613515095E-03   1.993943002445153E-03   1.937795249519939E-03
   1.929258557924370E-03   1.957413898787470E-03   2.011389976691567E-03
   2.080812650067286E-03   2.156318355843651E-03   2.230129204115132E-03
   2.296685194556281E-03   2.352938578713604E-03   2.396663862030413E-03
   2.425856605184240E-03   2.438874630859400E-03   2.434464144813575E-03
   2.411781317183725E-03   2.370408579503436E-03   2.310364889669625E-03
   2.232109224266365E-03   2.136536576283155E-03   2.024965767517484E-03
   1.899118429864177E-03   1.761088569382674E-03   1.613302202599642E-03
   1.458466646922840E-03   1.299509157501544E-03   1.139504732280694E-03
   9.815930565343356E-04   8.288847288956958E-04   6.843571038674945E-04
   5.507403023808921E-04   4.303941831781399E-04   3.251773351926057E-04
   2.363094459760240E-04   1.642287250417374E-04   1.084464153553455E-04
   6.740081239564599E-05   3.831362957168460E-05   1.803484074441863E-05
   5.914049488575657E-06   8.124149096788713E-07  -5.551115123125783E-17
   0.000000000000000E+00   0.000000000000000E+00   0.000000000000000E+00
   0.000000000000000E+00   0.000000000000000E+00   0.000000000000000E+00
   0.000000000000000E+00   0.000000000000000E+00   0.000000000000000E+00
   0.000000000000000E+00   0.000000000000000E+00   0.000000000000000E+00
   0.000000000000000E+00   0.000000000000000E+00   0.000000000000000E+00
   0.000000000000000E+00   0.000000000000000E+00   0.000000000000000E+00
   0.000000000000000E+00   0.000000000000000E+00   0.000000000000000E+00
   0.000000000000000E+00   0.000000000000000E+00   0.000000000000000E+00
   0.000000000000000E+00   0.000000000000000E+00   0.000000000000000E+00
   0.000000000000000E+00   0.000000000000000E+00   0.000000000000000E+00
   0.000000000000000E+00   0.000000000000000E+00   0.000000000000000E+00
   0.000000000000000E+00   0.000000000000000E+00   0.000000000000000E+00
   0.000000000000000E+00   0.000000000000000E+00   0.000000000000000E+00
   0.000000000000000E+00   0.000000000000000E+00   0.000000000000000E+00
   0.000000000000000E+00   0.000000000000000E+00   0.000000000000000E+00
   0.000000000000000E+00   0.000000000000000E+00   0.000000000000000E+00
   0.000000000000000E+00   0.000000000000000E+00   0.000000000000000E+00
   0.000000000000000E+00   0.000000000000000E+00   0.000000000000000E+00
   0.000000000000000E+00   0.000000000000000E+00   0.000000000000000E+00
   0.000000000000000E+00   0.000000000000000E+00   0.000000000000000E+00
   0.000000000000000E+00   0.000000000000000E+00   0.000000000000000E+00
   0.000000000000000E+00   0.000000000000000E+00   0.000000000000000E+00
   0.000000000000000E+00   0.000000000000000E+00   0.000000000000000E+00
   0.000000000000000E+00   0.000000000000000E+00   0.000000000000000E+00
   0.000000000000000E+00   0.000000000000000E+00   0.000000000000000E+00
   0.000000000000000E+00   0.000000000000000E+00   0.000000000000000E+00
   0.000000000000000E+00   0.000000000000000E+00   0.000000000000000E+00
   0.000000000000000E+00   0.000000000000000E+00   0.000000000000000E+00
   0.000000000000000E+00   0.000000000000000E+00   0.000000000000000E+00
   0.000000000000000E+00   0.000000000000000E+00   0.000000000000000E+00
   0.000000000000000E+00   0.000000000000000E+00   0.000000000000000E+00
   0.000000000000000E+00   0.000000000000000E+00   0.000000000000000E+00
   0.000000000000000E+00   0.000000000000000E+00   0.000000000000000E+00
   0.000000000000000E+00   0.000000000000000E+00   0.000000000000000E+00
   0.000000000000000E+00   0.000000000000000E+00   0.000000000000000E+00
   0.000000000000000E+00   0.000000000000000E+00   0.000000000000000E+00
   0.000000000000000E+00   0.000000000000000E+00   0.000000000000000E+00
   0.000000000000000E+00   0.000000000000000E+00   0.000000000000000E+00
   0.000000000000000E+00   0.000000000000000E+00   0.000000000000000E+00
   0.000000000000000E+00   0.000000000000000E+00   0.000000000000000E+00
   0.000000000000000E+00   0.000000000000000E+00   0.000000000000000E+00
   0.000000000000000E+00   0.000000000000000E+00   0.000000000000000E+00
   0.000000000000000E+00   0.000000000000000E+00   0.000000000000000E+00
   0.000000000000000E+00   0.000000000000000E+00   0.000000000000000E+00
   0.000000000000000E+00   0.000000000000000E+00   0.000000000000000E+00
   0.000000000000000E+00   0.000000000000000E+00   0.000000000000000E+00
   0.000000000000000E+00   0.000000000000000E+00   0.000000000000000E+00
   0.000000000000000E+00   0.000000000000000E+00   0.000000000000000E+00
   0.000000000000000E+00   0.000000000000000E+00   0.000000000000000E+00
   0.000000000000000E+00   0.000000000000000E+00   0.000000000000000E+00
   0.000000000000000E+00   0.000000000000000E+00   0.000000000000000E+00
   0.000000000000000E+00   0.000000000000000E+00   0.000000000000000E+00
   0.000000000000000E+00   0.000000000000000E+00   0.000000000000000E+00
   0.000000000000000E+00   0.000000000000000E+00   0.000000000000000E+00
   0.000000000000000E+00   0.000000000000000E+00   0.000000000000000E+00
   0.000000000000000E+00   0.000000000000000E+00   0.000000000000000E+00
   0.000000000000000E+00   0.000000000000000E+00   0.000000000000000E+00
   0.000000000000000E+00   0.000000000000000E+00   0.000000000000000E+00
   0.000000000000000E+00   0.000000000000000E+00   0.000000000000000E+00
   0.000000000000000E+00   0.000000000000000E+00   0.000000000000000E+00
   0.000000000000000E+00   0.000000000000000E+00   0.000000000000000E+00
   0.000000000000000E+00   0.000000000000000E+00   0.000000000000000E+00
   0.000000000000000E+00   0.000000000000000E+00   0.000000000000000E+00
   0.000000000000000E+00   0.000000000000000E+00   0.000000000000000E+00
   0.000000000000000E+00   0.000000000000000E+00   0.000000000000000E+00
   0.000000000000000E+00   0.000000000000000E+00   0.000000000000000E+00
   0.000000000000000E+00   0.000000000000000E+00   0.000000000000000E+00
   0.000000000000000E+00   0.000000000000000E+00   0.000000000000000E+00
   0.000000000000000E+00   0.000000000000000E+00   0.000000000000000E+00
   0.000000000000000E+00   0.000000000000000E+00   0.000000000000000E+00
   0.000000000000000E+00   0.000000000000000E+00   0.000000000000000E+00
   0.000000000000000E+00   0.000000000000000E+00   0.000000000000000E+00
   0.000000000000000E+00   0.000000000000000E+00   0.000000000000000E+00
   0.000000000000000E+00   0.000000000000000E+00   0.000000000000000E+00
   0.000000000000000E+00   0.000000000000000E+00   0.000000000000000E+00
   0.000000000000000E+00   0.000000000000000E+00   0.000000000000000E+00
   0.000000000000000E+00   0.000000000000000E+00   0.000000000000000E+00
   0.000000000000000E+00   0.000000000000000E+00   0.000000000000000E+00
   0.000000000000000E+00   0.000000000000000E+00   0.000000000000000E+00
   0.000000000000000E+00   0.000000000000000E+00   0.000000000000000E+00
   0.000000000000000E+00   0.000000000000000E+00   0.000000000000000E+00
   0.000000000000000E+00   0.000000000000000E+00   0.000000000000000E+00
   0.000000000000000E+00   0.000000000000000E+00   0.000000000000000E+00
   0.000000000000000E+00   0.000000000000000E+00   0.000000000000000E+00
   0.000000000000000E+00   0.000000000000000E+00   0.000000000000000E+00
   0.000000000000000E+00   0.000000000000000E+00   0.000000000000000E+00
   0.000000000000000E+00   0.000000000000000E+00   0.000000000000000E+00
   0.000000000000000E+00   0.000000000000000E+00   0.000000000000000E+00
   0.000000000000000E+00   0.000000000000000E+00   0.000000000000000E+00
   0.000000000000000E+00   0.000000000000000E+00   0.000000000000000E+00
   0.000000000000000E+00   0.000000000000000E+00   0.000000000000000E+00
   0.000000000000000E+00   0.000000000000000E+00   0.000000000000000E+00
   0.000000000000000E+00   0.000000000000000E+00   0.000000000000000E+00
   0.000000000000000E+00   0.000000000000000E+00   0.000000000000000E+00
   0.000000000000000E+00   0.000000000000000E+00   0.000000000000000E+00
   0.000000000000000E+00   0.000000000000000E+00   0.000000000000000E+00
   0.000000000000000E+00   0.000000000000000E+00   0.000000000000000E+00
   0.000000000000000E+00   0.000000000000000E+00   0.000000000000000E+00
   0.000000000000000E+00   0.000000000000000E+00   0.000000000000000E+00
   0.000000000000000E+00   0.000000000000000E+00   0.000000000000000E+00
   0.000000000000000E+00   0.000000000000000E+00   0.000000000000000E+00
   0.000000000000000E+00   0.000000000000000E+00   0.000000000000000E+00
   0.000000000000000E+00   0.000000000000000E+00   0.000000000000000E+00
   0.000000000000000E+00   0.000000000000000E+00   0.000000000000000E+00
   0.000000000000000E+00   0.000000000000000E+00   0.000000000000000E+00
   0.000000000000000E+00   0.000000000000000E+00   0.000000000000000E+00
   0.000000000000000E+00   0.000000000000000E+00   0.000000000000000E+00
   0.000000000000000E+00   0.000000000000000E+00   0.000000000000000E+00
   0.000000000000000E+00   0.000000000000000E+00   0.000000000000000E+00
   0.000000000000000E+00   0.000000000000000E+00   0.000000000000000E+00
   0.000000000000000E+00   0.000000000000000E+00   0.000000000000000E+00
   0.000000000000000E+00   0.000000000000000E+00   0.000000000000000E+00
   0.000000000000000E+00   0.000000000000000E+00   0.000000000000000E+00
   0.000000000000000E+00   0.000000000000000E+00   0.000000000000000E+00
   0.000000000000000E+00   0.000000000000000E+00
      </PP_QIJL.1.4.1>
      <PP_QIJL.2.2.0 first_index="2" second_index="2" composite_index="3" angular_momentum="0" size="1085">
  -4.939567651028628E-08  -5.064613391364552E-08  -5.192824679170900E-08
  -5.324281650636884E-08  -5.459066470607670E-08  -5.597263383939927E-08
  -5.738958768157530E-08  -5.884241187440200E-08  -6.033201447978871E-08
  -6.185932654732434E-08  -6.342530269621167E-08  -6.503092171193445E-08
  -6.667718715802866E-08  -6.836512800334058E-08  -7.009579926516503E-08
  -7.187028266866270E-08  -7.368968732297243E-08  -7.555515041443868E-08
  -7.746783791738759E-08  -7.942894532289766E-08  -8.143969838601738E-08
  -8.350135389190041E-08  -8.561520044133447E-08  -8.778255925615646E-08
  -9.000478500505659E-08  -9.228326665028700E-08  -9.461942831580594E-08
  -9.701473017739844E-08  -9.947066937533015E-08  -1.019887809501059E-07
  -1.045706388019158E-07  -1.072178566743705E-07  -1.099320891631394E-07
  -1.127150327501227E-07  -1.155684268638042E-07  -1.184940549664443E-07
  -1.214937456687986E-07  -1.245693738730537E-07  -1.277228619446961E-07
  -1.309561809140488E-07  -1.342713517082222E-07  -1.376704464142536E-07
  -1.411555895742225E-07  -1.447289595131516E-07  -1.483927897005243E-07
  -1.521493701462665E-07  -1.560010488320710E-07  -1.599502331789531E-07
  -1.639993915519585E-07  -1.681510548029631E-07  -1.724078178525270E-07
  -1.767723413117943E-07  -1.812473531454514E-07  -1.858356503767812E-07
  -1.905401008358839E-07  -1.953636449521489E-07  -2.003092975921074E-07
  -2.053801499438076E-07  -2.105793714488932E-07  -2.159102117835934E-07
  -2.213760028898582E-07  -2.269801610579148E-07  -2.327261890615423E-07
  -2.386176783473998E-07  -2.446583112797797E-07  -2.508518634421821E-07
  -2.572022059971568E-07  -2.637133081058828E-07  -2.703892394089988E-07
  -2.772341725702375E-07  -2.842523858844468E-07  -2.914482659516371E-07
  -2.988263104187199E-07  -3.063911307906506E-07  -3.141474553127405E-07
  -3.221001319259253E-07  -3.302541312968532E-07  -3.386145499246740E-07
  -3.471866133264775E-07  -3.559756793033721E-07  -3.649872412892374E-07
  -3.742269317842549E-07  -3.837005258753562E-07  -3.934139448457871E-07
  -4.033732598760525E-07  -4.135846958385406E-07  -4.240546351882149E-07
  -4.347896219517930E-07  -4.457963658179102E-07  -4.570817463308269E-07
  -4.686528171902920E-07  -4.805168106602601E-07  -4.926811420892125E-07
  -5.051534145449058E-07  -5.179414235664522E-07  -5.310531620366859E-07
  -5.444968251778826E-07  -5.582808156739349E-07  -5.724137489221946E-07
  -5.869044584182690E-07  -6.017620012771140E-07  -6.169956638939079E-07
  -6.326149677482150E-07  -6.486296753550822E-07  -6.650497963667879E-07
  -6.818855938290381E-07  -6.991475905955489E-07  -7.168465759050029E-07
  -7.349936121244932E-07  -7.536000416636826E-07  -7.726774940639735E-07
  -7.922378932671478E-07  -8.122934650680008E-07  -8.328567447556310E-07
  -8.539405849481663E-07  -8.755581636258128E-07  -8.977229923672544E-07
  -9.204489247945560E-07  -9.437501652318279E-07  -9.676412775830892E-07
  -9.921371944348504E-07  -1.017253226389128E-06  -1.043005071632712E-06
  -1.069408825748662E-06  -1.096480991776183E-06  -1.124238490525135E-06
  -1.152698671151659E-06  -1.181879322001498E-06  -1.211798681727817E-06
  -1.242475450690438E-06  -1.273928802643641E-06  -1.306178396719823E-06
  -1.339244389716503E-06  -1.373147448694353E-06  -1.407908763894144E-06
  -1.443550061980626E-06  -1.480093619621696E-06  -1.517562277411277E-06
  -1.555979454144629E-06  -1.595369161455034E-06  -1.635756018820947E-06
  -1.677165268953055E-06  -1.719622793570823E-06  -1.763155129578369E-06
  -1.807789485649840E-06  -1.853553759234562E-06  -1.900476553992680E-06
  -1.948587197672117E-06  -1.997915760438053E-06  -2.048493073666390E-06
  -2.100350749212889E-06  -2.153521199170093E-06  -2.208037656124331E-06
  -2.263934193925471E-06  -2.321245748982425E-06  -2.380008142097653E-06
  -2.440258100854377E-06  -2.502033282570461E-06  -2.565372297833269E-06
  -2.630314734630293E-06  -2.696901183090496E-06  -2.765173260851971E-06
  -2.835173639071658E-06  -2.906946069093418E-06  -2.980535409791148E-06
  -3.055987655603892E-06  -3.133349965280711E-06  -3.212670691352968E-06
  -3.293999410352677E-06  -3.377386953795716E-06  -3.462885439949167E-06
  -3.550548306402841E-06  -3.640430343465093E-06  -3.732587728403967E-06
  -3.827078060555025E-06  -3.923960397317642E-06  -4.023295291062586E-06
  -4.125144826973511E-06  -4.229572661846365E-06  -4.336644063870776E-06
  -4.446425953418211E-06  -4.558986944862623E-06  -4.674397389459394E-06
  -4.792729419309616E-06  -4.914056992437066E-06  -5.038455939005926E-06
  -5.166004008708424E-06  -5.296780919351579E-06  -5.430868406673730E-06
  -5.568350275421862E-06  -5.709312451721430E-06  -5.853843036771853E-06
  -6.002032361900618E-06  -6.153973045010867E-06  -6.309760048457522E-06
  -6.469490738387937E-06  -6.633264945584536E-06  -6.801185027846954E-06
  -6.973355933952993E-06  -7.149885269238224E-06  -7.330883362834979E-06
  -7.516463336613191E-06  -7.706741175865530E-06  -7.901835801781456E-06
  -8.101869145755244E-06  -8.306966225574173E-06  -8.517255223535006E-06
  -8.732867566536783E-06  -8.953938008200553E-06  -9.180604713067044E-06
  -9.413009342924615E-06  -9.651297145322009E-06  -9.895617044320329E-06
  -1.014612173354156E-05  -1.040296777157145E-05  -1.066631567977601E-05
  -1.093633004259342E-05  -1.121317961036303E-05  -1.149703740475627E-05
  -1.178808082687516E-05  -1.208649176808532E-05  -1.239245672365373E-05
  -1.270616690926082E-05  -1.302781838046068E-05  -1.335761215516344E-05
  -1.369575433921585E-05  -1.404245625515953E-05  -1.439793457424586E-05
  -1.476241145179071E-05  -1.513611466595345E-05  -1.551927776002593E-05
  -1.591214018832163E-05  -1.631494746575428E-05  -1.672795132120058E-05
  -1.715140985474207E-05  -1.758558769888381E-05  -1.803075618385159E-05
  -1.848719350706911E-05  -1.895518490692210E-05  -1.943502284091725E-05
  -1.992700716834638E-05  -2.043144533757113E-05  -2.094865257804314E-05
  -2.147895209718080E-05  -2.202267528222460E-05  -2.258016190719662E-05
  -2.315176034509400E-05  -2.373782778544733E-05  -2.433873045738063E-05
  -2.495484385831123E-05  -2.558655298843189E-05  -2.623425259112178E-05
  -2.689834739943530E-05  -2.757925238882269E-05  -2.827739303623973E-05
  -2.899320558580741E-05  -2.972713732118758E-05  -3.047964684484338E-05
  -3.125120436435887E-05  -3.204229198599574E-05  -3.285340401566935E-05
  -3.368504726753225E-05  -3.453774138035611E-05  -3.541201914190963E-05
  -3.630842682153367E-05  -3.722752451112044E-05  -3.816988647470905E-05
  -3.913610150691422E-05  -4.012677330041131E-05  -4.114252082270613E-05
  -4.218397870242295E-05  -4.325179762535161E-05  -4.434664474049893E-05
  -4.546920407639706E-05  -4.662017696792734E-05  -4.780028249392403E-05
  -4.901025792583053E-05  -5.025085918768534E-05  -5.152286132772441E-05
  -5.282705900189173E-05  -5.416426696955776E-05  -5.553532060175448E-05
  -5.694107640224028E-05  -5.838241254171952E-05  -5.986022940554670E-05
  -6.137545015525469E-05  -6.292902130425600E-05  -6.452191330807176E-05
  -6.615512116945565E-05  -6.782966505878692E-05  -6.954659095011522E-05
  -7.130697127325320E-05  -7.311190558231763E-05  -7.496252124113470E-05
  -7.685997412593216E-05  -7.880544934575229E-05  -8.080016198103236E-05
  -8.284535784080690E-05  -8.494231423900102E-05  -8.709234079029355E-05
  -8.929678022604026E-05  -9.155700923076234E-05  -9.387443929971447E-05
  -9.625051761806180E-05  -9.868672796220873E-05  -1.011845916238324E-04
  -1.037456683571930E-04  -1.063715573503013E-04  -1.090638982205437E-04
  -1.118243720353750E-04  -1.146547023587081E-04  -1.175566563236434E-04
  -1.205320457321966E-04  -1.235827281827007E-04  -1.267106082255751E-04
  -1.299176385481680E-04  -1.332058211894042E-04  -1.365772087849757E-04
  -1.400339058438452E-04  -1.435780700568390E-04  -1.472119136381327E-04
  -1.509377047004504E-04  -1.547577686648163E-04  -1.586744897057225E-04
  -1.626903122325939E-04  -1.668077424084564E-04  -1.710293497067301E-04
  -1.753577685071030E-04  -1.797956997314525E-04  -1.843459125208120E-04
  -1.890112459544042E-04  -1.937946108117826E-04  -1.986989913791563E-04
  -2.037274473009910E-04  -2.088831154780117E-04  -2.141692120127561E-04
  -2.195890342038558E-04  -2.251459625902574E-04  -2.308434630466121E-04
  -2.366850889311060E-04  -2.426744832870251E-04  -2.488153810993793E-04
  -2.551116116079521E-04  -2.615671006781621E-04  -2.681858732311641E-04
  -2.749720557346525E-04  -2.819298787558530E-04  -2.890636795782441E-04
  -2.963779048835682E-04  -3.038771135007358E-04  -3.115659792232746E-04
  -3.194492936969863E-04  -3.275319693795540E-04  -3.358190425738465E-04
  -3.443156765367273E-04  -3.530271646652173E-04  -3.619589337618940E-04
  -3.711165473814666E-04  -3.805057092605011E-04  -3.901322668323241E-04
  -4.000022148291764E-04  -4.101216989737284E-04  -4.204970197621441E-04
  -4.311346363408945E-04  -4.420411704796025E-04  -4.532234106422417E-04
  -4.646883161590543E-04  -4.764430215016354E-04  -4.884948406636552E-04
  -5.008512716497698E-04  -5.135200010753199E-04  -5.265089088794664E-04
  -5.398260731544997E-04  -5.534797750940844E-04  -5.674785040632921E-04
  -5.818309627933276E-04  -5.965460727039047E-04  -6.116329793563270E-04
  -6.271010580403592E-04  -6.429599194980680E-04  -6.592194157878708E-04
  -6.758896462920907E-04  -6.929809638714194E-04  -7.105039811697232E-04
  -7.284695770727299E-04  -7.468889033241931E-04  -7.657733913032261E-04
  -7.851347589665357E-04  -8.049850179594259E-04  -8.253364808994560E-04
  -8.462017688367662E-04  -8.675938188951507E-04  -8.895258920980159E-04
  -9.120115813835050E-04  -9.350648198130898E-04  -9.586998889780594E-04
  -9.829314276084190E-04  -1.007774440388763E-03  -1.033244306985838E-03
  -1.059356791292552E-03  -1.086128050893283E-03  -1.113574646755471E-03
  -1.141713553152501E-03  -1.170562167823062E-03  -1.200138322372177E-03
  -1.230460292919259E-03  -1.261546810998618E-03  -1.293417074717897E-03
  -1.326090760180120E-03  -1.359588033175004E-03  -1.393929561145360E-03
  -1.429136525434510E-03  -1.465230633820657E-03  -1.502234133344373E-03
  -1.540169823435335E-03  -1.579061069344620E-03  -1.618931815888939E-03
  -1.659806601513232E-03  -1.701710572678254E-03  -1.744669498579742E-03
  -1.788709786205925E-03  -1.833858495740218E-03  -1.880143356315958E-03
  -1.927592782130236E-03  -1.976235888923860E-03  -2.026102510834599E-03
  -2.077223217630964E-03  -2.129629332333764E-03  -2.183352949232853E-03
  -2.238426952306467E-03  -2.294885034050625E-03  -2.352761714726165E-03
  -2.412092362030932E-03  -2.472913211204819E-03  -2.535261385575265E-03
  -2.599174917550916E-03  -2.664692770071193E-03  -2.731854858519386E-03
  -2.800702073107134E-03  -2.871276301737912E-03  -2.943620453357265E-03
  -3.017778481797499E-03  -3.093795410124361E-03  -3.171717355493456E-03
  -3.251591554523802E-03  -3.333466389196018E-03  -3.417391413282535E-03
  -3.503417379316976E-03  -3.591596266109960E-03  -3.681981306818206E-03
  -3.774627017573781E-03  -3.869589226680167E-03  -3.966925104381437E-03
  -4.066693193210897E-03  -4.168953438925021E-03  -4.273767222028335E-03
  -4.381197389894672E-03  -4.491308289489662E-03  -4.604165800699247E-03
  -4.719837370268336E-03  -4.838392046353401E-03  -4.959900513692416E-03
  -5.084435129394728E-03  -5.212069959353345E-03  -5.342880815281043E-03
  -5.476945292371423E-03  -5.614342807585128E-03  -5.755154638560698E-03
  -5.899463963148889E-03  -6.047355899568241E-03  -6.198917547178793E-03
  -6.354238027869992E-03  -6.513408528057470E-03  -6.676522341282661E-03
  -6.843674911407628E-03  -7.014963876396430E-03  -7.190489112672912E-03
  -7.370352780043212E-03  -7.554659367170103E-03  -7.743515737584146E-03
  -7.937031176215291E-03  -8.135317436426525E-03  -8.338488787529078E-03
  -8.546662062756966E-03  -8.759956707676092E-03  -8.978494829000887E-03
  -9.202401243789208E-03  -9.431803528983051E-03  -9.666832071260656E-03
  -9.907620117161885E-03  -1.015430382344608E-02  -1.040702230763839E-02
  -1.066591769871665E-02  -1.093113518788802E-02  -1.120282307939986E-02
  -1.148113284132613E-02  -1.176621915626577E-02  -1.205823997188513E-02
  -1.235735655123218E-02  -1.266373352274475E-02  -1.297753892987021E-02
  -1.329894428020839E-02  -1.362812459408358E-02  -1.396525845244592E-02
  -1.431052804399559E-02  -1.466411921141679E-02  -1.502622149660167E-02
  -1.539702818473648E-02  -1.577673634711542E-02  -1.616554688253856E-02
  -1.656366455714280E-02  -1.697129804250525E-02  -1.738865995184922E-02
  -1.781596687417430E-02  -1.825343940612036E-02  -1.870130218136613E-02
  -1.915978389735129E-02  -1.962911733909943E-02  -2.010953939990773E-02
  -2.060129109865635E-02  -2.110461759347729E-02  -2.161976819150941E-02
  -2.214699635445139E-02  -2.268655969961056E-02  -2.323871999612937E-02
  -2.380374315605574E-02  -2.438189921990699E-02  -2.497346233635937E-02
  -2.557871073567815E-02  -2.619792669648393E-02  -2.683139650543204E-02
  -2.747941040936200E-02  -2.814226255945295E-02  -2.882025094690081E-02
  -2.951367732960950E-02  -3.022284714936684E-02  -3.094806943895235E-02
  -3.168965671859886E-02  -3.244792488120694E-02  -3.322319306568382E-02
  -3.401578351775298E-02  -3.482602143755419E-02  -3.565423481332439E-02
  -3.650075424042405E-02  -3.736591272494261E-02  -3.825004547108781E-02
  -3.915348965153460E-02  -4.007658415987661E-02  -4.101966934429464E-02
  -4.198308672152311E-02  -4.296717867016457E-02  -4.397228810237040E-02
  -4.499875811287215E-02  -4.604693160431757E-02  -4.711715088783153E-02
  -4.820975725768940E-02  -4.932509053896012E-02  -5.046348860694138E-02
  -5.162528687718190E-02  -5.281081776485153E-02  -5.402041011219277E-02
  -5.525438858275741E-02  -5.651307302110409E-02  -5.779677777660914E-02
  -5.910581099001587E-02  -6.044047384132746E-02  -6.180105975762936E-02
  -6.318785357940747E-02  -6.460113068391873E-02  -6.604115606415657E-02
  -6.750818336194932E-02  -6.900245385372759E-02  -7.052419538749746E-02
  -7.207362126956739E-02  -7.365092909958793E-02  -7.525629955248532E-02
  -7.688989510589765E-02  -7.855185871175610E-02  -8.024231241070019E-02
  -8.196135588806758E-02  -8.370906497026158E-02  -8.548549006037701E-02
  -8.729065451204575E-02  -8.912455294056898E-02  -9.098714947051019E-02
  -9.287837591905368E-02  -9.479812991457669E-02  -9.674627295004178E-02
  -9.872262837099904E-02  -1.007269792981834E-01  -1.027590664849123E-01
  -1.048185861097325E-01  -1.069051875050268E-01  -1.090184708225881E-01
  -1.111579846374766E-01  -1.133232234918305E-01  -1.155136253806670E-01
  -1.177285691821203E-01  -1.199673720350029E-01  -1.222292866670441E-01
  -1.245134986776723E-01  -1.268191237797511E-01  -1.291452050052624E-01
  -1.314907098805569E-01  -1.338545275774537E-01  -1.362354660471830E-01
  -1.386322491449157E-01  -1.410435137534189E-01  -1.434678069152235E-01
  -1.459035829835734E-01  -1.483492008033647E-01  -1.508029209342622E-01
  -1.532629029292103E-01  -1.557272026826299E-01  -1.581937698637100E-01
  -1.606604454513663E-01  -1.631249593886437E-01  -1.655849283755781E-01
  -1.680378538208196E-01  -1.704811199736209E-01  -1.729119922591385E-01
  -1.753276158413521E-01  -1.777250144392820E-01  -1.801010894235695E-01
  -1.824526192218669E-01  -1.847762590628574E-01  -1.870685410900769E-01
  -1.893258748780257E-01  -1.915445483843394E-01  -1.937207293729843E-01
  -1.958504673445886E-01  -1.979296960110442E-01  -1.999542363524359E-01
  -2.019198002951347E-01  -2.038219950505010E-01  -2.056563281540756E-01
  -2.074182132453438E-01  -2.091029766281230E-01  -2.107058646513122E-01
  -2.122220519491181E-01  -2.136466505789062E-01  -2.149747200934745E-01
  -2.162012785827747E-01  -2.173213147178859E-01  -2.183298008273039E-01
  -2.192217070323511E-01  -2.199920164646532E-01  -2.206357415841542E-01
  -2.211479416110009E-01  -2.215237410787847E-01  -2.217583495100352E-01
  -2.218470822075050E-01  -2.217853821466022E-01  -2.215688429453275E-01
  -2.211932328781977E-01  -2.206545198899098E-01  -2.199488975528704E-01
  -2.190728119002373E-01  -2.180229890527501E-01  -2.167964635434462E-01
  -2.153906072293648E-01  -2.138031586636086E-01  -2.120322527847448E-01
  -2.100764507635393E-01  -2.079347698295886E-01  -2.056067128826445E-01
  -2.030922976754790E-01  -2.003920853372234E-01  -1.975072079883924E-01
  -1.944393951815689E-01  -1.911909988851773E-01  -1.877650167122468E-01
  -1.841651130818646E-01  -1.803956379884384E-01  -1.764616430433586E-01
  -1.723688944454752E-01  -1.681238825313918E-01  -1.637338275543714E-01
  -1.592066813419114E-01  -1.545511244873184E-01  -1.497765587400994E-01
  -1.448930942740981E-01  -1.399115315313164E-01  -1.348433373633838E-01
  -1.297006152219358E-01  -1.244960691836137E-01  -1.192429616349809E-01
  -1.139550644870948E-01  -1.086466038382853E-01  -1.033321980563512E-01
  -9.802678930692968E-02  -9.274556861220160E-02  -8.750389458201657E-02
  -8.231720601623337E-02  -7.720092863077720E-02  -7.217037620826300E-02
  -6.724064651459638E-02  -6.242651235294659E-02  -5.774230814279366E-02
  -5.320181241129377E-02  -4.881812656351145E-02  -4.460355025386292E-02
  -4.056945361010945E-02  -3.672614646035216E-02  -3.308274458021222E-02
  -2.964703280968419E-02  -2.642532468605153E-02  -2.342231800092758E-02
  -2.064094541758026E-02  -1.808221898296422E-02  -1.574506704315946E-02
  -1.362616172999800E-02  -1.171973484245556E-02  -1.001737961438928E-02
  -8.507835560150175E-03  -7.176753345468630E-03  -6.006436471751258E-03
  -4.978093338467493E-03  -4.080407849778478E-03  -3.304014276340361E-03
  -2.639344686335976E-03  -2.076718736306160E-03  -1.606435622603375E-03
  -1.218867280520508E-03  -9.045518194084057E-04  -6.542860794952199E-04
  -4.592160901397691E-04  -3.109241000143481E-04  -2.015107373965763E-04
  -1.236707442736767E-04  -7.076061175362303E-05  -3.685632766969871E-05
  -1.679933179936366E-05  -6.228661513243972E-06  -1.597163888839015E-06
  -1.695522446193420E-07   0.000000000000000E+00   0.000000000000000E+00
   0.000000000000000E+00   0.000000000000000E+00   0.000000000000000E+00
   0.000000000000000E+00   0.000000000000000E+00   0.000000000000000E+00
   0.000000000000000E+00   0.000000000000000E+00   0.000000000000000E+00
   0.000000000000000E+00   0.000000000000000E+00   0.000000000000000E+00
   0.000000000000000E+00   0.000000000000000E+00   0.000000000000000E+00
   0.000000000000000E+00   0.000000000000000E+00   0.000000000000000E+00
   0.000000000000000E+00   0.000000000000000E+00   0.000000000000000E+00
   0.000000000000000E+00   0.000000000000000E+00   0.000000000000000E+00
   0.000000000000000E+00   0.000000000000000E+00   0.000000000000000E+00
   0.000000000000000E+00   0.000000000000000E+00   0.000000000000000E+00
   0.000000000000000E+00   0.000000000000000E+00   0.000000000000000E+00
   0.000000000000000E+00   0.000000000000000E+00   0.000000000000000E+00
   0.000000000000000E+00   0.000000000000000E+00   0.000000000000000E+00
   0.000000000000000E+00   0.000000000000000E+00   0.000000000000000E+00
   0.000000000000000E+00   0.000000000000000E+00   0.000000000000000E+00
   0.000000000000000E+00   0.000000000000000E+00   0.000000000000000E+00
   0.000000000000000E+00   0.000000000000000E+00   0.000000000000000E+00
   0.000000000000000E+00   0.000000000000000E+00   0.000000000000000E+00
   0.000000000000000E+00   0.000000000000000E+00   0.000000000000000E+00
   0.000000000000000E+00   0.000000000000000E+00   0.000000000000000E+00
   0.000000000000000E+00   0.000000000000000E+00   0.000000000000000E+00
   0.000000000000000E+00   0.000000000000000E+00   0.000000000000000E+00
   0.000000000000000E+00   0.000000000000000E+00   0.000000000000000E+00
   0.000000000000000E+00   0.000000000000000E+00   0.000000000000000E+00
   0.000000000000000E+00   0.000000000000000E+00   0.000000000000000E+00
   0.000000000000000E+00   0.000000000000000E+00   0.000000000000000E+00
   0.000000000000000E+00   0.000000000000000E+00   0.000000000000000E+00
   0.000000000000000E+00   0.000000000000000E+00   0.000000000000000E+00
   0.000000000000000E+00   0.000000000000000E+00   0.000000000000000E+00
   0.000000000000000E+00   0.000000000000000E+00   0.000000000000000E+00
   0.000000000000000E+00   0.000000000000000E+00   0.000000000000000E+00
   0.000000000000000E+00   0.000000000000000E+00   0.000000000000000E+00
   0.000000000000000E+00   0.000000000000000E+00   0.000000000000000E+00
   0.000000000000000E+00   0.000000000000000E+00   0.000000000000000E+00
   0.000000000000000E+00   0.000000000000000E+00   0.000000000000000E+00
   0.000000000000000E+00   0.000000000000000E+00   0.000000000000000E+00
   0.000000000000000E+00   0.000000000000000E+00   0.000000000000000E+00
   0.000000000000000E+00   0.000000000000000E+00   0.000000000000000E+00
   0.000000000000000E+00   0.000000000000000E+00   0.000000000000000E+00
   0.000000000000000E+00   0.000000000000000E+00   0.000000000000000E+00
   0.000000000000000E+00   0.000000000000000E+00   0.000000000000000E+00
   0.000000000000000E+00   0.000000000000000E+00   0.000000000000000E+00
   0.000000000000000E+00   0.000000000000000E+00   0.000000000000000E+00
   0.000000000000000E+00   0.000000000000000E+00   0.000000000000000E+00
   0.000000000000000E+00   0.000000000000000E+00   0.000000000000000E+00
   0.000000000000000E+00   0.000000000000000E+00   0.000000000000000E+00
   0.000000000000000E+00   0.000000000000000E+00   0.000000000000000E+00
   0.000000000000000E+00   0.000000000000000E+00   0.000000000000000E+00
   0.000000000000000E+00   0.000000000000000E+00   0.000000000000000E+00
   0.000000000000000E+00   0.000000000000000E+00   0.000000000000000E+00
   0.000000000000000E+00   0.000000000000000E+00   0.000000000000000E+00
   0.000000000000000E+00   0.000000000000000E+00   0.000000000000000E+00
   0.000000000000000E+00   0.000000000000000E+00   0.000000000000000E+00
   0.000000000000000E+00   0.000000000000000E+00   0.000000000000000E+00
   0.000000000000000E+00   0.000000000000000E+00   0.000000000000000E+00
   0.000000000000000E+00   0.000000000000000E+00   0.000000000000000E+00
   0.000000000000000E+00   0.000000000000000E+00   0.000000000000000E+00
   0.000000000000000E+00   0.000000000000000E+00   0.000000000000000E+00
   0.000000000000000E+00   0.000000000000000E+00   0.000000000000000E+00
   0.000000000000000E+00   0.000000000000000E+00   0.000000000000000E+00
   0.000000000000000E+00   0.000000000000000E+00   0.000000000000000E+00
   0.000000000000000E+00   0.000000000000000E+00   0.000000000000000E+00
   0.000000000000000E+00   0.000000000000000E+00   0.000000000000000E+00
   0.000000000000000E+00   0.000000000000000E+00   0.000000000000000E+00
   0.000000000000000E+00   0.000000000000000E+00   0.000000000000000E+00
   0.000000000000000E+00   0.000000000000000E+00   0.000000000000000E+00
   0.000000000000000E+00   0.000000000000000E+00   0.000000000000000E+00
   0.000000000000000E+00   0.000000000000000E+00   0.000000000000000E+00
   0.000000000000000E+00   0.000000000000000E+00   0.000000000000000E+00
   0.000000000000000E+00   0.000000000000000E+00   0.000000000000000E+00
   0.000000000000000E+00   0.000000000000000E+00   0.000000000000000E+00
   0.000000000000000E+00   0.000000000000000E+00   0.000000000000000E+00
   0.000000000000000E+00   0.000000000000000E+00   0.000000000000000E+00
   0.000000000000000E+00   0.000000000000000E+00   0.000000000000000E+00
   0.000000000000000E+00   0.000000000000000E+00   0.000000000000000E+00
   0.000000000000000E+00   0.000000000000000E+00   0.000000000000000E+00
   0.000000000000000E+00   0.000000000000000E+00   0.000000000000000E+00
   0.000000000000000E+00   0.000000000000000E+00   0.000000000000000E+00
   0.000000000000000E+00   0.000000000000000E+00   0.000000000000000E+00
   0.000000000000000E+00   0.000000000000000E+00   0.000000000000000E+00
   0.000000000000000E+00   0.000000000000000E+00   0.000000000000000E+00
   0.000000000000000E+00   0.000000000000000E+00   0.000000000000000E+00
   0.000000000000000E+00   0.000000000000000E+00   0.000000000000000E+00
   0.000000000000000E+00   0.000000000000000E+00   0.000000000000000E+00
   0.000000000000000E+00   0.000000000000000E+00   0.000000000000000E+00
   0.000000000000000E+00   0.000000000000000E+00   0.000000000000000E+00
   0.000000000000000E+00   0.000000000000000E+00   0.000000000000000E+00
   0.000000000000000E+00   0.000000000000000E+00   0.000000000000000E+00
   0.000000000000000E+00   0.000000000000000E+00   0.000000000000000E+00
   0.000000000000000E+00   0.000000000000000E+00   0.000000000000000E+00
   0.000000000000000E+00   0.000000000000000E+00   0.000000000000000E+00
   0.000000000000000E+00   0.000000000000000E+00   0.000000000000000E+00
   0.000000000000000E+00   0.000000000000000E+00   0.000000000000000E+00
   0.000000000000000E+00   0.000000000000000E+00   0.000000000000000E+00
   0.000000000000000E+00   0.000000000000000E+00   0.000000000000000E+00
   0.000000000000000E+00   0.000000000000000E+00   0.000000000000000E+00
   0.000000000000000E+00   0.000000000000000E+00   0.000000000000000E+00
   0.000000000000000E+00   0.000000000000000E+00   0.000000000000000E+00
   0.000000000000000E+00   0.000000000000000E+00   0.000000000000000E+00
   0.000000000000000E+00   0.000000000000000E+00   0.000000000000000E+00
   0.000000000000000E+00   0.000000000000000E+00   0.000000000000000E+00
   0.000000000000000E+00   0.000000000000000E+00   0.000000000000000E+00
   0.000000000000000E+00   0.000000000000000E+00   0.000000000000000E+00
   0.000000000000000E+00   0.000000000000000E+00   0.000000000000000E+00
   0.000000000000000E+00   0.000000000000000E+00   0.000000000000000E+00
   0.000000000000000E+00   0.000000000000000E+00   0.000000000000000E+00
   0.000000000000000E+00   0.000000000000000E+00   0.000000000000000E+00
   0.000000000000000E+00   0.000000000000000E+00   0.000000000000000E+00
   0.000000000000000E+00   0.000000000000000E+00   0.000000000000000E+00
   0.000000000000000E+00   0.000000000000000E+00   0.000000000000000E+00
   0.000000000000000E+00   0.000000000000000E+00   0.000000000000000E+00
   0.000000000000000E+00   0.000000000000000E+00   0.000000000000000E+00
   0.000000000000000E+00   0.000000000000000E+00   0.000000000000000E+00
   0.000000000000000E+00   0.000000000000000E+00   0.000000000000000E+00
   0.000000000000000E+00   0.000000000000000E+00   0.000000000000000E+00
   0.000000000000000E+00   0.000000000000000E+00
      </PP_QIJL.2.2.0>
      <PP_QIJL.2.3.1 first_index="2" second_index="3" composite_index="5" angular_momentum="1" size="1085">
   7.457598878442708E-12   7.742568602129766E-12   8.038427586590261E-12
   8.345591932129847E-12   8.664493639071762E-12   8.995581215327731E-12
   9.339320307185558E-12   9.696194354200237E-12   1.006670526910969E-11
   1.045137414373164E-11   1.085074198183377E-11   1.126537046000871E-11
   1.169584271762323E-11   1.214276417695313E-11   1.260676339465704E-11
   1.308849294578648E-11   1.358863034157596E-11   1.410787898230350E-11
   1.464696914656168E-11   1.520665901833098E-11   1.578773575329912E-11
   1.639101658592693E-11   1.701734997881714E-11   1.766761681600282E-11
   1.834273164183384E-11   1.904364394720310E-11   1.977133950492255E-11
   2.052684175612605E-11   2.131121324964952E-11   2.212555713641275E-11
   2.297101872090391E-11   2.384878707194980E-11   2.476009669503638E-11
   2.570622926853201E-11   2.668851544625519E-11   2.770833672892150E-11
   2.876712740710245E-11   2.986637657842843E-11   3.100763024187261E-11
   3.219249347206193E-11   3.342263267667175E-11   3.469977794008072E-11
   3.602572545658070E-11   3.740234005656421E-11   3.883155782924277E-11
   4.031538884558322E-11   4.185591998529367E-11   4.345531787183328E-11
   4.511583191957437E-11   4.683979749740270E-11   4.862963921320390E-11
   5.048787432385730E-11   5.241711627553141E-11   5.442007837926056E-11
   5.649957762697319E-11   5.865853865333579E-11   6.089999784898789E-11
   6.322710763095078E-11   6.564314087621606E-11   6.815149552475083E-11
   7.075569935839037E-11   7.345941496234294E-11   7.626644487628156E-11
   7.918073694226853E-11   8.220638985703513E-11   8.534765893642155E-11
   8.860896210008863E-11   9.199488608491549E-11   9.551019289582190E-11
   9.915982650308953E-11   1.029489197955973E-10   1.068828017997547E-10
   1.109670051742826E-10   1.152072739913817E-10   1.196095718152362E-10
   1.241800900892071E-10   1.289252568435185E-10   1.338517457356782E-10
   1.389664854363485E-10   1.442766693738690E-10   1.497897658511309E-10
   1.555135285490386E-10   1.614560074313242E-10   1.676255600660536E-10
   1.740308633797492E-10   1.806809258606528E-10   1.875851002283000E-10
   1.947530965872188E-10   2.021949960832519E-10   2.099212650817135E-10
   2.179427698873108E-10   2.262707920265435E-10   2.349170441140662E-10
   2.438936863253303E-10   2.532133434986749E-10   2.628891228909101E-10
   2.729346326113769E-10   2.833640007603954E-10   2.941918952990272E-10
   3.054335446780945E-10   3.171047592554569E-10   3.292219535316863E-10
   3.418021692353947E-10   3.548630992906887E-10   3.684231127004606E-10
   3.825012803804984E-10   3.971174019807640E-10   4.122920337315490E-10
   4.280465173536704E-10   4.444030100733736E-10   4.613845157841369E-10
   4.790149173992222E-10   4.973190104404580E-10   5.163225379104971E-10
   5.360522264975924E-10   5.565358241638020E-10   5.778021391694932E-10
   5.998810805890271E-10   6.228037003745928E-10   6.466022370273656E-10
   6.713101609373828E-10   6.969622214559230E-10   7.235944957665751E-10
   7.512444396237293E-10   7.799509400298544E-10   8.097543699256184E-10
   8.406966449697991E-10   8.728212824888111E-10   9.061734626787602E-10
   9.408000921461007E-10   9.767498698762343E-10   1.014073355722856E-09
   1.052823041514332E-09   1.093053424877130E-09   1.134821085880128E-09
   1.178184766607535E-09   1.223205453772410E-09   1.269946464486886E-09
   1.318473535309762E-09   1.368854914696684E-09   1.421161458982890E-09
   1.475466732033570E-09   1.531847108701909E-09   1.590381882240350E-09
   1.651153375816119E-09   1.714247058287799E-09   1.779751664405836E-09
   1.847759319605951E-09   1.918365669570976E-09   1.991670014743334E-09
   2.067775449977263E-09   2.146789009527243E-09   2.228821817576476E-09
   2.313989244517103E-09   2.402411069201962E-09   2.494211647395971E-09
   2.589520086664129E-09   2.688470427941998E-09   2.791201834043995E-09
   2.897858785374647E-09   3.008591283117904E-09   3.123555060190382E-09
   3.242911800255071E-09   3.366829365103531E-09   3.495482030726376E-09
   3.629050732403795E-09   3.767723319161168E-09   3.911694817947060E-09
   4.061167707905537E-09   4.216352205128268E-09   4.377466558286713E-09
   4.544737355560479E-09   4.718399843292962E-09   4.898698256822735E-09
   5.085886163955736E-09   5.280226821561044E-09   5.481993545792183E-09
   5.691470096453829E-09   5.908951076054987E-09   6.134742344109496E-09
   6.369161447266235E-09   6.612538065874386E-09   6.865214477610924E-09
   7.127546038822894E-09   7.399901684260946E-09   7.682664445906614E-09
   7.976231991623513E-09   8.281017184388917E-09   8.597448662892711E-09
   8.925971444319900E-09   9.267047550163723E-09   9.621156655950276E-09
   9.988796765786912E-09   1.037048491268383E-08   1.076675788563313E-08
   1.117817298446717E-08   1.160530880355852E-08   1.204876604546212E-08
   1.250916836564455E-08   1.298716324948777E-08   1.348342292279959E-08
   1.399864529711246E-08   1.453355495109786E-08   1.508890414947723E-08
   1.566547390086159E-08   1.626407505600623E-08   1.688554944802604E-08
   1.753077107617252E-08   1.820064733483802E-08   1.889612028951452E-08
   1.961816800149975E-08   2.036780590321490E-08   2.114608822606474E-08
   2.195410948284918E-08   2.279300600680958E-08   2.366395754947210E-08
   2.456818893953662E-08   2.550697180513982E-08   2.648162636191591E-08
   2.749352326936728E-08   2.854408555815329E-08   2.963479063100882E-08
   3.076717234010162E-08   3.194282314375069E-08   3.316339634553641E-08
   3.443060841894743E-08   3.574624142083542E-08   3.711214549706525E-08
   3.853024148388466E-08   4.000252360866952E-08   4.153106229383691E-08
   4.311800706787193E-08   4.476558958755243E-08   4.647612677562432E-08
   4.825202407833377E-08   5.009577884739267E-08   5.200998385113414E-08
   5.399733091978539E-08   5.606061472998523E-08   5.820273673386169E-08
   6.042670923818773E-08   6.273565963935261E-08   6.513283482009088E-08
   6.762160571415242E-08   7.020547204532361E-08   7.288806724745640E-08
   7.567316357241976E-08   7.856467739314548E-08   8.156667470922061E-08
   8.468337686275875E-08   8.791916647257800E-08   9.127859359502315E-08
   9.476638212008207E-08   9.838743641178233E-08   1.021468482021930E-07
   1.060499037487122E-07   1.101020912646951E-07   1.143091086338524E-07
   1.186768714192572E-07   1.232115211782024E-07   1.279194340945849E-07
   1.328072299409390E-07   1.378817813826974E-07   1.431502236377477E-07
   1.486199645048414E-07   1.542986947749343E-07   1.601943990400749E-07
   1.663153669150106E-07   1.726702046872645E-07   1.792678474120335E-07
   1.861175714688819E-07   1.932290075978541E-07   2.006121544332977E-07
   2.082773925543909E-07   2.162354990720895E-07   2.244976627729556E-07
   2.330754998411216E-07   2.419810701804393E-07   2.512268943597164E-07
   2.608259712048082E-07   2.707917960622356E-07   2.811383797599546E-07
   2.918802682918558E-07   3.030325632536118E-07   3.146109430585176E-07
   3.266316849630751E-07   3.391116879332073E-07   3.520684963831477E-07
   3.655203248202910E-07   3.794860834305500E-07   3.939854046400660E-07
   4.090386706905158E-07   4.246670422666077E-07   4.408924882161241E-07
   4.577378164033433E-07   4.752267057407077E-07   4.933837394414994E-07
   5.122344395415440E-07   5.318053027384934E-07   5.521238375971688E-07
   5.732186031752514E-07   5.951192491216075E-07   6.178565573043384E-07
   6.414624850267011E-07   6.659702098911353E-07   6.914141763741605E-07
   7.178301441777992E-07   7.452552384244524E-07   7.737280017662768E-07
   8.032884484807802E-07   8.339781206295915E-07   8.658401463582750E-07
   8.989193004181521E-07   9.332620669961006E-07   9.689167049386558E-07
   1.005933315462827E-06   1.044363912447038E-06   1.084262495401624E-06
   1.125685125219620E-06   1.168690002814464E-06   1.213337550754046E-06
   1.259690498004886E-06   1.307813967905268E-06   1.357775569489629E-06
   1.409645492291430E-06   1.463496604757505E-06   1.519404556410070E-06
   1.577447883900054E-06   1.637708121098269E-06   1.700269913379009E-06
   1.765221136253833E-06   1.832653018524187E-06   1.902660270116962E-06
   1.975341214792095E-06   2.050797927895850E-06   2.129136379358453E-06
   2.210466582131584E-06   2.294902746275791E-06   2.382563438906674E-06
   2.473571750226783E-06   2.568055465872068E-06   2.666147245812755E-06
   2.767984810055548E-06   2.873711131407788E-06   2.983474635567312E-06
   3.097429408821598E-06   3.215735413633661E-06   3.338558712427621E-06
   3.466071699871539E-06   3.598453343985555E-06   3.735889436409072E-06
   3.878572852170107E-06   4.026703819320587E-06   4.180490198805610E-06
   4.340147774958744E-06   4.505900557019961E-06   4.677981092094522E-06
   4.856630789987989E-06   5.042100260357722E-06   5.234649662655680E-06
   5.434549069335695E-06   5.642078842832239E-06   5.857530026825894E-06
   6.081204752335985E-06   6.313416659196745E-06   6.554491333501711E-06
   6.804766761605571E-06   7.064593801324965E-06   7.334336670965862E-06
   7.614373456859726E-06   7.905096640100707E-06   8.206913643208102E-06
   8.520247397450999E-06   8.845536931629509E-06   9.183237983100362E-06
   9.533823631887486E-06   9.897784958747741E-06   1.027563172807821E-05
   1.066789309660645E-05   1.107511834881914E-05   1.149787766013551E-05
   1.193676288886002E-05   1.239238839798766E-05   1.286539190798161E-05
   1.335643538167326E-05   1.386620594248372E-05   1.439541682721391E-05
   1.494480837468203E-05   1.551514905154724E-05   1.610723651670296E-05
   1.672189872567269E-05   1.735999507648977E-05   1.802241759860761E-05
   1.871009218642791E-05   1.942397987910981E-05   2.016507818835888E-05
   2.093442247598568E-05   2.173308738306458E-05   2.256218831259796E-05
   2.342288296766442E-05   2.431637294708811E-05   2.524390540075600E-05
   2.620677474676628E-05   2.720632445269599E-05   2.824394888331845E-05
   2.932109521722921E-05   3.043926543488902E-05   3.160001838070457E-05
   3.280497190184680E-05   3.405580506661148E-05   3.535426046522301E-05
   3.670214659606817E-05   3.810134034049056E-05   3.955378952933438E-05
   4.106151560458539E-05   4.262661637953263E-05   4.425126890103454E-05
   4.593773241754663E-05   4.768835145675044E-05   4.950555901670683E-05
   5.139187987461620E-05   5.334993401741093E-05   5.538244019852443E-05
   5.749221962536090E-05   5.968219978211613E-05   6.195541839276942E-05
   6.431502752922784E-05   6.676429786975992E-05   6.930662311304218E-05
   7.194552455331397E-05   7.468465582229540E-05   7.752780780375125E-05
   8.047891372672656E-05   8.354205444372482E-05   8.672146390025035E-05
   9.002153480240158E-05   9.344682448934430E-05   9.700206101779222E-05
   1.006921494657705E-04   1.045221784632202E-04   1.084974269572052E-04
   1.126233712197590E-04   1.169056921065815E-04   1.213502825751640E-04
   1.259632554710480E-04   1.307509515913021E-04   1.357199480344598E-04
   1.408770668465629E-04   1.462293839730850E-04   1.517842385269432E-04
   1.575492423829625E-04   1.635322901095717E-04   1.697415692486924E-04
   1.761855709551975E-04   1.828731010075321E-04   1.898132912014587E-04
   1.970156111391906E-04   2.044898804264688E-04   2.122462812905153E-04
   2.202953716320432E-04   2.286480985249303E-04   2.373158121773927E-04
   2.463102803688730E-04   2.556437033771917E-04   2.653287294108317E-04
   2.753784705615154E-04   2.858065192926256E-04   2.966269654792874E-04
   3.078544140162711E-04   3.195040030101765E-04   3.315914225726703E-04
   3.441329342318517E-04   3.571453909790705E-04   3.706462579688648E-04
   3.846536338898647E-04   3.991862730248314E-04   4.142636080181982E-04
   4.299057733696533E-04   4.461336296725897E-04   4.629687886163225E-04
   4.804336387711365E-04   4.985513721753967E-04   5.173460117439238E-04
   5.368424395169702E-04   5.570664257690974E-04   5.780446589972067E-04
   5.998047768068795E-04   6.223753977160709E-04   6.457861538949766E-04
   6.700677248606321E-04   6.952518721444710E-04   7.213714749507026E-04
   7.484605668228129E-04   7.765543733349934E-04   8.056893508246310E-04
   8.359032261811879E-04   8.672350377059814E-04   8.997251770563386E-04
   9.334154322865468E-04   9.683490319967278E-04   1.004570690599391E-03
   1.042126654711852E-03   1.081064750681040E-03   1.121434433245251E-03
   1.163286835335406E-03   1.206674819015989E-03   1.251653027563419E-03
   1.298277938676794E-03   1.346607918813029E-03   1.396703278635082E-03
   1.448626329558487E-03   1.502441441377494E-03   1.558215100948030E-03
   1.616015971900164E-03   1.675914955347880E-03   1.737985251558693E-03
   1.802302422540057E-03   1.868944455493344E-03   1.937991827079657E-03
   2.009527568434703E-03   2.083637330862424E-03   2.160409452128931E-03
   2.239935023269646E-03   2.322307955813385E-03   2.407625049317018E-03
   2.495986059093951E-03   2.587493764008258E-03   2.682254034194267E-03
   2.780375898548785E-03   2.881971611829150E-03   2.987156721176186E-03
   3.096050131865489E-03   3.208774172074149E-03   3.325454656432885E-03
   3.446220948114925E-03   3.571206019193719E-03   3.700546508980936E-03
   3.834382780034425E-03   3.972858971503034E-03   4.116123049450695E-03
   4.264326853776962E-03   4.417626141324149E-03   4.576180624732813E-03
   4.740154006578077E-03   4.909714008287528E-03   5.085032393309034E-03
   5.266284983962575E-03   5.453651671373947E-03   5.647316417851165E-03
   5.847467251024809E-03   6.054296249032908E-03   6.267999515988396E-03
   6.488777146922659E-03   6.716833181353273E-03   6.952375544575690E-03
   7.195615975729684E-03   7.446769941640357E-03   7.706056535380400E-03
   7.973698358446765E-03   8.249921385388524E-03   8.534954809665997E-03
   8.829030869462604E-03   9.132384652111010E-03   9.445253875735138E-03
   9.767878646647389E-03   1.010050119097843E-02   1.044336555895476E-02
   1.079671730017562E-02   1.116080310817921E-02   1.153587043252533E-02
   1.192216705656074E-02   1.231994063897363E-02   1.272943821718543E-02
   1.315090567057268E-02   1.358458714145903E-02   1.403072441176813E-02
   1.448955623318402E-02   1.496131760862546E-02   1.544623902280810E-02
   1.594454561964173E-02   1.645645632419135E-02   1.698218290692296E-02
   1.752192898795525E-02   1.807588897905379E-02   1.864424696112965E-02
   1.922717549504762E-02   1.982483436360792E-02   2.043736924264114E-02
   2.106491029925667E-02   2.170757071540294E-02   2.236544513504430E-02
   2.303860803343229E-02   2.372711200715014E-02   2.443098598384647E-02
   2.515023335084168E-02   2.588483000210137E-02   2.663472230341912E-02
   2.739982497604541E-02   2.818001889944301E-02   2.897514883434010E-02
   2.978502106780245E-02   3.060940098265215E-02   3.144801055422788E-02
   3.230052577821853E-02   3.316657403410380E-02   3.404573138961382E-02
   3.493751985257380E-02   3.584140457753253E-02   3.675679103569324E-02
   3.768302215786742E-02   3.861937546146631E-02   3.956506017392926E-02
   4.051921436646507E-02   4.148090211355639E-02   4.244911069534164E-02
   4.342274786175246E-02   4.440063917913778E-02   4.538152548205009E-02
   4.636406045490309E-02   4.734680837031965E-02   4.832824201317855E-02
   4.930674082162016E-02   5.028058927857695E-02   5.124797558974428E-02
   5.220699068627761E-02   5.315562759288082E-02   5.409178120431255E-02
   5.501324851565575E-02   5.591772935394539E-02   5.680282766089040E-02
   5.766605337842716E-02   5.850482499065573E-02   5.931647277729062E-02
   6.009824283505426E-02   6.084730192439176E-02   6.156074319942749E-02
   6.223559287915032E-02   6.286881791732341E-02   6.345733472749189E-02
   6.399801901761203E-02   6.448771678616262E-02   6.492325652802015E-02
   6.530146269377957E-02   6.561917044048057E-02   6.587324170473299E-02
   6.606058262092274E-02   6.617816229739745E-02   6.622303295216846E-02
   6.619235139661328E-02   6.608340184081031E-02   6.589361997738810E-02
   6.562061828204092E-02   6.526221244807263E-02   6.481644884943168E-02
   6.428163290166473E-02   6.365635816303769E-02   6.293953598878994E-02
   6.213042552018407E-02   6.122866375679525E-02   6.023429542556234E-02
   5.914780232371810E-02   5.797013177516613E-02   5.670272380158359E-02
   5.534753657098021E-02   5.390706964826684E-02   5.238438453525732E-02
   5.078312195230493E-02   4.910751528141546E-02   4.736239956226414E-02
   4.555321540935092E-02   4.368600720191037E-02   4.176741488971200E-02
   3.980465875923348E-02   3.780551651765946E-02   3.577829207876351E-02
   3.373177547699540E-02   3.167519339621643E-02   2.961814987973817E-02
   2.757055689083372E-02   2.554255451998811E-02   2.354442078890857E-02
   2.158647118372634E-02   1.967894826260988E-02   1.783190192748802E-02
   1.605506122670057E-02   1.435769886537138E-02   1.274848994268418E-02
   1.123536680864244E-02   9.825372334752839E-03   8.524514319654602E-03
   7.337624196654390E-03   6.268223668451948E-03   5.318403356118381E-03
   4.488718003558346E-03   3.778103211930288E-03   3.183819074966052E-03
   2.701426427447091E-03   2.324801684171198E-03   2.046196411861821E-03
   1.856347815332938E-03   1.744646203145975E-03   1.699365196281423E-03
   1.707959923738928E-03   1.757437678365528E-03   1.834804451514516E-03
   1.927589394438628E-03   2.024447538265202E-03   2.115839017852839E-03
   2.194780568852805E-03   2.257408969402075E-03   2.301653991308994E-03
   2.325984359634103E-03   2.329367151590267E-03   2.311282283673055E-03
   2.271728499376291E-03   2.211220040491013E-03   2.130773288206322E-03
   2.031882796196871E-03   1.916486309127052E-03   1.786918569255780E-03
   1.645853962949417E-03   1.496238349613044E-03   1.341210748807720E-03
   1.184015936983029E-03   1.027909422797957E-03   8.760567268726316E-04
   7.314293847580089E-04   5.967006156171184E-04   4.741441462742246E-04
   3.655402419714404E-04   2.720935593203966E-04   1.943679894396977E-04
   1.322441830012011E-04   8.490592328946889E-05   5.086191544373397E-05
   2.800986254339333E-05   1.374987233690450E-05   5.455929372566448E-06
   1.459184543611824E-06   1.551385500897506E-07  -6.938893903907228E-18
   0.000000000000000E+00   0.000000000000000E+00   0.000000000000000E+00
   0.000000000000000E+00   0.000000000000000E+00   0.000000000000000E+00
   0.000000000000000E+00   0.000000000000000E+00   0.000000000000000E+00
   0.000000000000000E+00   0.000000000000000E+00   0.000000000000000E+00
   0.000000000000000E+00   0.000000000000000E+00   0.000000000000000E+00
   0.000000000000000E+00   0.000000000000000E+00   0.000000000000000E+00
   0.000000000000000E+00   0.000000000000000E+00   0.000000000000000E+00
   0.000000000000000E+00   0.000000000000000E+00   0.000000000000000E+00
   0.000000000000000E+00   0.000000000000000E+00   0.000000000000000E+00
   0.000000000000000E+00   0.000000000000000E+00   0.000000000000000E+00
   0.000000000000000E+00   0.000000000000000E+00   0.000000000000000E+00
   0.000000000000000E+00   0.000000000000000E+00   0.000000000000000E+00
   0.000000000000000E+00   0.000000000000000E+00   0.000000000000000E+00
   0.000000000000000E+00   0.000000000000000E+00   0.000000000000000E+00
   0.000000000000000E+00   0.000000000000000E+00   0.000000000000000E+00
   0.000000000000000E+00   0.000000000000000E+00   0.000000000000000E+00
   0.000000000000000E+00   0.000000000000000E+00   0.000000000000000E+00
   0.000000000000000E+00   0.000000000000000E+00   0.000000000000000E+00
   0.000000000000000E+00   0.000000000000000E+00   0.000000000000000E+00
   0.000000000000000E+00   0.000000000000000E+00   0.000000000000000E+00
   0.000000000000000E+00   0.000000000000000E+00   0.000000000000000E+00
   0.000000000000000E+00   0.000000000000000E+00   0.000000000000000E+00
   0.000000000000000E+00   0.000000000000000E+00   0.000000000000000E+00
   0.000000000000000E+00   0.000000000000000E+00   0.000000000000000E+00
   0.000000000000000E+00   0.000000000000000E+00   0.000000000000000E+00
   0.000000000000000E+00   0.000000000000000E+00   0.000000000000000E+00
   0.000000000000000E+00   0.000000000000000E+00   0.000000000000000E+00
   0.000000000000000E+00   0.000000000000000E+00   0.000000000000000E+00
   0.000000000000000E+00   0.000000000000000E+00   0.000000000000000E+00
   0.000000000000000E+00   0.000000000000000E+00   0.000000000000000E+00
   0.000000000000000E+00   0.000000000000000E+00   0.000000000000000E+00
   0.000000000000000E+00   0.000000000000000E+00   0.000000000000000E+00
   0.000000000000000E+00   0.000000000000000E+00   0.000000000000000E+00
   0.000000000000000E+00   0.000000000000000E+00   0.000000000000000E+00
   0.000000000000000E+00   0.000000000000000E+00   0.000000000000000E+00
   0.000000000000000E+00   0.000000000000000E+00   0.000000000000000E+00
   0.000000000000000E+00   0.000000000000000E+00   0.000000000000000E+00
   0.000000000000000E+00   0.000000000000000E+00   0.000000000000000E+00
   0.000000000000000E+00   0.000000000000000E+00   0.000000000000000E+00
   0.000000000000000E+00   0.000000000000000E+00   0.000000000000000E+00
   0.000000000000000E+00   0.000000000000000E+00   0.000000000000000E+00
   0.000000000000000E+00   0.000000000000000E+00   0.000000000000000E+00
   0.000000000000000E+00   0.000000000000000E+00   0.000000000000000E+00
   0.000000000000000E+00   0.000000000000000E+00   0.000000000000000E+00
   0.000000000000000E+00   0.000000000000000E+00   0.000000000000000E+00
   0.000000000000000E+00   0.000000000000000E+00   0.000000000000000E+00
   0.000000000000000E+00   0.000000000000000E+00   0.000000000000000E+00
   0.000000000000000E+00   0.000000000000000E+00   0.000000000000000E+00
   0.000000000000000E+00   0.000000000000000E+00   0.000000000000000E+00
   0.000000000000000E+00   0.000000000000000E+00   0.000000000000000E+00
   0.000000000000000E+00   0.000000000000000E+00   0.000000000000000E+00
   0.000000000000000E+00   0.000000000000000E+00   0.000000000000000E+00
   0.000000000000000E+00   0.000000000000000E+00   0.000000000000000E+00
   0.000000000000000E+00   0.000000000000000E+00   0.000000000000000E+00
   0.000000000000000E+00   0.000000000000000E+00   0.000000000000000E+00
   0.000000000000000E+00   0.000000000000000E+00   0.000000000000000E+00
   0.000000000000000E+00   0.000000000000000E+00   0.000000000000000E+00
   0.000000000000000E+00   0.000000000000000E+00   0.000000000000000E+00
   0.000000000000000E+00   0.000000000000000E+00   0.000000000000000E+00
   0.000000000000000E+00   0.000000000000000E+00   0.000000000000000E+00
   0.000000000000000E+00   0.000000000000000E+00   0.000000000000000E+00
   0.000000000000000E+00   0.000000000000000E+00   0.000000000000000E+00
   0.000000000000000E+00   0.000000000000000E+00   0.000000000000000E+00
   0.000000000000000E+00   0.000000000000000E+00   0.000000000000000E+00
   0.000000000000000E+00   0.000000000000000E+00   0.000000000000000E+00
   0.000000000000000E+00   0.000000000000000E+00   0.000000000000000E+00
   0.000000000000000E+00   0.000000000000000E+00   0.000000000000000E+00
   0.000000000000000E+00   0.000000000000000E+00   0.000000000000000E+00
   0.000000000000000E+00   0.000000000000000E+00   0.000000000000000E+00
   0.000000000000000E+00   0.000000000000000E+00   0.000000000000000E+00
   0.000000000000000E+00   0.000000000000000E+00   0.000000000000000E+00
   0.000000000000000E+00   0.000000000000000E+00   0.000000000000000E+00
   0.000000000000000E+00   0.000000000000000E+00   0.000000000000000E+00
   0.000000000000000E+00   0.000000000000000E+00   0.000000000000000E+00
   0.000000000000000E+00   0.000000000000000E+00   0.000000000000000E+00
   0.000000000000000E+00   0.000000000000000E+00   0.000000000000000E+00
   0.000000000000000E+00   0.000000000000000E+00   0.000000000000000E+00
   0.000000000000000E+00   0.000000000000000E+00   0.000000000000000E+00
   0.000000000000000E+00   0.000000000000000E+00   0.000000000000000E+00
   0.000000000000000E+00   0.000000000000000E+00   0.000000000000000E+00
   0.000000000000000E+00   0.000000000000000E+00   0.000000000000000E+00
   0.000000000000000E+00   0.000000000000000E+00   0.000000000000000E+00
   0.000000000000000E+00   0.000000000000000E+00   0.000000000000000E+00
   0.000000000000000E+00   0.000000000000000E+00   0.000000000000000E+00
   0.000000000000000E+00   0.000000000000000E+00   0.000000000000000E+00
   0.000000000000000E+00   0.000000000000000E+00   0.000000000000000E+00
   0.000000000000000E+00   0.000000000000000E+00   0.000000000000000E+00
   0.000000000000000E+00   0.000000000000000E+00   0.000000000000000E+00
   0.000000000000000E+00   0.000000000000000E+00   0.000000000000000E+00
   0.000000000000000E+00   0.000000000000000E+00   0.000000000000000E+00
   0.000000000000000E+00   0.000000000000000E+00   0.000000000000000E+00
   0.000000000000000E+00   0.000000000000000E+00   0.000000000000000E+00
   0.000000000000000E+00   0.000000000000000E+00   0.000000000000000E+00
   0.000000000000000E+00   0.000000000000000E+00   0.000000000000000E+00
   0.000000000000000E+00   0.000000000000000E+00   0.000000000000000E+00
   0.000000000000000E+00   0.000000000000000E+00   0.000000000000000E+00
   0.000000000000000E+00   0.000000000000000E+00   0.000000000000000E+00
   0.000000000000000E+00   0.000000000000000E+00   0.000000000000000E+00
   0.000000000000000E+00   0.000000000000000E+00   0.000000000000000E+00
   0.000000000000000E+00   0.000000000000000E+00   0.000000000000000E+00
   0.000000000000000E+00   0.000000000000000E+00   0.000000000000000E+00
   0.000000000000000E+00   0.000000000000000E+00   0.000000000000000E+00
   0.000000000000000E+00   0.000000000000000E+00   0.000000000000000E+00
   0.000000000000000E+00   0.000000000000000E+00   0.000000000000000E+00
   0.000000000000000E+00   0.000000000000000E+00   0.000000000000000E+00
   0.000000000000000E+00   0.000000000000000E+00   0.000000000000000E+00
   0.000000000000000E+00   0.000000000000000E+00   0.000000000000000E+00
   0.000000000000000E+00   0.000000000000000E+00   0.000000000000000E+00
   0.000000000000000E+00   0.000000000000000E+00   0.000000000000000E+00
   0.000000000000000E+00   0.000000000000000E+00   0.000000000000000E+00
   0.000000000000000E+00   0.000000000000000E+00   0.000000000000000E+00
   0.000000000000000E+00   0.000000000000000E+00   0.000000000000000E+00
   0.000000000000000E+00   0.000000000000000E+00   0.000000000000000E+00
   0.000000000000000E+00   0.000000000000000E+00   0.000000000000000E+00
   0.000000000000000E+00   0.000000000000000E+00
      </PP_QIJL.2.3.1>
      <PP_QIJL.2.4.1 first_index="2" second_index="4" composite_index="8" angular_momentum="1" size="1085">
   1.068350148655659E-11   1.109173937195706E-11   1.151557683951971E-11
   1.195560998025690E-11   1.241245766299783E-11   1.288676240477339E-11
   1.337919127446061E-11   1.389043683095683E-11   1.442121809720334E-11
   1.497228157142865E-11   1.554440227703277E-11   1.613838485259010E-11
   1.675506468350323E-11   1.739530907689937E-11   1.806001848142215E-11
   1.875012775363344E-11   1.946660747280742E-11   2.021046530596512E-11
   2.098274742506960E-11   2.178453997837517E-11   2.261697061799909E-11
   2.348121008586533E-11   2.437847386024992E-11   2.531002386524407E-11
   2.627717024553928E-11   2.728127320902991E-11   2.832374493982567E-11
   2.940605158436370E-11   3.052971531341363E-11   3.169631646287626E-11
   3.290749575638547E-11   3.416495661284074E-11   3.547046754211435E-11
   3.682586463230313E-11   3.823305413202336E-11   3.969401513137897E-11
   4.121080234537553E-11   4.278554900369333E-11   4.442046985088398E-11
   4.611786426121087E-11   4.788011947251216E-11   4.970971394363698E-11
   5.160922084017508E-11   5.358131165338233E-11   5.562875995739320E-11
   5.775444531000148E-11   5.996135730249875E-11   6.225259976426382E-11
   6.463139512801734E-11   6.710108896188151E-11   6.966515467461657E-11
   7.232719840065457E-11   7.509096407179843E-11   7.796033868271981E-11
   8.093935775766220E-11   8.403221102603455E-11   8.724324831488193E-11
   9.057698566651666E-11   9.403811168991552E-11   9.763149415481603E-11
   1.013621868377829E-10   1.052354366298772E-10   1.092566909159206E-10
   1.134316052357350E-10   1.177660512381327E-10   1.222661249388396E-10
   1.269381552939713E-10   1.317887131011148E-10   1.368246202405366E-10
   1.420529592695146E-10   1.474810833832830E-10   1.531166267566050E-10
   1.589675152805134E-10   1.650419777093203E-10   1.713485572335748E-10
   1.778961234952391E-10   1.846938850619891E-10   1.917514023781759E-10
   1.990786012106669E-10   2.066857866084750E-10   2.145836573958050E-10
   2.227833212189081E-10   2.312963101678977E-10   2.401345969955009E-10
   2.493106119555579E-10   2.588372602849405E-10   2.687279403534899E-10
   2.789965625074885E-10   2.896575686331709E-10   3.007259524677902E-10
   3.122172806867958E-10   3.241477147967902E-10   3.365340338650473E-10
   3.493936581175592E-10   3.627446734388044E-10   3.766058568076795E-10
   3.909967027053869E-10   4.059374505323979E-10   4.214491130730613E-10
   4.375535060478915E-10   4.542732787950764E-10   4.716319461243860E-10
   4.896539213882534E-10   5.083645508165502E-10   5.277901491633451E-10
   5.479580367157626E-10   5.688965777170105E-10   5.906352202575968E-10
   6.132045376908418E-10   6.366362716309378E-10   6.609633765940032E-10
   6.862200663449424E-10   7.124418620152693E-10   7.396656420595728E-10
   7.679296941208803E-10   7.972737688778504E-10   8.277391359495340E-10
   8.593686419363240E-10   8.922067706787021E-10   9.262997058185529E-10
   9.616953957509952E-10   9.984436210581008E-10   1.036596064519326E-09
   1.076206383797101E-09   1.117330286899820E-09   1.160025610528325E-09
   1.204352401416090E-09   1.250373000777492E-09   1.298152131982907E-09
   1.347756991583962E-09   1.399257343816912E-09   1.452725618717083E-09
   1.508237013982331E-09   1.565869600728772E-09   1.625704433287531E-09
   1.687825663196852E-09   1.752320657549957E-09   1.819280121865025E-09
   1.888798227650088E-09   1.960972744842285E-09   2.035905179307619E-09
   2.113700915594681E-09   2.194469365143046E-09   2.278324120154729E-09
   2.365383113345170E-09   2.455768783798269E-09   2.549608249158842E-09
   2.647033484404551E-09   2.748181507448711E-09   2.853194571835058E-09
   2.962220366795286E-09   3.075412224950865E-09   3.192929337951085E-09
   3.314936980350601E-09   3.441606742041338E-09   3.573116769565470E-09
   3.709652016648991E-09   3.851404504308040E-09   3.998573590893754E-09
   4.151366252455485E-09   4.309997373816428E-09   4.474690050771166E-09
   4.645675903829937E-09   4.823195403950822E-09   5.007498210717999E-09
   5.198843523441235E-09   5.397500445670935E-09   5.603748363640542E-09
   5.817877339169062E-09   6.040188517575888E-09   6.270994551181341E-09
   6.510620038988932E-09   6.759401983166911E-09   7.017690262971489E-09
   7.285848126777902E-09   7.564252702910885E-09   7.853295529993552E-09
   8.153383107559349E-09   8.464937467702177E-09   8.788396768567987E-09
   9.124215910522138E-09   9.472867175859581E-09   9.834840892956291E-09
   1.021064612579661E-08   1.060081138984557E-08   1.100588539527237E-08
   1.142643781857094E-08   1.186306010366116E-08   1.231636629359797E-08
   1.278699389405757E-08   1.327560476981378E-08   1.378288607546668E-08
   1.430955122172989E-08   1.485634087863672E-08   1.542402401707478E-08
   1.601339899011278E-08   1.662529465564118E-08   1.726057154190304E-08
   1.792012305755499E-08   1.860487674795902E-08   1.931579559947014E-08
   2.005387939355557E-08   2.082016611264633E-08   2.161573339969966E-08
   2.244170007352291E-08   2.329922770198837E-08   2.418952223535255E-08
   2.511383570197294E-08   2.607346796880806E-08   2.706976856917448E-08
   2.810413860032883E-08   2.917803269354473E-08   3.029296105945008E-08
   3.145049161150221E-08   3.265225217058465E-08   3.389993275382217E-08
   3.519528795083494E-08   3.654013939076640E-08   3.793637830355606E-08
   3.938596817905493E-08   4.089094752771953E-08   4.245343274676752E-08
   4.407562109581803E-08   4.575979378620206E-08   4.750831918828308E-08
   4.932365616129179E-08   5.120835751036014E-08   5.316507357560524E-08
   5.519655595831070E-08   5.730566138944067E-08   5.949535574591770E-08
   6.176871822031467E-08   6.412894564981053E-08   6.657935701049838E-08
   6.912339808335722E-08   7.176464629843970E-08   7.450681576408818E-08
   7.735376248823458E-08   8.030948979912614E-08   8.337815397308846E-08
   8.656407007722775E-08   8.987171803528695E-08   9.330574892516500E-08
   9.687099151695248E-08   1.005724590606625E-07   1.044153563331881E-07
   1.084050869543858E-07   1.125472609825559E-07   1.168477027999878E-07
   1.213124592996420E-07   1.259478083844622E-07   1.307602677912560E-07
   1.357566042515255E-07   1.409438430021159E-07   1.463292776590310E-07
   1.519204804682748E-07   1.577253129481130E-07   1.637519369376878E-07
   1.700088260674982E-07   1.765047776678439E-07   1.832489251319418E-07
   1.902507507510735E-07   1.975200990397664E-07   2.050671905697139E-07
   2.129026363318430E-07   2.210374526466781E-07   2.294830766439254E-07
   2.382513823329880E-07   2.473546972869603E-07   2.568058199635041E-07
   2.666180376868963E-07   2.768051453164769E-07   2.873814646276694E-07
   2.983618644327585E-07   3.097617814696393E-07   3.215972420878189E-07
   3.338848847620853E-07   3.466419834653959E-07   3.598864719337545E-07
   3.736369688570485E-07   3.879128040314209E-07   4.027340455090685E-07
   4.181215277846033E-07   4.340968810567729E-07   4.506825616062972E-07
   4.679018833333312E-07   4.857790504975107E-07   5.043391917079230E-07
   5.236083952087530E-07   5.436137455118326E-07   5.643833614261282E-07
   5.859464355381251E-07   6.083332751977896E-07   6.315753450682347E-07
   6.557053112976125E-07   6.807570873763041E-07   7.067658817421694E-07
   7.337682472017633E-07   7.618021322358397E-07   7.909069342609459E-07
   8.211235549220042E-07   8.524944574930461E-07   8.850637264656080E-07
   9.188771294096429E-07   9.539821811916375E-07   9.904282106411092E-07
   1.028266429757471E-06   1.067550005555086E-06   1.108334134645551E-06
   1.150676120662791E-06   1.194635454637619E-06   1.240273898435097E-06
   1.287655571370402E-06   1.336847040124451E-06   1.387917412085289E-06
   1.440938432242739E-06   1.495984583776181E-06   1.553133192470193E-06
   1.612464535108756E-06   1.674061951995043E-06   1.738011963755080E-06
   1.804404392589928E-06   1.873332488140658E-06   1.944893058146364E-06
   2.019186604072972E-06   2.096317461904274E-06   2.176393948290053E-06
   2.259528512254075E-06   2.345837892673590E-06   2.435443281748468E-06
   2.528470494688561E-06   2.625050145852980E-06   2.725317831587379E-06
   2.829414320011816E-06   2.937485748024584E-06   3.049683825792580E-06
   3.166166049013250E-06   3.287095919243320E-06   3.412643172596563E-06
   3.542984017130857E-06   3.678301379251673E-06   3.818785159471042E-06
   3.964632497879890E-06   4.116048049697041E-06   4.273244271278211E-06
   4.436441716979193E-06   4.605869347283158E-06   4.781764848617052E-06
   4.964374965300487E-06   5.153955844079547E-06   5.350773391729044E-06
   5.555103646205655E-06   5.767233161871704E-06   5.987459409314876E-06
   6.216091190313365E-06   6.453449068521493E-06   6.699865816461572E-06
   6.955686879438563E-06   7.221270857015663E-06   7.496990002707183E-06
   7.783230742576420E-06   8.080394213446887E-06   8.388896821463678E-06
   8.709170821770773E-06   9.041664920093249E-06   9.386844897045342E-06
   9.745194256021417E-06   1.011721489554794E-05   1.050342780701223E-05
   1.090437379872149E-05   1.132061424727386E-05   1.175273187726051E-05
   1.220133157036394E-05   1.266704120493835E-05   1.315051252722722E-05
   1.365242205537257E-05   1.417347201746520E-05   1.471439132488200E-05
   1.527593658223596E-05   1.585889313529147E-05   1.646407615826868E-05
   1.709233178197928E-05   1.774453826433183E-05   1.842160720475852E-05
   1.912448480420174E-05   1.985415317234085E-05   2.061163168381095E-05
   2.139797838521850E-05   2.221429145483293E-05   2.306171071689993E-05
   2.394141921257781E-05   2.485464482959699E-05   2.580266199278713E-05
   2.678679341772091E-05   2.780841192978238E-05   2.886894235106148E-05
   2.996986345755633E-05   3.111271000926101E-05   3.229907485579031E-05
   3.353061112031393E-05   3.480903446463240E-05   3.613612543837280E-05
   3.751373191534100E-05   3.894377162020544E-05   4.042823474877897E-05
   4.196918668530200E-05   4.356877082020911E-05   4.522921147202714E-05
   4.695281691714144E-05   4.874198253132072E-05   5.059919404700466E-05
   5.252703093051341E-05   5.452816988346123E-05   5.660538847281803E-05
   5.876156889419648E-05   6.099970187312405E-05   6.332289070916882E-05
   6.573435546801225E-05   6.823743732668213E-05   7.083560307735616E-05
   7.353244979531531E-05   7.633170967681581E-05   7.923725505283187E-05
   8.225310358480958E-05   8.538342364878614E-05   8.863253991441686E-05
   9.200493912566839E-05   9.550527609014857E-05   9.913837988427085E-05
   1.029092602816591E-04   1.068231144124538E-04   1.108853336613895E-04
   1.151015108127812E-04   1.194774474507900E-04   1.240191616235888E-04
   1.287328957803123E-04   1.336251249899526E-04   1.387025654515987E-04
   1.439721833057253E-04   1.494412037564907E-04   1.551171205153056E-04
   1.610077055762253E-04   1.671210193339733E-04   1.734654210557628E-04
   1.800495797183544E-04   1.868824852220594E-04   1.939734599937995E-04
   2.013321709915312E-04   2.089686421227703E-04   2.168932670901809E-04
   2.251168226775834E-04   2.336504824899959E-04   2.425058311616990E-04
   2.516948790465973E-04   2.612300774055071E-04   2.711243341052688E-04
   2.813910298449798E-04   2.920440349248589E-04   3.030977265736578E-04
   3.145670068507707E-04   3.264673211395359E-04   3.388146772484785E-04
   3.516256651375471E-04   3.649174772866565E-04   3.787079297241099E-04
   3.930154837326997E-04   4.078592682515342E-04   4.232591029918137E-04
   4.392355222849956E-04   4.558097996819267E-04   4.730039733216413E-04
   4.908408720886869E-04   5.093441425778071E-04   5.285382768849850E-04
   5.484486412437035E-04   5.691015055253448E-04   5.905240736224842E-04
   6.127445147337356E-04   6.357919955685672E-04   6.596967134902638E-04
   6.844899306148811E-04   7.102040088836167E-04   7.368724461255538E-04
   7.645299131271805E-04   7.932122917243918E-04   8.229567139319597E-04
   8.538016021245884E-04   8.857867102826236E-04   9.189531663145357E-04
   9.533435154668762E-04   9.890017648311214E-04   1.025973428955348E-03
   1.064305576566789E-03   1.104046878409665E-03   1.145247656200462E-03
   1.187959932700643E-03   1.232237482904254E-03   1.278135886335180E-03
   1.325712580445884E-03   1.375026915106144E-03   1.426140208166959E-03
   1.479115802080790E-03   1.534019121555359E-03   1.590917732213684E-03
   1.649881400228249E-03   1.710982152891977E-03   1.774294340083154E-03
   1.839894696575296E-03   1.907862405136664E-03   1.978279160356977E-03
   2.051229233131576E-03   2.126799535725186E-03   2.205079687328878E-03
   2.286162080014779E-03   2.370141944983106E-03   2.457117418985788E-03
   2.547189610799804E-03   2.640462667611261E-03   2.737043841158936E-03
   2.837043553472196E-03   2.940575462024131E-03   3.047756524105369E-03
   3.158707060208003E-03   3.273550816191916E-03   3.392415023987633E-03
   3.515430460570626E-03   3.642731504921794E-03   3.774456192667141E-03
   3.910746268067340E-03   4.051747233003698E-03   4.197608392581955E-03
   4.348482896948837E-03   4.504527778888241E-03   4.665903986734851E-03
   4.832776412111810E-03   5.005313911967192E-03   5.183689324349792E-03
   5.368079477329444E-03   5.558665190430257E-03   5.755631267906063E-03
   5.959166483147373E-03   6.169463553467020E-03   6.386719104467687E-03
   6.611133623149750E-03   6.842911398870024E-03   7.082260451213761E-03
   7.329392443791770E-03   7.584522582922075E-03   7.847869500102706E-03
   8.119655117126442E-03   8.400104492632243E-03   8.689445648830211E-03
   8.987909377077850E-03   9.295729020925623E-03   9.613140235188720E-03
   9.940380719540386E-03   1.027768992506052E-02   1.062530873211029E-02
   1.098347909784266E-02   1.135244367159587E-02   1.173244537635711E-02
   1.212372695442366E-02   1.252653047533090E-02   1.294109680406183E-02
   1.336766502749913E-02   1.380647183703236E-02   1.425775086518816E-02
   1.472173197411030E-02   1.519864049368434E-02   1.568869640707264E-02
   1.619211348140745E-02   1.670909834137924E-02   1.723984948345678E-02
   1.778455622848827E-02   1.834339761045605E-02   1.891654119919730E-02
   1.950414185495804E-02   2.010634041272086E-02   2.072326229434052E-02
   2.135501604663589E-02   2.200169180372620E-02   2.266335967206567E-02
   2.334006803682358E-02   2.403184178848483E-02   2.473868046880429E-02
   2.546055633554628E-02   2.619741234577767E-02   2.694916005786229E-02
   2.771567745273256E-02   2.849680667548895E-02   2.929235169890776E-02
   3.010207591102402E-02   3.092569962960052E-02   3.176289754700661E-02
   3.261329610980399E-02   3.347647083818668E-02   3.435194359134353E-02
   3.523917978581028E-02   3.613758557496026E-02   3.704650499894487E-02
   3.796521711564550E-02   3.889293312453828E-02   3.982879349679932E-02
   4.077186512650096E-02   4.172113851935962E-02   4.267552503719983E-02
   4.363385421809346E-02   4.459487119401342E-02   4.555723422980979E-02
   4.651951240935947E-02   4.748018349686096E-02   4.843763200342854E-02
   4.939014749137659E-02   5.033592315086677E-02   5.127305468589354E-02
   5.219953954890066E-02   5.311327656562423E-02   5.401206599402415E-02
   5.489361006337335E-02   5.575551404168192E-02   5.659528788161686E-02
   5.741034849688964E-02   5.819802272268337E-02   5.895555101503075E-02
   5.968009194507542E-02   6.036872754479840E-02   6.101846956100124E-02
   6.162626667403844E-02   6.218901273691203E-02   6.270355608879576E-02
   6.316670999476388E-02   6.357526426037066E-02   6.392599806566152E-02
   6.421569405810756E-02   6.444115373772942E-02   6.459921416022231E-02
   6.468676597510244E-02   6.470077280566562E-02   6.463829196578337E-02
   6.449649649516448E-02   6.427269847959619E-02   6.396437360576995E-02
   6.356918688153268E-02   6.308501943173468E-02   6.250999625725524E-02
   6.184251482026614E-02   6.108127429238771E-02   6.022530527416370E-02
   5.927399976434418E-02   5.822714112598754E-02   5.708493376358194E-02
   5.584803219153053E-02   5.451756913979779E-02   5.309518230768588E-02
   5.158303934214319E-02   4.998386058327199E-02   4.830093908752154E-02
   4.653815740923192E-02   4.470000059461662E-02   4.279156482000185E-02
   4.081856108926422E-02   3.878731339519391E-02   3.670475074729884E-02
   3.457839247576499E-02   3.241632623946578E-02   3.022717819659867E-02
   2.802007484137466E-02   2.580459607082021E-02   2.359071912373747E-02
   2.138875313077900E-02   1.920926413175942E-02   1.706299055497040E-02
   1.496074931430238E-02   1.291333286392588E-02   1.093139775730145E-02
   9.025345486861883E-03   7.205196631733310E-03   5.480459611412202E-03
   3.859995630498063E-03   2.351881699544692E-03   9.632739246824389E-04
  -2.997264324713046E-04  -1.432201320799967E-03  -2.430535601369513E-03
  -3.292524734995118E-03  -4.017466885615792E-03  -4.606235702541860E-03
  -5.061329946808737E-03  -5.386896115028763E-03  -5.588720306320683E-03
  -5.674185792944163E-03  -5.652193112250757E-03  -5.533040015252708E-03
  -5.328259303173453E-03  -5.050413473446345E-03  -4.712846193327992E-03
  -4.329391930780292E-03  -3.914046600954242E-03  -3.480603827464197E-03
  -3.042263356583752E-03  -2.611220274478892E-03  -2.198245924818782E-03
  -1.812273754176724E-03  -1.460005656870999E-03  -1.145556662918944E-03
  -8.701579074404178E-04  -6.319396127556151E-04  -4.258171622159249E-04
  -2.435040863550944E-04  -7.625678288952775E-05   7.634997659472509E-05
   2.127108552832935E-04   3.315902041390872E-04   4.321358695317801E-04
   5.138869724920503E-04   5.767750701952123E-04   6.211181852556757E-04
   6.476072862811044E-04   6.572849253911328E-04   6.515158866335913E-04
   6.319498743037055E-04   6.004764727921830E-04   5.591728398662010E-04
   5.102448523997827E-04   4.559627064170402E-04   3.985922792049679E-04
   3.403238869615355E-04   2.832004122247378E-04   2.290471249355441E-04
   1.794058720502867E-04   1.354766535078544E-04   9.806992610408849E-05
   6.757326836952238E-05   4.393628360806201E-05   2.667779808018800E-05
   1.491950750190374E-05   7.450216835416801E-06   3.001801465542242E-06
   8.130626353852755E-07   8.736007786613875E-08  -3.469446951953614E-18
   0.000000000000000E+00   0.000000000000000E+00   0.000000000000000E+00
   0.000000000000000E+00   0.000000000000000E+00   0.000000000000000E+00
   0.000000000000000E+00   0.000000000000000E+00   0.000000000000000E+00
   0.000000000000000E+00   0.000000000000000E+00   0.000000000000000E+00
   0.000000000000000E+00   0.000000000000000E+00   0.000000000000000E+00
   0.000000000000000E+00   0.000000000000000E+00   0.000000000000000E+00
   0.000000000000000E+00   0.000000000000000E+00   0.000000000000000E+00
   0.000000000000000E+00   0.000000000000000E+00   0.000000000000000E+00
   0.000000000000000E+00   0.000000000000000E+00   0.000000000000000E+00
   0.000000000000000E+00   0.000000000000000E+00   0.000000000000000E+00
   0.000000000000000E+00   0.000000000000000E+00   0.000000000000000E+00
   0.000000000000000E+00   0.000000000000000E+00   0.000000000000000E+00
   0.000000000000000E+00   0.000000000000000E+00   0.000000000000000E+00
   0.000000000000000E+00   0.000000000000000E+00   0.000000000000000E+00
   0.000000000000000E+00   0.000000000000000E+00   0.000000000000000E+00
   0.000000000000000E+00   0.000000000000000E+00   0.000000000000000E+00
   0.000000000000000E+00   0.000000000000000E+00   0.000000000000000E+00
   0.000000000000000E+00   0.000000000000000E+00   0.000000000000000E+00
   0.000000000000000E+00   0.000000000000000E+00   0.000000000000000E+00
   0.000000000000000E+00   0.000000000000000E+00   0.000000000000000E+00
   0.000000000000000E+00   0.000000000000000E+00   0.000000000000000E+00
   0.000000000000000E+00   0.000000000000000E+00   0.000000000000000E+00
   0.000000000000000E+00   0.000000000000000E+00   0.000000000000000E+00
   0.000000000000000E+00   0.000000000000000E+00   0.000000000000000E+00
   0.000000000000000E+00   0.000000000000000E+00   0.000000000000000E+00
   0.000000000000000E+00   0.000000000000000E+00   0.000000000000000E+00
   0.000000000000000E+00   0.000000000000000E+00   0.000000000000000E+00
   0.000000000000000E+00   0.000000000000000E+00   0.000000000000000E+00
   0.000000000000000E+00   0.000000000000000E+00   0.000000000000000E+00
   0.000000000000000E+00   0.000000000000000E+00   0.000000000000000E+00
   0.000000000000000E+00   0.000000000000000E+00   0.000000000000000E+00
   0.000000000000000E+00   0.000000000000000E+00   0.000000000000000E+00
   0.000000000000000E+00   0.000000000000000E+00   0.000000000000000E+00
   0.000000000000000E+00   0.000000000000000E+00   0.000000000000000E+00
   0.000000000000000E+00   0.000000000000000E+00   0.000000000000000E+00
   0.000000000000000E+00   0.000000000000000E+00   0.000000000000000E+00
   0.000000000000000E+00   0.000000000000000E+00   0.000000000000000E+00
   0.000000000000000E+00   0.000000000000000E+00   0.000000000000000E+00
   0.000000000000000E+00   0.000000000000000E+00   0.000000000000000E+00
   0.000000000000000E+00   0.000000000000000E+00   0.000000000000000E+00
   0.000000000000000E+00   0.000000000000000E+00   0.000000000000000E+00
   0.000000000000000E+00   0.000000000000000E+00   0.000000000000000E+00
   0.000000000000000E+00   0.000000000000000E+00   0.000000000000000E+00
   0.000000000000000E+00   0.000000000000000E+00   0.000000000000000E+00
   0.000000000000000E+00   0.000000000000000E+00   0.000000000000000E+00
   0.000000000000000E+00   0.000000000000000E+00   0.000000000000000E+00
   0.000000000000000E+00   0.000000000000000E+00   0.000000000000000E+00
   0.000000000000000E+00   0.000000000000000E+00   0.000000000000000E+00
   0.000000000000000E+00   0.000000000000000E+00   0.000000000000000E+00
   0.000000000000000E+00   0.000000000000000E+00   0.000000000000000E+00
   0.000000000000000E+00   0.000000000000000E+00   0.000000000000000E+00
   0.000000000000000E+00   0.000000000000000E+00   0.000000000000000E+00
   0.000000000000000E+00   0.000000000000000E+00   0.000000000000000E+00
   0.000000000000000E+00   0.000000000000000E+00   0.000000000000000E+00
   0.000000000000000E+00   0.000000000000000E+00   0.000000000000000E+00
   0.000000000000000E+00   0.000000000000000E+00   0.000000000000000E+00
   0.000000000000000E+00   0.000000000000000E+00   0.000000000000000E+00
   0.000000000000000E+00   0.000000000000000E+00   0.000000000000000E+00
   0.000000000000000E+00   0.000000000000000E+00   0.000000000000000E+00
   0.000000000000000E+00   0.000000000000000E+00   0.000000000000000E+00
   0.000000000000000E+00   0.000000000000000E+00   0.000000000000000E+00
   0.000000000000000E+00   0.000000000000000E+00   0.000000000000000E+00
   0.000000000000000E+00   0.000000000000000E+00   0.000000000000000E+00
   0.000000000000000E+00   0.000000000000000E+00   0.000000000000000E+00
   0.000000000000000E+00   0.000000000000000E+00   0.000000000000000E+00
   0.000000000000000E+00   0.000000000000000E+00   0.000000000000000E+00
   0.000000000000000E+00   0.000000000000000E+00   0.000000000000000E+00
   0.000000000000000E+00   0.000000000000000E+00   0.000000000000000E+00
   0.000000000000000E+00   0.000000000000000E+00   0.000000000000000E+00
   0.000000000000000E+00   0.000000000000000E+00   0.000000000000000E+00
   0.000000000000000E+00   0.000000000000000E+00   0.000000000000000E+00
   0.000000000000000E+00   0.000000000000000E+00   0.000000000000000E+00
   0.000000000000000E+00   0.000000000000000E+00   0.000000000000000E+00
   0.000000000000000E+00   0.000000000000000E+00   0.000000000000000E+00
   0.000000000000000E+00   0.000000000000000E+00   0.000000000000000E+00
   0.000000000000000E+00   0.000000000000000E+00   0.000000000000000E+00
   0.000000000000000E+00   0.000000000000000E+00   0.000000000000000E+00
   0.000000000000000E+00   0.000000000000000E+00   0.000000000000000E+00
   0.000000000000000E+00   0.000000000000000E+00   0.000000000000000E+00
   0.000000000000000E+00   0.000000000000000E+00   0.000000000000000E+00
   0.000000000000000E+00   0.000000000000000E+00   0.000000000000000E+00
   0.000000000000000E+00   0.000000000000000E+00   0.000000000000000E+00
   0.000000000000000E+00   0.000000000000000E+00   0.000000000000000E+00
   0.000000000000000E+00   0.000000000000000E+00   0.000000000000000E+00
   0.000000000000000E+00   0.000000000000000E+00   0.000000000000000E+00
   0.000000000000000E+00   0.000000000000000E+00   0.000000000000000E+00
   0.000000000000000E+00   0.000000000000000E+00   0.000000000000000E+00
   0.000000000000000E+00   0.000000000000000E+00   0.000000000000000E+00
   0.000000000000000E+00   0.000000000000000E+00   0.000000000000000E+00
   0.000000000000000E+00   0.000000000000000E+00   0.000000000000000E+00
   0.000000000000000E+00   0.000000000000000E+00   0.000000000000000E+00
   0.000000000000000E+00   0.000000000000000E+00   0.000000000000000E+00
   0.000000000000000E+00   0.000000000000000E+00   0.000000000000000E+00
   0.000000000000000E+00   0.000000000000000E+00   0.000000000000000E+00
   0.000000000000000E+00   0.000000000000000E+00   0.000000000000000E+00
   0.000000000000000E+00   0.000000000000000E+00   0.000000000000000E+00
   0.000000000000000E+00   0.000000000000000E+00   0.000000000000000E+00
   0.000000000000000E+00   0.000000000000000E+00   0.000000000000000E+00
   0.000000000000000E+00   0.000000000000000E+00   0.000000000000000E+00
   0.000000000000000E+00   0.000000000000000E+00   0.000000000000000E+00
   0.000000000000000E+00   0.000000000000000E+00   0.000000000000000E+00
   0.000000000000000E+00   0.000000000000000E+00   0.000000000000000E+00
   0.000000000000000E+00   0.000000000000000E+00   0.000000000000000E+00
   0.000000000000000E+00   0.000000000000000E+00   0.000000000000000E+00
   0.000000000000000E+00   0.000000000000000E+00   0.000000000000000E+00
   0.000000000000000E+00   0.000000000000000E+00   0.000000000000000E+00
   0.000000000000000E+00   0.000000000000000E+00   0.000000000000000E+00
   0.000000000000000E+00   0.000000000000000E+00   0.000000000000000E+00
   0.000000000000000E+00   0.000000000000000E+00   0.000000000000000E+00
   0.000000000000000E+00   0.000000000000000E+00   0.000000000000000E+00
   0.000000000000000E+00   0.000000000000000E+00   0.000000000000000E+00
   0.000000000000000E+00   0.000000000000000E+00   0.000000000000000E+00
   0.000000000000000E+00   0.000000000000000E+00   0.000000000000000E+00
   0.000000000000000E+00   0.000000000000000E+00   0.000000000000000E+00
   0.000000000000000E+00   0.000000000000000E+00
      </PP_QIJL.2.4.1>
      <PP_QIJL.3.3.0 first_index="3" second_index="3" composite_index="6" angular_momentum="0" size="1085">
   1.370596129649864E-08   1.405292937874542E-08   1.440868100084412E-08
   1.477343851921759E-08   1.514742991927113E-08   1.553088895789082E-08
   1.592405530954946E-08   1.632717471611126E-08   1.674049914042853E-08
   1.716428692382719E-08   1.759880294757852E-08   1.804431879845896E-08
   1.850111293850099E-08   1.896947087904121E-08   1.944968535917474E-08
   1.994205652872671E-08   2.044689213585627E-08   2.096450771940948E-08
   2.149522680614173E-08   2.203938111293312E-08   2.259731075412244E-08
   2.316936445409032E-08   2.375589976522383E-08   2.435728329139875E-08
   2.497389091711970E-08   2.560610804246040E-08   2.625432982395211E-08
   2.691896142156990E-08   2.760041825197135E-08   2.829912624814641E-08
   2.901552212563983E-08   2.975005365551353E-08   3.050317994421879E-08
   3.127537172055359E-08   3.206711162988444E-08   3.287889453581613E-08
   3.371122782949868E-08   3.456463174676442E-08   3.543963969329322E-08
   3.633679857800980E-08   3.725666915492050E-08   3.819982637360413E-08
   3.916685973857565E-08   4.015837367774674E-08   4.117498792021482E-08
   4.221733788361498E-08   4.328607507127845E-08   4.438186747944519E-08
   4.550540001478490E-08   4.665737492248800E-08   4.783851222519349E-08
   4.904955017302874E-08   5.029124570504197E-08   5.156437492231592E-08
   5.286973357305914E-08   5.420813754997645E-08   5.558042340023146E-08
   5.698744884831833E-08   5.843009333217054E-08   5.990925855284151E-08
   6.142586903809984E-08   6.298087272029295E-08   6.457524152883926E-08
   6.620997199771918E-08   6.788608588834573E-08   6.960463082820236E-08
   7.136668096564865E-08   7.317333764130269E-08   7.502573007641955E-08
   7.692501607869668E-08   7.887238276594619E-08   8.086904730808803E-08
   8.291625768792671E-08   8.501529348118706E-08   8.716746665629791E-08
   8.937412239442095E-08   9.163663993024050E-08   9.395643341403747E-08
   9.633495279558716E-08   9.877368473043399E-08   1.012741535091074E-07
   1.038379220098628E-07   1.064665926755411E-07   1.091618085151576E-07
   1.119252541308473E-07   1.147586567708066E-07   1.176637874088917E-07
   1.206424618515477E-07   1.236965418727594E-07   1.268279363777349E-07
   1.300386025960472E-07   1.333305473049821E-07   1.367058280838551E-07
   1.401665546000822E-07   1.437148899278089E-07   1.473530518999195E-07
   1.510833144942753E-07   1.549080092550445E-07   1.588295267500149E-07
   1.628503180648006E-07   1.669728963348719E-07   1.711998383163730E-07
   1.755337859967050E-07   1.799774482458806E-07   1.845336025096874E-07
   1.892050965457095E-07   1.939948502033029E-07   1.989058572486296E-07
   2.039411872358941E-07   2.091039874259532E-07   2.143974847534941E-07
   2.198249878440161E-07   2.253898890818719E-07   2.310956667306645E-07
   2.369458871073231E-07   2.429442068112172E-07   2.490943750097031E-07
   2.554002357815318E-07   2.618657305195819E-07   2.684949003944203E-07
   2.752918888802286E-07   2.822609443446793E-07   2.894064227043739E-07
   2.967327901475082E-07   3.042446259254663E-07   3.119466252150815E-07
   3.198436020533641E-07   3.279404923465227E-07   3.362423569551626E-07
   3.447543848575915E-07   3.534818963932037E-07   3.624303465879798E-07
   3.716053285641724E-07   3.810125770363132E-07   3.906579718957303E-07
   4.005475418858028E-07   4.106874683702694E-07   4.210840891969337E-07
   4.317439026591809E-07   4.426735715577969E-07   4.538799273656038E-07
   4.653699744975432E-07   4.771508946888552E-07   4.892300514841022E-07
   5.016149948398408E-07   5.143134658438114E-07   5.273334015536122E-07
   5.406829399578655E-07   5.543704250629891E-07   5.684044121087492E-07
   5.827936729158504E-07   5.975472013689170E-07   6.126742190382826E-07
   6.281841809441092E-07   6.440867814664398E-07   6.603919604048685E-07
   6.771099091916337E-07   6.942510772620071E-07   7.118261785859601E-07
   7.298461983652062E-07   7.483223998997783E-07   7.672663316284673E-07
   7.866898343474989E-07   8.066050486119689E-07   8.270244223246823E-07
   8.479607185170886E-07   8.694270233272642E-07   8.914367541798325E-07
   9.140036681730129E-07   9.371418706780114E-07   9.608658241561074E-07
   9.851903571990121E-07   1.010130673798080E-06   1.035702362848214E-06
   1.061921407892407E-06   1.088804197112968E-06   1.116367533575760E-06
   1.144628645733760E-06   1.173605198196590E-06   1.203315302772712E-06
   1.233777529791182E-06   1.265010919710100E-06   1.297034995018934E-06
   1.329869772442227E-06   1.363535775452302E-06   1.398054047098740E-06
   1.433446163162759E-06   1.469734245644603E-06   1.506940976592453E-06
   1.545089612281505E-06   1.584203997752001E-06   1.624308581715458E-06
   1.665428431838236E-06   1.707589250412156E-06   1.750817390421891E-06
   1.795139872019168E-06   1.840584399414163E-06   1.887179378194557E-06
   1.934953933083151E-06   1.983937926145147E-06   2.034161975456406E-06
   2.085657474244502E-06   2.138456610514376E-06   2.192592387171018E-06
   2.248098642651670E-06   2.305010072080461E-06   2.363362248958802E-06
   2.423191647404958E-06   2.484535664956847E-06   2.547432645952276E-06
   2.611921905501173E-06   2.678043754065002E-06   2.745839522658503E-06
   2.815351588689700E-06   2.886623402454304E-06   2.959699514300977E-06
   3.034625602484694E-06   3.111448501725345E-06   3.190216232489665E-06
   3.270978031014752E-06   3.353784380091861E-06   3.438687040629961E-06
   3.525739084018543E-06   3.614994925310142E-06   3.706510357243282E-06
   3.800342585126994E-06   3.896550262609070E-06   3.995193528350051E-06
   4.096334043626188E-06   4.200035030884854E-06   4.306361313276365E-06
   4.415379355187334E-06   4.527157303800449E-06   4.641765031707150E-06
   4.759274180599604E-06   4.879758206069350E-06   5.003292423540932E-06
   5.129954055368840E-06   5.259822279127656E-06   5.392978277125485E-06
   5.529505287171527E-06   5.669488654630000E-06   5.813015885792495E-06
   5.960176702602631E-06   6.111063098767076E-06   6.265769397288087E-06
   6.424392309453715E-06   6.587030995322519E-06   6.753787125740761E-06
   6.924764945930961E-06   7.100071340691517E-06   7.279815901248472E-06
   7.464110993801110E-06   7.653071829804474E-06   7.846816538032853E-06
   8.045466238469302E-06   8.249145118067718E-06   8.457980508434689E-06
   8.672102965480127E-06   8.891646351086429E-06   9.116747916847390E-06
   9.347548389929531E-06   9.584192061109480E-06   9.826826875042834E-06
   1.007560452282101E-05   1.033068053687413E-05   1.059221438827964E-05
   1.086036958653749E-05   1.113531378187467E-05   1.141721887014336E-05
   1.170626110037824E-05   1.200262118508079E-05   1.230648441329973E-05
   1.261804076657841E-05   1.293748503784238E-05   1.326501695330124E-05
   1.360084129744190E-05   1.394516804119138E-05   1.429821247332981E-05
   1.466019533523628E-05   1.503134295905198E-05   1.541188740934779E-05
   1.580206662838506E-05   1.620212458506116E-05   1.661231142763329E-05
   1.703288364031656E-05   1.746410420385515E-05   1.790624276016706E-05
   1.835957578116650E-05   1.882438674186998E-05   1.930096629789481E-05
   1.978961246746235E-05   2.029063081801984E-05   2.080433465759895E-05
   2.133104523103138E-05   2.187109192114482E-05   2.242481245506664E-05
   2.299255311576463E-05   2.357466895895882E-05   2.417152403554064E-05
   2.478349161963978E-05   2.541095444248285E-05   2.605430493219107E-05
   2.671394545966846E-05   2.739028859073586E-05   2.808375734466955E-05
   2.879478545930833E-05   2.952381766289592E-05   3.027130995283087E-05
   3.103772988150011E-05   3.182355684937639E-05   3.262928240556579E-05
   3.345541055599432E-05   3.430245807942977E-05   3.517095485153798E-05
   3.606144417717889E-05   3.697448313115330E-05   3.791064290761531E-05
   3.887050917837275E-05   3.985468246030248E-05   4.086377849211305E-05
   4.189842862069465E-05   4.295928019730071E-05   4.404699698381330E-05
   4.516225956934992E-05   4.630576579747695E-05   4.747823120430022E-05
   4.868038946771271E-05   4.991299286808420E-05   5.117681276068627E-05
   5.247264006015395E-05   5.380128573729143E-05   5.516358132854022E-05
   5.656037945843302E-05   5.799255437536736E-05   5.946100250104147E-05
   6.096664299390128E-05   6.251041832696147E-05   6.409329488036718E-05
   6.571626354907749E-05   6.738034036605841E-05   6.908656714138433E-05
   7.083601211765845E-05   7.262977064217182E-05   7.446896585623145E-05
   7.635474940210224E-05   7.828830214801327E-05   8.027083493169830E-05
   8.230358932294616E-05   8.438783840565263E-05   8.652488757987859E-05
   8.871607538442854E-05   9.096277434048370E-05   9.326639181683223E-05
   9.562837091725532E-05   9.805019139064483E-05   1.005333705644384E-04
   1.030794643019802E-04   1.056900679844247E-04   1.083668175178223E-04
   1.111113903660413E-04   1.139255066101938E-04   1.168109300352610E-04
   1.197694692446190E-04   1.228029788031966E-04   1.259133604100082E-04
   1.291025641008273E-04   1.323725894817895E-04   1.357254869947305E-04
   1.391633592150871E-04   1.426883621832166E-04   1.463027067700027E-04
   1.500086600776527E-04   1.538085468766021E-04   1.577047510794769E-04
   1.616997172530866E-04   1.657959521694424E-04   1.699960263968325E-04
   1.743025759320056E-04   1.787183038745428E-04   1.832459821445372E-04
   1.878884532447132E-04   1.926486320681697E-04   1.975295077529469E-04
   2.025341455846568E-04   2.076656889484505E-04   2.129273613316334E-04
   2.183224683782641E-04   2.238543999971304E-04   2.295266325245091E-04
   2.353427309431783E-04   2.413063511591772E-04   2.474212423378513E-04
   2.536912493007749E-04   2.601203149851706E-04   2.667124829675057E-04
   2.734719000529838E-04   2.804028189326961E-04   2.875096009102610E-04
   2.947967186998114E-04   3.022687592972597E-04   3.099304269268144E-04
   3.177865460647796E-04   3.258420645427355E-04   3.341020567322401E-04
   3.425717268132733E-04   3.512564121286962E-04   3.601615866270565E-04
   3.692928643961659E-04   3.786560032899080E-04   3.882569086508362E-04
   3.981016371311818E-04   4.081964006149631E-04   4.185475702439826E-04
   4.291616805505620E-04   4.400454336999561E-04   4.512057038454780E-04
   4.626495415994374E-04   4.743841786231150E-04   4.864170323390621E-04
   4.987557107691257E-04   5.114080175017057E-04   5.243819567918309E-04
   5.376857387977799E-04   5.513277849580575E-04   5.653167335126599E-04
   5.796614451726887E-04   5.943710089424707E-04   6.094547480985002E-04
   6.249222263296187E-04   6.407832540429963E-04   6.570478948406218E-04
   6.737264721711233E-04   6.908295761619336E-04   7.083680706369206E-04
   7.263531003247887E-04   7.447960982637162E-04   7.637087934078313E-04
   7.831032184413603E-04   8.029917178063977E-04   8.233869559504679E-04
   8.443019258002440E-04   8.657499574679380E-04   8.877447271971535E-04
   9.103002665551334E-04   9.334309718785855E-04   9.571516139805034E-04
   9.814773481255730E-04   1.006423724282080E-03   1.032006697658408E-03
   1.058242639532486E-03   1.085148348382862E-03   1.112741061330234E-03
   1.141038465898687E-03   1.170058712106074E-03   1.199820424893310E-03
   1.230342716902657E-03   1.261645201615394E-03   1.293748006859599E-03
   1.326671788699090E-03   1.360437745714929E-03   1.395067633691286E-03
   1.430583780717744E-03   1.467009102720615E-03   1.504367119436168E-03
   1.542681970839066E-03   1.581978434039785E-03   1.622281940665140E-03
   1.663618594736585E-03   1.706015191061314E-03   1.749499234151729E-03
   1.794098957689297E-03   1.839843344549296E-03   1.886762147403535E-03
   1.934885909918573E-03   1.984245988567548E-03   2.034874575074304E-03
   2.086804719508994E-03   2.140070354055038E-03   2.194706317467805E-03
   2.250748380246074E-03   2.308233270537943E-03   2.367198700803446E-03
   2.427683395256920E-03   2.489727118112684E-03   2.553370702658405E-03
   2.618656081181189E-03   2.685626315772056E-03   2.754325630035392E-03
   2.824799441730490E-03   2.897094396373184E-03   2.971258401826301E-03
   3.047340663908384E-03   3.125391723051019E-03   3.205463492035759E-03
   3.287609294842558E-03   3.371883906642312E-03   3.458343594966942E-03
   3.547046162091312E-03   3.638050988661966E-03   3.731419078608499E-03
   3.827213105374228E-03   3.925497459503402E-03   4.026338297623206E-03
   4.129803592859347E-03   4.235963186724751E-03   4.344888842521702E-03
   4.456654300298174E-03   4.571335333399994E-03   4.689009806660751E-03
   4.809757736272112E-03   4.933661351377455E-03   5.060805157432171E-03
   5.191276001374413E-03   5.325163138649973E-03   5.462558302135388E-03
   5.603555773003170E-03   5.748252453572886E-03   5.896747942191761E-03
   6.049144610187806E-03   6.205547680937977E-03   6.366065311093095E-03
   6.530808674000129E-03   6.699892045361455E-03   6.873432891168905E-03
   7.051551957948923E-03   7.234373365352971E-03   7.422024701124783E-03
   7.614637118473697E-03   7.812345435879680E-03   8.015288239352446E-03
   8.223607987162715E-03   8.437451117059338E-03   8.656968155980837E-03
   8.882313832263981E-03   9.113647190346094E-03   9.351131707950251E-03
   9.594935415734911E-03   9.845231019381116E-03   1.010219602408029E-02
   1.036601286137583E-02   1.063686901829957E-02   1.091495716873199E-02
   1.120047530690105E-02   1.149362688291948E-02   1.179462094024363E-02
   1.210367225491960E-02   1.242100147646194E-02   1.274683527018993E-02
   1.308140646082267E-02   1.342495417710943E-02   1.377772399724474E-02
   1.413996809478810E-02   1.451194538477687E-02   1.489392166968637E-02
   1.528616978485439E-02   1.568896974294797E-02   1.610260887700651E-02
   1.652738198155060E-02   1.696359145119540E-02   1.741154741615479E-02
   1.787156787396580E-02   1.834397881670104E-02   1.882911435287295E-02
   1.932731682316257E-02   1.983893690903149E-02   2.036433373319692E-02
   2.090387495086305E-02   2.145793683051402E-02   2.202690432297562E-02
   2.261117111735186E-02   2.321113968233399E-02   2.382722129126399E-02
   2.445983602921363E-02   2.510941278021052E-02   2.577638919260692E-02
   2.646121162044329E-02   2.716433503850638E-02   2.788622292862373E-02
   2.862734713456718E-02   2.938818768276334E-02   3.016923256582442E-02
   3.097097748571953E-02   3.179392555320652E-02   3.263858693993396E-02
   3.350547847940495E-02   3.439512321276891E-02   3.530804987517185E-02
   3.624479231815611E-02   3.720588886334963E-02   3.819188158243016E-02
   3.920331549808870E-02   4.024073770044859E-02   4.130469637312857E-02
   4.239573972286212E-02   4.351441480631245E-02   4.466126624744749E-02
   4.583683483856561E-02   4.704165601779681E-02   4.827625821564058E-02
   4.954116106285012E-02   5.083687345173409E-02   5.216389144272184E-02
   5.352269600783767E-02   5.491375060254808E-02   5.633749855729922E-02
   5.779436027994619E-02   5.928473026020135E-02   6.080897386720598E-02
   6.236742393135403E-02   6.396037710159094E-02   6.558808996957159E-02
   6.725077495230238E-02   6.894859592523028E-02   7.068166359817175E-02
   7.245003062702550E-02   7.425368645488763E-02   7.609255187699851E-02
   7.796647332492360E-02   7.987521686650245E-02   8.181846191942581E-02
   8.379579467782450E-02   8.580670125299723E-02   8.785056053139187E-02
   8.992663675519191E-02   9.203407183338237E-02   9.417187739398473E-02
   9.633892659128483E-02   9.853394568535555E-02   1.007555054150040E-01
   1.030020121894890E-01   1.052716991289622E-01   1.075626169886129E-01
   1.098726250069544E-01   1.121993817245935E-01   1.145403358261853E-01
   1.168927170651057E-01   1.192535273376630E-01   1.216195319814439E-01
   1.239872513806054E-01   1.263529529696000E-01   1.287126437359193E-01
   1.310620633319247E-01   1.333966779156845E-01   1.357116748508615E-01
   1.380019584060688E-01   1.402621466046225E-01   1.424865693861620E-01
   1.446692682521072E-01   1.468039975771608E-01   1.488842277789609E-01
   1.509031505472984E-01   1.528536863428300E-01   1.547284943827294E-01
   1.565199853368960E-01   1.582203369629245E-01   1.598215129106606E-01
   1.613152849274420E-01   1.626932586926786E-01   1.639469035047496E-01
   1.650675860338577E-01   1.660466083409321E-01   1.668752503443511E-01
   1.675448168926096E-01   1.680466895714405E-01   1.683723833377060E-01
   1.685136080289567E-01   1.684623347462653E-01   1.682108670481467E-01
   1.677519168244635E-01   1.670786846406137E-01   1.661849442534916E-01
   1.650651309012778E-01   1.637144328587216E-01   1.621288856280627E-01
   1.603054680030729E-01   1.582421991000950E-01   1.559382352958872E-01
   1.533939658482526E-01   1.506111058030167E-01   1.475927846113398E-01
   1.443436286966090E-01   1.408698360227229E-01   1.371792405284191E-01
   1.332813641091592E-01   1.291874536532009E-01   1.249105004769733E-01
   1.204652393625512E-01   1.158681242834488E-01   1.111372778216792E-01
   1.062924112371846E-01   1.013547121594684E-01   9.634669694034668E-02
   9.129202484656956E-02   8.621527149276406E-02   8.114165922997926E-02
   7.609674262467353E-02   7.110604769868739E-02   6.619466426344864E-02
   6.138679148156352E-02   5.670523773460402E-02   5.217087697414558E-02
   4.780206498810952E-02   4.361402042694775E-02   3.961817700102241E-02
   3.582151497322018E-02   3.222588191522222E-02   2.882731465073066E-02
   2.561537634518328E-02   2.257775998742717E-02   1.971767580010664E-02
   1.704176517519718E-02   1.455531532203158E-02   1.226217400753959E-02
   1.016467613317817E-02   8.263584081941944E-03   6.558043766746513E-03
   5.045558283034879E-03   3.721981012303477E-03   2.581529938595950E-03
   1.616824826605634E-03   8.189487682574992E-04   1.775354355625369E-04
  -3.191168172325121E-04  -6.839030773762023E-04  -9.307415373671635E-04
  -1.074374269730893E-03  -1.130138955606208E-03  -1.113711694149089E-03
  -1.040821314713503E-03  -9.269359189745252E-04  -7.869226972256893E-04
  -6.346823961209669E-04  -4.827601715701180E-04  -3.419349519047099E-04
  -2.207898789032825E-04  -1.252669093733116E-04  -5.820927486555050E-05
  -1.889624452078298E-05  -2.575554538086777E-06   2.220446049250313E-16
   0.000000000000000E+00   0.000000000000000E+00   0.000000000000000E+00
   0.000000000000000E+00   0.000000000000000E+00   0.000000000000000E+00
   0.000000000000000E+00   0.000000000000000E+00   0.000000000000000E+00
   0.000000000000000E+00   0.000000000000000E+00   0.000000000000000E+00
   0.000000000000000E+00   0.000000000000000E+00   0.000000000000000E+00
   0.000000000000000E+00   0.000000000000000E+00   0.000000000000000E+00
   0.000000000000000E+00   0.000000000000000E+00   0.000000000000000E+00
   0.000000000000000E+00   0.000000000000000E+00   0.000000000000000E+00
   0.000000000000000E+00   0.000000000000000E+00   0.000000000000000E+00
   0.000000000000000E+00   0.000000000000000E+00   0.000000000000000E+00
   0.000000000000000E+00   0.000000000000000E+00   0.000000000000000E+00
   0.000000000000000E+00   0.000000000000000E+00   0.000000000000000E+00
   0.000000000000000E+00   0.000000000000000E+00   0.000000000000000E+00
   0.000000000000000E+00   0.000000000000000E+00   0.000000000000000E+00
   0.000000000000000E+00   0.000000000000000E+00   0.000000000000000E+00
   0.000000000000000E+00   0.000000000000000E+00   0.000000000000000E+00
   0.000000000000000E+00   0.000000000000000E+00   0.000000000000000E+00
   0.000000000000000E+00   0.000000000000000E+00   0.000000000000000E+00
   0.000000000000000E+00   0.000000000000000E+00   0.000000000000000E+00
   0.000000000000000E+00   0.000000000000000E+00   0.000000000000000E+00
   0.000000000000000E+00   0.000000000000000E+00   0.000000000000000E+00
   0.000000000000000E+00   0.000000000000000E+00   0.000000000000000E+00
   0.000000000000000E+00   0.000000000000000E+00   0.000000000000000E+00
   0.000000000000000E+00   0.000000000000000E+00   0.000000000000000E+00
   0.000000000000000E+00   0.000000000000000E+00   0.000000000000000E+00
   0.000000000000000E+00   0.000000000000000E+00   0.000000000000000E+00
   0.000000000000000E+00   0.000000000000000E+00   0.000000000000000E+00
   0.000000000000000E+00   0.000000000000000E+00   0.000000000000000E+00
   0.000000000000000E+00   0.000000000000000E+00   0.000000000000000E+00
   0.000000000000000E+00   0.000000000000000E+00   0.000000000000000E+00
   0.000000000000000E+00   0.000000000000000E+00   0.000000000000000E+00
   0.000000000000000E+00   0.000000000000000E+00   0.000000000000000E+00
   0.000000000000000E+00   0.000000000000000E+00   0.000000000000000E+00
   0.000000000000000E+00   0.000000000000000E+00   0.000000000000000E+00
   0.000000000000000E+00   0.000000000000000E+00   0.000000000000000E+00
   0.000000000000000E+00   0.000000000000000E+00   0.000000000000000E+00
   0.000000000000000E+00   0.000000000000000E+00   0.000000000000000E+00
   0.000000000000000E+00   0.000000000000000E+00   0.000000000000000E+00
   0.000000000000000E+00   0.000000000000000E+00   0.000000000000000E+00
   0.000000000000000E+00   0.000000000000000E+00   0.000000000000000E+00
   0.000000000000000E+00   0.000000000000000E+00   0.000000000000000E+00
   0.000000000000000E+00   0.000000000000000E+00   0.000000000000000E+00
   0.000000000000000E+00   0.000000000000000E+00   0.000000000000000E+00
   0.000000000000000E+00   0.000000000000000E+00   0.000000000000000E+00
   0.000000000000000E+00   0.000000000000000E+00   0.000000000000000E+00
   0.000000000000000E+00   0.000000000000000E+00   0.000000000000000E+00
   0.000000000000000E+00   0.000000000000000E+00   0.000000000000000E+00
   0.000000000000000E+00   0.000000000000000E+00   0.000000000000000E+00
   0.000000000000000E+00   0.000000000000000E+00   0.000000000000000E+00
   0.000000000000000E+00   0.000000000000000E+00   0.000000000000000E+00
   0.000000000000000E+00   0.000000000000000E+00   0.000000000000000E+00
   0.000000000000000E+00   0.000000000000000E+00   0.000000000000000E+00
   0.000000000000000E+00   0.000000000000000E+00   0.000000000000000E+00
   0.000000000000000E+00   0.000000000000000E+00   0.000000000000000E+00
   0.000000000000000E+00   0.000000000000000E+00   0.000000000000000E+00
   0.000000000000000E+00   0.000000000000000E+00   0.000000000000000E+00
   0.000000000000000E+00   0.000000000000000E+00   0.000000000000000E+00
   0.000000000000000E+00   0.000000000000000E+00   0.000000000000000E+00
   0.000000000000000E+00   0.000000000000000E+00   0.000000000000000E+00
   0.000000000000000E+00   0.000000000000000E+00   0.000000000000000E+00
   0.000000000000000E+00   0.000000000000000E+00   0.000000000000000E+00
   0.000000000000000E+00   0.000000000000000E+00   0.000000000000000E+00
   0.000000000000000E+00   0.000000000000000E+00   0.000000000000000E+00
   0.000000000000000E+00   0.000000000000000E+00   0.000000000000000E+00
   0.000000000000000E+00   0.000000000000000E+00   0.000000000000000E+00
   0.000000000000000E+00   0.000000000000000E+00   0.000000000000000E+00
   0.000000000000000E+00   0.000000000000000E+00   0.000000000000000E+00
   0.000000000000000E+00   0.000000000000000E+00   0.000000000000000E+00
   0.000000000000000E+00   0.000000000000000E+00   0.000000000000000E+00
   0.000000000000000E+00   0.000000000000000E+00   0.000000000000000E+00
   0.000000000000000E+00   0.000000000000000E+00   0.000000000000000E+00
   0.000000000000000E+00   0.000000000000000E+00   0.000000000000000E+00
   0.000000000000000E+00   0.000000000000000E+00   0.000000000000000E+00
   0.000000000000000E+00   0.000000000000000E+00   0.000000000000000E+00
   0.000000000000000E+00   0.000000000000000E+00   0.000000000000000E+00
   0.000000000000000E+00   0.000000000000000E+00   0.000000000000000E+00
   0.000000000000000E+00   0.000000000000000E+00   0.000000000000000E+00
   0.000000000000000E+00   0.000000000000000E+00   0.000000000000000E+00
   0.000000000000000E+00   0.000000000000000E+00   0.000000000000000E+00
   0.000000000000000E+00   0.000000000000000E+00   0.000000000000000E+00
   0.000000000000000E+00   0.000000000000000E+00   0.000000000000000E+00
   0.000000000000000E+00   0.000000000000000E+00   0.000000000000000E+00
   0.000000000000000E+00   0.000000000000000E+00   0.000000000000000E+00
   0.000000000000000E+00   0.000000000000000E+00   0.000000000000000E+00
   0.000000000000000E+00   0.000000000000000E+00   0.000000000000000E+00
   0.000000000000000E+00   0.000000000000000E+00   0.000000000000000E+00
   0.000000000000000E+00   0.000000000000000E+00   0.000000000000000E+00
   0.000000000000000E+00   0.000000000000000E+00   0.000000000000000E+00
   0.000000000000000E+00   0.000000000000000E+00   0.000000000000000E+00
   0.000000000000000E+00   0.000000000000000E+00   0.000000000000000E+00
   0.000000000000000E+00   0.000000000000000E+00   0.000000000000000E+00
   0.000000000000000E+00   0.000000000000000E+00   0.000000000000000E+00
   0.000000000000000E+00   0.000000000000000E+00   0.000000000000000E+00
   0.000000000000000E+00   0.000000000000000E+00   0.000000000000000E+00
   0.000000000000000E+00   0.000000000000000E+00   0.000000000000000E+00
   0.000000000000000E+00   0.000000000000000E+00   0.000000000000000E+00
   0.000000000000000E+00   0.000000000000000E+00   0.000000000000000E+00
   0.000000000000000E+00   0.000000000000000E+00   0.000000000000000E+00
   0.000000000000000E+00   0.000000000000000E+00   0.000000000000000E+00
   0.000000000000000E+00   0.000000000000000E+00   0.000000000000000E+00
   0.000000000000000E+00   0.000000000000000E+00   0.000000000000000E+00
   0.000000000000000E+00   0.000000000000000E+00   0.000000000000000E+00
   0.000000000000000E+00   0.000000000000000E+00   0.000000000000000E+00
   0.000000000000000E+00   0.000000000000000E+00   0.000000000000000E+00
   0.000000000000000E+00   0.000000000000000E+00   0.000000000000000E+00
   0.000000000000000E+00   0.000000000000000E+00   0.000000000000000E+00
   0.000000000000000E+00   0.000000000000000E+00   0.000000000000000E+00
   0.000000000000000E+00   0.000000000000000E+00   0.000000000000000E+00
   0.000000000000000E+00   0.000000000000000E+00   0.000000000000000E+00
   0.000000000000000E+00   0.000000000000000E+00   0.000000000000000E+00
   0.000000000000000E+00   0.000000000000000E+00   0.000000000000000E+00
   0.000000000000000E+00   0.000000000000000E+00   0.000000000000000E+00
   0.000000000000000E+00   0.000000000000000E+00   0.000000000000000E+00
   0.000000000000000E+00   0.000000000000000E+00   0.000000000000000E+00
   0.000000000000000E+00   0.000000000000000E+00
      </PP_QIJL.3.3.0>
      <PP_QIJL.3.3.2 first_index="3" second_index="3" composite_index="6" angular_momentum="2" size="1085">
   3.280449221501457E-15   3.448641441189302E-15   3.625457059720100E-15
   3.811338208155417E-15   4.006749686097111E-15   4.212180123927848E-15
   4.428143204641079E-15   4.655178948315499E-15   4.893855062445846E-15
   5.144768361506750E-15   5.408546259298941E-15   5.685848337809807E-15
   5.977367996511061E-15   6.283834186217639E-15   6.606013231843546E-15
   6.944710748612045E-15   7.300773656512314E-15   7.675092298039260E-15
   8.068602664512134E-15   8.482288736539050E-15   8.917184944479275E-15
   9.374378755056378E-15   9.855013390589612E-15   1.036029068764321E-14
   1.089147410224181E-14   1.144989186916613E-14   1.203694032322947E-14
   1.265408739083937E-14   1.330287626057533E-14   1.398492924196115E-14
   1.470195182208021E-14   1.545573693017816E-14   1.624816942091590E-14
   1.708123078748397E-14   1.795700411636325E-14   1.887767929612111E-14
   1.984555849326843E-14   2.086306190886947E-14   2.193273383029892E-14
   2.305724899327948E-14   2.423941927010678E-14   2.548220070078763E-14
   2.678870088467142E-14   2.816218675105832E-14   2.960609272821510E-14
   3.112402933122392E-14   3.271979219014001E-14   3.439737154103187E-14
   3.616096220363711E-14   3.801497407058315E-14   3.996404313440050E-14
   4.201304307990320E-14   4.416709747092207E-14   4.643159256186410E-14
   4.881219076613489E-14   5.131484481509878E-14   5.394581264298524E-14
   5.671167303495877E-14   5.961934207748136E-14   6.267609045210246E-14
   6.588956161591748E-14   6.926779091415865E-14   7.281922567270660E-14
   7.655274632076556E-14   8.047768859652056E-14   8.460386689129813E-14
   8.894159879060840E-14   9.350173087342971E-14   9.829566583424801E-14
   1.033353909956718E-13   1.086335082829144E-13   1.142032657350999E-13
   1.200585906321843E-13   1.262141243203256E-13   1.326852588227875E-13
   1.394881753279152E-13   1.466398846504319E-13   1.541582697672229E-13
   1.620621305339712E-13   1.703712306944595E-13   1.791063473000806E-13
   1.882893226631378E-13   1.979431189738386E-13   2.080918757175529E-13
   2.187609700359129E-13   2.299770801826756E-13   2.417682522330354E-13
   2.541639702131808E-13   2.671952298254597E-13   2.808946159535066E-13
   2.952963841411209E-13   3.104365462486494E-13   3.263529605010488E-13
   3.430854261527912E-13   3.606757830063326E-13   3.791680160329703E-13
   3.986083653577197E-13   4.190454418832036E-13   4.405303488416852E-13
   4.631168095791867E-13   4.868613018911944E-13   5.118231992458919E-13
   5.380649192480191E-13   5.656520797146027E-13   5.946536627528318E-13
   6.251421872503261E-13   6.571938902091419E-13   6.908889173769192E-13
   7.263115236518405E-13   7.635502837625314E-13   8.026983137496647E-13
   8.438535038031312E-13   8.871187630369437E-13   9.326022768139515E-13
   9.804177772637935E-13   1.030684827670509E-12   1.083529121440924E-12
   1.139082796401389E-12   1.197484765208718E-12   1.258881062701572E-12
   1.323425211060776E-12   1.391278603691686E-12   1.462610908788479E-12
   1.537600493589455E-12   1.616434870384243E-12   1.699311165388034E-12
   1.786436611655377E-12   1.878029067265960E-12   1.974317560078122E-12
   2.075542860412242E-12   2.181958083095929E-12   2.293829320376482E-12
   2.411436307283128E-12   2.535073121102791E-12   2.665048916718422E-12
   2.801688699648447E-12   2.945334138720486E-12   3.096344420411238E-12
   3.255097146988812E-12   3.421989280703360E-12   3.597438136386681E-12
   3.781882424943046E-12   3.975783350340190E-12   4.179625762843551E-12
   4.393919371377384E-12   4.619200018044006E-12   4.856031017988305E-12
   5.105004567957526E-12   5.366743227078438E-12   5.641901473554556E-12
   5.931167341175565E-12   6.235264139731261E-12   6.554952263631504E-12
   6.891031093254651E-12   7.244340993778658E-12   7.615765416492486E-12
   8.006233107842422E-12   8.416720431736508E-12   8.848253810913804E-12
   9.301912293483221E-12   9.778830251048720E-12   1.028020021516799E-11
   1.080727585923630E-11   1.136137513325167E-11   1.194388355929978E-11
   1.255625769599753E-11   1.320002878055963E-11   1.387680655759248E-11
   1.458828330419068E-11   1.533623806139956E-11   1.612254108262352E-11
   1.694915851010437E-11   1.781815729116064E-11   1.873171034648171E-11
   1.969210200339895E-11   2.070173370771786E-11   2.176313002839546E-11
   2.287894497007312E-11   2.405196860925133E-11   2.528513407069785E-11
   2.658152486153146E-11   2.794438258132211E-11   2.937711502748084E-11
   3.088330471620948E-11   3.246671784031297E-11   3.413131368627098E-11
   3.588125453411771E-11   3.772091606487771E-11   3.965489830158302E-11
   4.168803711122654E-11   4.382541629640660E-11   4.607238030690164E-11
   4.843454760294915E-11   5.091782470364715E-11   5.352842095560019E-11
   5.627286405873259E-11   5.915801638809375E-11   6.219109215245538E-11
   6.537967543260766E-11   6.873173914445216E-11   7.225566497429843E-11
   7.596026433621655E-11   7.985480040383122E-11   8.394901127164979E-11
   8.825313430382892E-11   9.277793173125068E-11   9.753471756091656E-11
   1.025353858649223E-10   1.077924405197517E-10   1.133190264702364E-10
   1.191289625963408E-10   1.252367762649563E-10   1.316577396530695E-10
   1.384079079331296E-10   1.455041594160778E-10   1.529642377523885E-10
   1.608067962966499E-10   1.690514447465691E-10   1.777187981730223E-10
   1.868305285637195E-10   1.964094190093311E-10   2.064794206675685E-10
   2.170657126475933E-10   2.281947649644912E-10   2.398944047211863E-10
   2.521938856832260E-10   2.651239614204110E-10   2.787169621980679E-10
   2.930068758102173E-10   3.080294325567075E-10   3.238221945767136E-10
   3.404246497619768E-10   3.578783104844853E-10   3.762268173854504E-10
   3.955160484850031E-10   4.157942338853457E-10   4.371120763541375E-10
   4.595228780894720E-10   4.830826739833791E-10   5.078503717169447E-10
   5.338878990372182E-10   5.612603585841094E-10   5.900361906542023E-10
   6.202873443083960E-10   6.520894572510433E-10   6.855220449301913E-10
   7.206686993316168E-10   7.576172979635104E-10   7.964602235541810E-10
   8.372945950119079E-10   8.802225102241771E-10   9.253513013031983E-10
   9.727938029156047E-10   1.022668634367025E-09   1.075100496146522E-09
   1.130220481672031E-09   1.188166405015977E-09   1.249083145430045E-09
   1.313123009530218E-09   1.380446112047190E-09   1.451220776093669E-09
   1.525623953948942E-09   1.603841669412169E-09   1.686069482829923E-09
   1.772512979960020E-09   1.863388285893270E-09   1.958922605317413E-09
   2.059354790473224E-09   2.164935938222038E-09   2.275930017716616E-09
   2.392614530243658E-09   2.515281202886797E-09   2.644236717743153E-09
   2.779803478661741E-09   2.922320416014781E-09   3.072143837175921E-09
   3.229648312320849E-09   3.395227613876952E-09   3.569295700977822E-09
   3.752287752287226E-09   3.944661255327459E-09   4.146897147487190E-09
   4.359501023278195E-09   4.583004390879576E-09   4.817966006569700E-09
   5.064973267954235E-09   5.324643683527460E-09   5.597626415613480E-09
   5.884603901471377E-09   6.186293561308169E-09   6.503449589393753E-09
   6.836864839118996E-09   7.187372805813497E-09   7.555849706879387E-09
   7.943216674851506E-09   8.350442056860907E-09   8.778543834186495E-09
   9.228592169300626E-09   9.701712079203790E-09   1.019908623631170E-08
   1.072195793524574E-08   1.127163422062274E-08   1.184948909084469E-08
   1.245696699676189E-08   1.309558641993181E-08   1.376694365101100E-08
   1.447271682271563E-08   1.521467007182315E-08   1.599465793608060E-08
   1.681463000912985E-08   1.767663582186398E-08   1.858282993371535E-08
   1.953547732151146E-08   2.053695906475817E-08   2.158977823650191E-08
   2.269656623149945E-08   2.386008926783734E-08   2.508325537050625E-08
   2.636912152539922E-08   2.772090145060564E-08   2.914197351720861E-08
   3.063588924908523E-08   3.220638213651688E-08   3.385737699183959E-08
   3.559299979596236E-08   3.741758792350481E-08   3.933570101100745E-08
   4.135213234131862E-08   4.347192081528734E-08   4.570036352542420E-08
   4.804302896217598E-08   5.050577098867131E-08   5.309474338934108E-08
   5.581641522174581E-08   5.867758700732693E-08   6.168540772253835E-08
   6.484739256324286E-08   6.817144187301017E-08   7.166586056986632E-08
   7.533937925173619E-08   7.920117558559004E-08   8.326089754169573E-08
   8.752868727814122E-08   9.201520662164545E-08   9.673166341457198E-08
   1.016898397364217E-07   1.069021210433700E-07   1.123815274480546E-07
   1.181417458187429E-07   1.241971640412215E-07   1.305629070277934E-07
   1.372548743223767E-07   1.442897797770977E-07   1.516851932734703E-07
   1.594595844930919E-07   1.676323689520528E-07   1.762239565323820E-07
   1.852558022681229E-07   1.947504597525411E-07   2.047316376668511E-07
   2.152242584609873E-07   2.262545207893522E-07   2.378499647194797E-07
   2.500395402850032E-07   2.628536798022909E-07   2.763243734213366E-07
   2.904852491275551E-07   3.053716562831148E-07   3.210207538608797E-07
   3.374716028005872E-07   3.547652634222055E-07   3.729448977638348E-07
   3.920558768489549E-07   4.121458936725999E-07   4.332650820733860E-07
   4.554661414131813E-07   4.788044678410098E-07   5.033382919739019E-07
   5.291288238843525E-07   5.562404054389603E-07   5.847406702821590E-07
   6.147007120825739E-07   6.461952614082850E-07   6.793028712531927E-07
   7.141061127910858E-07   7.506917803870580E-07   7.891511072820109E-07
   8.295799923559221E-07   8.720792386139924E-07   9.167548032038383E-07
   9.637180610735603E-07   1.013086081146173E-06   1.064981917422659E-06
   1.119534914055670E-06   1.176881026806563E-06   1.237163160065832E-06
   1.300531521817443E-06   1.367143995963264E-06   1.437166534001690E-06
   1.510773566698470E-06   1.588148436268137E-06   1.669483851062853E-06
   1.754982362938351E-06   1.844856869226174E-06   1.939331140044150E-06
   2.038640372275811E-06   2.143031772214709E-06   2.252765166882236E-06
   2.368113647645538E-06   2.489364245157553E-06   2.616818639639405E-06
   2.750793906647116E-06   2.891623300749879E-06   3.039657079049122E-06
   3.195263366339290E-06   3.358829064446854E-06   3.530760806983123E-06
   3.711485963159685E-06   3.901453692014466E-06   4.101136050195275E-06
   4.311029155713762E-06   4.531654410693787E-06   4.763559785675116E-06
   5.007321169202961E-06   5.263543785460030E-06   5.532863683449944E-06
   5.815949301503873E-06   6.113503110627087E-06   6.426263340966739E-06
   6.755005795142133E-06   7.100545753205650E-06   7.463739973261705E-06
   7.845488793422164E-06   8.246738338969556E-06   8.668482841109919E-06
   9.111767072020121E-06   9.577688902459297E-06   1.006740198781719E-05
   1.058211858942211E-05   1.112311253678651E-05   1.169172233898713E-05
   1.228935445217706E-05   1.291748671026894E-05   1.357767192787360E-05
   1.427154168349261E-05   1.500081029173728E-05   1.576727897438788E-05
   1.657284023973705E-05   1.741948248032874E-05   1.830929480036538E-05
   1.924447208350101E-05   2.022732031320043E-05   2.126026215801713E-05
   2.234584283426932E-05   2.348673626048388E-05   2.468575151716882E-05
   2.594583962723127E-05   2.727010067220280E-05   2.866179126138900E-05
   3.012433236990848E-05   3.166131756474068E-05   3.327652163671132E-05
   3.497390965839461E-05   3.675764648840860E-05   3.863210674354013E-05
   4.060188526140927E-05   4.267180807679376E-05   4.484694393693359E-05
   4.713261638077024E-05   4.953441640941624E-05   5.205821577650586E-05
   5.471018092671295E-05   5.749678761448071E-05   6.042483623410967E-05
   6.350146789560178E-05   6.673418128057080E-05   7.013085031570009E-05
   7.369974270153997E-05   7.744953933678476E-05   8.138935467958491E-05
   8.552875808999040E-05   8.987779619841007E-05   9.444701634772721E-05
   9.924749115886843E-05   1.042908442706849E-04   1.095892773088710E-04
   1.151555981390386E-04   1.210032504631837E-04   1.271463448196316E-04
   1.335996910504198E-04   1.403788323017838E-04   1.475000806264551E-04
   1.549805542590378E-04   1.628382166390476E-04   1.710919172585587E-04
   1.797614344146876E-04   1.888675199507023E-04   1.984319460716964E-04
   2.084775543251552E-04   2.190283068397399E-04   2.301093399184594E-04
   2.417470200870035E-04   2.539690027010692E-04   2.668042932198911E-04
   2.802833112577933E-04   2.944379575285546E-04   3.093016838018045E-04
   3.249095659946073E-04   3.412983805251384E-04   3.585066840592580E-04
   3.765748967859123E-04   3.955453893593800E-04   4.154625736527910E-04
   4.363729974697794E-04   4.583254433655825E-04   4.813710317335406E-04
   5.055633283160343E-04   5.309584563036502E-04   5.576152131888505E-04
   5.855951925462688E-04   6.149629109125616E-04   6.457859399444942E-04
   6.781350440353209E-04   7.120843235734486E-04   7.477113640295185E-04
   7.850973910597149E-04   8.243274318165000E-04   8.654904826575847E-04
   9.086796834458342E-04   9.539924986331509E-04   1.001530905320833E-03
   1.051401588488095E-03   1.103716143578647E-03   1.158591286632490E-03
   1.216149072147563E-03   1.276517118849288E-03   1.339828843542993E-03
   1.406223703214855E-03   1.475847445540568E-03   1.548852367949754E-03
   1.625397585383844E-03   1.705649306871075E-03   1.789781121027748E-03
   1.877974290577441E-03   1.970418055959792E-03   2.067309948080153E-03
   2.168856110224761E-03   2.275271629139747E-03   2.386780875241939E-03
   2.503617851894531E-03   2.626026553643857E-03   2.754261333272066E-03
   2.888587277474812E-03   3.029280590922987E-03   3.176628988413738E-03
   3.330932094754894E-03   3.492501851963085E-03   3.661662933284398E-03
   3.838753163469017E-03   4.024123944649118E-03   4.218140687077249E-03
   4.421183243886291E-03   4.633646348925207E-03   4.855940056612503E-03
   5.088490182626494E-03   5.331738744119866E-03   5.586144398006189E-03
   5.852182875713942E-03   6.130347412644112E-03   6.421149170392592E-03
   6.725117649618325E-03   7.042801091239206E-03   7.374766863432433E-03
   7.721601831694243E-03   8.083912708980354E-03   8.462326382701104E-03
   8.857490215084305E-03   9.270072313142832E-03   9.700761764194439E-03
   1.015026883257665E-02   1.061932511287999E-02   1.110868363468865E-02
   1.161911891346858E-02   1.215142694188011E-02   1.270642511541298E-02
   1.328495208585137E-02   1.388786753567055E-02   1.451605186604938E-02
   1.517040579075498E-02   1.585184982771526E-02   1.656132367964817E-02
   1.729978549466140E-02   1.806821099727566E-02   1.886759247986353E-02
   1.969893764403263E-02   2.056326828102349E-02   2.146161877974111E-02
   2.239503445059746E-02   2.336456965291936E-02   2.437128571327051E-02
   2.541624862165972E-02   2.650052649226470E-02   2.762518677499436E-02
   2.879129320395989E-02   2.999990246872367E-02   3.125206059406232E-02
   3.254879901392477E-02   3.389113032529401E-02   3.528004370779466E-02
   3.671649999512760E-02   3.820142638478332E-02   3.973571077299495E-02
   4.132019570255707E-02   4.295567191198043E-02   4.464287147548096E-02
   4.638246052454598E-02   4.817503154329408E-02   5.002109523156355E-02
   5.192107193166464E-02   5.387528261701251E-02   5.588393944346318E-02
   5.794713586711497E-02   6.006483633563550E-02   6.223686556386171E-02
   6.446289740850240E-02   6.674244336128932E-02   6.907484068487743E-02
   7.145924022121689E-02   7.389459390802157E-02   7.637964204534868E-02
   7.891290036120370E-02   8.149264693248869E-02   8.411690902552646E-02
   8.678344992881951E-02   8.948975585961608E-02   9.223302303525230E-02
   9.501014501008812E-02   9.781770038910936E-02   1.006519410399065E-01
   1.035087809356688E-01   1.063837857730164E-01   1.092721635198134E-01
   1.121687560594810E-01   1.150680321096409E-01   1.179640816040020E-01
   1.208506117371492E-01   1.237209448820796E-01   1.265680185997699E-01
   1.293843879685664E-01   1.321622304684467E-01   1.348933536610255E-01
   1.375692059102185E-01   1.401808903904306E-01   1.427191826287094E-01
   1.451745518240713E-01   1.475371861808574E-01   1.497970224830921E-01
   1.519437801229722E-01   1.539669997784607E-01   1.558560869120007E-01
   1.576003602342632E-01   1.591891052431452E-01   1.606116329085659E-01
   1.618573435276382E-01   1.629157957221388E-01   1.637767804906511E-01
   1.644304001610406E-01   1.648671520149245E-01   1.650780162744489E-01
   1.650545480530204E-01   1.647889727758158E-01   1.642742844731813E-01
   1.635043462408692E-01   1.624739920460028E-01   1.611791289374782E-01
   1.596168385951146E-01   1.577854770243719E-01   1.556847710741976E-01
   1.533159103260299E-01   1.506816327739303E-01   1.477863025911415E-01
   1.446359781592165E-01   1.412384684245630E-01   1.376033755462724E-01
   1.337421217111950E-01   1.296679579201443E-01   1.253959524959035E-01
   1.209429570324843E-01   1.163275474990095E-01   1.115699382341506E-01
   1.066918666215895E-01   1.017164463271892E-01   9.666798710825622E-02
   9.157177937836153E-02   8.645384193209948E-02   8.134063150744579E-02
   7.625871319428104E-02   7.123439109201092E-02   6.629329908356781E-02
   6.145995213520798E-02   5.675725916007845E-02   5.220599920881511E-02
   4.782426358416195E-02   4.362686743204715E-02   3.962473545388687E-02
   3.582426763052812E-02   3.222669226507621E-02   2.882741525836023E-02
   2.561537634518329E-02   2.257775998742717E-02   1.971767580010664E-02
   1.704176517519718E-02   1.455531532203158E-02   1.226217400753959E-02
   1.016467613317817E-02   8.263584081941944E-03   6.558043766746513E-03
   5.045558283034879E-03   3.721981012303477E-03   2.581529938595950E-03
   1.616824826605634E-03   8.189487682574992E-04   1.775354355625369E-04
  -3.191168172325121E-04  -6.839030773762023E-04  -9.307415373671635E-04
  -1.074374269730893E-03  -1.130138955606208E-03  -1.113711694149089E-03
  -1.040821314713503E-03  -9.269359189745252E-04  -7.869226972256893E-04
  -6.346823961209669E-04  -4.827601715701180E-04  -3.419349519047099E-04
  -2.207898789032825E-04  -1.252669093733116E-04  -5.820927486555050E-05
  -1.889624452078298E-05  -2.575554538086777E-06   2.220446049250313E-16
   0.000000000000000E+00   0.000000000000000E+00   0.000000000000000E+00
   0.000000000000000E+00   0.000000000000000E+00   0.000000000000000E+00
   0.000000000000000E+00   0.000000000000000E+00   0.000000000000000E+00
   0.000000000000000E+00   0.000000000000000E+00   0.000000000000000E+00
   0.000000000000000E+00   0.000000000000000E+00   0.000000000000000E+00
   0.000000000000000E+00   0.000000000000000E+00   0.000000000000000E+00
   0.000000000000000E+00   0.000000000000000E+00   0.000000000000000E+00
   0.000000000000000E+00   0.000000000000000E+00   0.000000000000000E+00
   0.000000000000000E+00   0.000000000000000E+00   0.000000000000000E+00
   0.000000000000000E+00   0.000000000000000E+00   0.000000000000000E+00
   0.000000000000000E+00   0.000000000000000E+00   0.000000000000000E+00
   0.000000000000000E+00   0.000000000000000E+00   0.000000000000000E+00
   0.000000000000000E+00   0.000000000000000E+00   0.000000000000000E+00
   0.000000000000000E+00   0.000000000000000E+00   0.000000000000000E+00
   0.000000000000000E+00   0.000000000000000E+00   0.000000000000000E+00
   0.000000000000000E+00   0.000000000000000E+00   0.000000000000000E+00
   0.000000000000000E+00   0.000000000000000E+00   0.000000000000000E+00
   0.000000000000000E+00   0.000000000000000E+00   0.000000000000000E+00
   0.000000000000000E+00   0.000000000000000E+00   0.000000000000000E+00
   0.000000000000000E+00   0.000000000000000E+00   0.000000000000000E+00
   0.000000000000000E+00   0.000000000000000E+00   0.000000000000000E+00
   0.000000000000000E+00   0.000000000000000E+00   0.000000000000000E+00
   0.000000000000000E+00   0.000000000000000E+00   0.000000000000000E+00
   0.000000000000000E+00   0.000000000000000E+00   0.000000000000000E+00
   0.000000000000000E+00   0.000000000000000E+00   0.000000000000000E+00
   0.000000000000000E+00   0.000000000000000E+00   0.000000000000000E+00
   0.000000000000000E+00   0.000000000000000E+00   0.000000000000000E+00
   0.000000000000000E+00   0.000000000000000E+00   0.000000000000000E+00
   0.000000000000000E+00   0.000000000000000E+00   0.000000000000000E+00
   0.000000000000000E+00   0.000000000000000E+00   0.000000000000000E+00
   0.000000000000000E+00   0.000000000000000E+00   0.000000000000000E+00
   0.000000000000000E+00   0.000000000000000E+00   0.000000000000000E+00
   0.000000000000000E+00   0.000000000000000E+00   0.000000000000000E+00
   0.000000000000000E+00   0.000000000000000E+00   0.000000000000000E+00
   0.000000000000000E+00   0.000000000000000E+00   0.000000000000000E+00
   0.000000000000000E+00   0.000000000000000E+00   0.000000000000000E+00
   0.000000000000000E+00   0.000000000000000E+00   0.000000000000000E+00
   0.000000000000000E+00   0.000000000000000E+00   0.000000000000000E+00
   0.000000000000000E+00   0.000000000000000E+00   0.000000000000000E+00
   0.000000000000000E+00   0.000000000000000E+00   0.000000000000000E+00
   0.000000000000000E+00   0.000000000000000E+00   0.000000000000000E+00
   0.000000000000000E+00   0.000000000000000E+00   0.000000000000000E+00
   0.000000000000000E+00   0.000000000000000E+00   0.000000000000000E+00
   0.000000000000000E+00   0.000000000000000E+00   0.000000000000000E+00
   0.000000000000000E+00   0.000000000000000E+00   0.000000000000000E+00
   0.000000000000000E+00   0.000000000000000E+00   0.000000000000000E+00
   0.000000000000000E+00   0.000000000000000E+00   0.000000000000000E+00
   0.000000000000000E+00   0.000000000000000E+00   0.000000000000000E+00
   0.000000000000000E+00   0.000000000000000E+00   0.000000000000000E+00
   0.000000000000000E+00   0.000000000000000E+00   0.000000000000000E+00
   0.000000000000000E+00   0.000000000000000E+00   0.000000000000000E+00
   0.000000000000000E+00   0.000000000000000E+00   0.000000000000000E+00
   0.000000000000000E+00   0.000000000000000E+00   0.000000000000000E+00
   0.000000000000000E+00   0.000000000000000E+00   0.000000000000000E+00
   0.000000000000000E+00   0.000000000000000E+00   0.000000000000000E+00
   0.000000000000000E+00   0.000000000000000E+00   0.000000000000000E+00
   0.000000000000000E+00   0.000000000000000E+00   0.000000000000000E+00
   0.000000000000000E+00   0.000000000000000E+00   0.000000000000000E+00
   0.000000000000000E+00   0.000000000000000E+00   0.000000000000000E+00
   0.000000000000000E+00   0.000000000000000E+00   0.000000000000000E+00
   0.000000000000000E+00   0.000000000000000E+00   0.000000000000000E+00
   0.000000000000000E+00   0.000000000000000E+00   0.000000000000000E+00
   0.000000000000000E+00   0.000000000000000E+00   0.000000000000000E+00
   0.000000000000000E+00   0.000000000000000E+00   0.000000000000000E+00
   0.000000000000000E+00   0.000000000000000E+00   0.000000000000000E+00
   0.000000000000000E+00   0.000000000000000E+00   0.000000000000000E+00
   0.000000000000000E+00   0.000000000000000E+00   0.000000000000000E+00
   0.000000000000000E+00   0.000000000000000E+00   0.000000000000000E+00
   0.000000000000000E+00   0.000000000000000E+00   0.000000000000000E+00
   0.000000000000000E+00   0.000000000000000E+00   0.000000000000000E+00
   0.000000000000000E+00   0.000000000000000E+00   0.000000000000000E+00
   0.000000000000000E+00   0.000000000000000E+00   0.000000000000000E+00
   0.000000000000000E+00   0.000000000000000E+00   0.000000000000000E+00
   0.000000000000000E+00   0.000000000000000E+00   0.000000000000000E+00
   0.000000000000000E+00   0.000000000000000E+00   0.000000000000000E+00
   0.000000000000000E+00   0.000000000000000E+00   0.000000000000000E+00
   0.000000000000000E+00   0.000000000000000E+00   0.000000000000000E+00
   0.000000000000000E+00   0.000000000000000E+00   0.000000000000000E+00
   0.000000000000000E+00   0.000000000000000E+00   0.000000000000000E+00
   0.000000000000000E+00   0.000000000000000E+00   0.000000000000000E+00
   0.000000000000000E+00   0.000000000000000E+00   0.000000000000000E+00
   0.000000000000000E+00   0.000000000000000E+00   0.000000000000000E+00
   0.000000000000000E+00   0.000000000000000E+00   0.000000000000000E+00
   0.000000000000000E+00   0.000000000000000E+00   0.000000000000000E+00
   0.000000000000000E+00   0.000000000000000E+00   0.000000000000000E+00
   0.000000000000000E+00   0.000000000000000E+00   0.000000000000000E+00
   0.000000000000000E+00   0.000000000000000E+00   0.000000000000000E+00
   0.000000000000000E+00   0.000000000000000E+00   0.000000000000000E+00
   0.000000000000000E+00   0.000000000000000E+00   0.000000000000000E+00
   0.000000000000000E+00   0.000000000000000E+00   0.000000000000000E+00
   0.000000000000000E+00   0.000000000000000E+00   0.000000000000000E+00
   0.000000000000000E+00   0.000000000000000E+00   0.000000000000000E+00
   0.000000000000000E+00   0.000000000000000E+00   0.000000000000000E+00
   0.000000000000000E+00   0.000000000000000E+00   0.000000000000000E+00
   0.000000000000000E+00   0.000000000000000E+00   0.000000000000000E+00
   0.000000000000000E+00   0.000000000000000E+00   0.000000000000000E+00
   0.000000000000000E+00   0.000000000000000E+00   0.000000000000000E+00
   0.000000000000000E+00   0.000000000000000E+00   0.000000000000000E+00
   0.000000000000000E+00   0.000000000000000E+00   0.000000000000000E+00
   0.000000000000000E+00   0.000000000000000E+00   0.000000000000000E+00
   0.000000000000000E+00   0.000000000000000E+00   0.000000000000000E+00
   0.000000000000000E+00   0.000000000000000E+00   0.000000000000000E+00
   0.000000000000000E+00   0.000000000000000E+00   0.000000000000000E+00
   0.000000000000000E+00   0.000000000000000E+00   0.000000000000000E+00
   0.000000000000000E+00   0.000000000000000E+00   0.000000000000000E+00
   0.000000000000000E+00   0.000000000000000E+00   0.000000000000000E+00
   0.000000000000000E+00   0.000000000000000E+00   0.000000000000000E+00
   0.000000000000000E+00   0.000000000000000E+00   0.000000000000000E+00
   0.000000000000000E+00   0.000000000000000E+00   0.000000000000000E+00
   0.000000000000000E+00   0.000000000000000E+00   0.000000000000000E+00
   0.000000000000000E+00   0.000000000000000E+00   0.000000000000000E+00
   0.000000000000000E+00   0.000000000000000E+00   0.000000000000000E+00
   0.000000000000000E+00   0.000000000000000E+00   0.000000000000000E+00
   0.000000000000000E+00   0.000000000000000E+00   0.000000000000000E+00
   0.000000000000000E+00   0.000000000000000E+00
      </PP_QIJL.3.3.2>
      <PP_QIJL.3.4.0 first_index="3" second_index="4" composite_index="9" angular_momentum="0" size="1085">
   1.116790691590349E-08   1.145062383693051E-08   1.174049777147444E-08
   1.203770990022512E-08   1.234244599048501E-08   1.265489651227974E-08
   1.297525675740836E-08   1.330372696150713E-08   1.364051242920344E-08
   1.398582366243810E-08   1.433987649203598E-08   1.470289221260744E-08
   1.507509772086492E-08   1.545672565744086E-08   1.584801455229600E-08
   1.624920897380831E-08   1.666055968163665E-08   1.708232378345376E-08
   1.751476489564718E-08   1.795815330808847E-08   1.841276615307317E-08
   1.887888757853795E-08   1.935680892566250E-08   1.984682891096760E-08
   2.034925381302299E-08   2.086439766388165E-08   2.139258244536052E-08
   2.193413829028987E-08   2.248940368885748E-08   2.305872570017650E-08
   2.364246016920890E-08   2.424097194918080E-08   2.485463512962787E-08
   2.548383327021409E-08   2.612895964046953E-08   2.679041746559702E-08
   2.746862017850162E-08   2.816399167820027E-08   2.887696659477301E-08
   2.960799056102177E-08   3.035752049100573E-08   3.112602486562844E-08
   3.191398402545424E-08   3.272189047093764E-08   3.355024917025298E-08
   3.439957787491665E-08   3.527040744339976E-08   3.616328217293277E-08
   3.707876013971005E-08   3.801741354770690E-08   3.897982908632638E-08
   3.996660829710080E-08   4.097836794967584E-08   4.201574042731285E-08
   4.307937412215076E-08   4.416993384047309E-08   4.528810121823548E-08
   4.643457514711171E-08   4.761007221132540E-08   4.881532713554052E-08
   5.005109324408969E-08   5.131814293182836E-08   5.261726814690906E-08
   5.394928088577648E-08   5.531501370069456E-08   5.671532022012036E-08
   5.815107568225257E-08   5.962317748208636E-08   6.113254573231712E-08
   6.268012383844407E-08   6.426687908843191E-08   6.589380325730076E-08
   6.756191322702124E-08   6.927225162210193E-08   7.102588746126807E-08
   7.282391682563610E-08   7.466746354380452E-08   7.655767989428766E-08
   7.849574732573163E-08   8.048287719536328E-08   8.252031152613231E-08
   8.460932378302167E-08   8.675121966901002E-08   8.894733794118431E-08
   9.119905124751319E-08   9.350776698480204E-08   9.587492817836926E-08
   9.830201438399114E-08   1.007905426126792E-07   1.033420682788704E-07
   1.059581861726186E-07   1.086405314564002E-07   1.113907806871518E-07
   1.142106528641833E-07   1.171019105036185E-07   1.200663607400348E-07
   1.231058564559929E-07   1.262222974401600E-07   1.294176315747520E-07
   1.326938560530368E-07   1.360530186276570E-07   1.394972188905579E-07
   1.430286095853147E-07   1.466493979526834E-07   1.503618471102156E-07
   1.541682774667961E-07   1.580710681729936E-07   1.620726586081263E-07
   1.661755499049731E-07   1.703823065130854E-07   1.746955578016725E-07
   1.791179997030671E-07   1.836523963977951E-07   1.883015820423049E-07
   1.930684625404348E-07   1.979560173597253E-07   2.029673013937138E-07
   2.081054468713746E-07   2.133736653148968E-07   2.187752495470261E-07
   2.243135757492216E-07   2.299921055719188E-07   2.358143882982144E-07
   2.417840630623259E-07   2.479048611242156E-07   2.541806082017946E-07
   2.606152268621720E-07   2.672127389734391E-07   2.739772682185225E-07
   2.809130426726791E-07   2.880243974462395E-07   2.953157773942583E-07
   3.027917398947597E-07   3.104569576973174E-07   3.183162218437515E-07
   3.263744446627597E-07   3.346366628403679E-07   3.431080405681075E-07
   3.517938727708929E-07   3.606995884166211E-07   3.698307539095481E-07
   3.791930765695815E-07   3.887924081996507E-07   3.986347487433898E-07
   4.087262500354228E-07   4.190732196465853E-07   4.296821248264984E-07
   4.405595965459525E-07   4.517124336416277E-07   4.631476070657487E-07
   4.748722642433171E-07   4.868937335396608E-07   4.992195288410823E-07
   5.118573542514748E-07   5.248151089078401E-07   5.381008919177152E-07
   5.517230074216036E-07   5.656899697835671E-07   5.800105089132243E-07
   5.946935757224925E-07   6.097483477204646E-07   6.251842347499407E-07
   6.410108848691865E-07   6.572381903825969E-07   6.738762940240491E-07
   6.909355952967748E-07   7.084267569737755E-07   7.263607117627710E-07
   7.447486691399128E-07   7.636021223564997E-07   7.829328556230709E-07
   8.027529514754094E-07   8.230747983270021E-07   8.439110982127267E-07
   8.652748747285927E-07   8.871794811724686E-07   9.096386088909586E-07
   9.326662958375575E-07   9.562769353475032E-07   9.804852851347893E-07
   1.005306476516941E-06   1.030756023873378E-06   1.056849834343207E-06
   1.083604217768568E-06   1.111035896889725E-06   1.139162017798253E-06
   1.168000160654928E-06   1.197568350678929E-06   1.227885069415294E-06
   1.258969266287659E-06   1.290840370443457E-06   1.323518302899083E-06
   1.357023488992496E-06   1.391376871151149E-06   1.426599921983185E-06
   1.462714657700055E-06   1.499743651879046E-06   1.537710049574203E-06
   1.576637581784572E-06   1.616550580288769E-06   1.657473992855110E-06
   1.699433398836933E-06   1.742455025162717E-06   1.786565762731110E-06
   1.831793183221085E-06   1.878165556327678E-06   1.925711867434232E-06
   1.974461835732018E-06   2.024445932798702E-06   2.075695401647251E-06
   2.128242276257098E-06   2.182119401599952E-06   2.237360454172610E-06
   2.293999963049714E-06   2.352073331469614E-06   2.411616858966756E-06
   2.472667764064599E-06   2.535264207543059E-06   2.599445316295202E-06
   2.665251207788034E-06   2.732723015142640E-06   2.801902912849526E-06
   2.872834143135038E-06   2.945561042995518E-06   3.020129071916077E-06
   3.096584840291184E-06   3.174976138565149E-06   3.255351967110396E-06
   3.337762566862438E-06   3.422259450730711E-06   3.508895435804743E-06
   3.597724676376117E-06   3.688802697796534E-06   3.782186431193463E-06
   3.877934249064970E-06   3.976106001775915E-06   4.076763054978629E-06
   4.179968327981140E-06   4.285786333087255E-06   4.394283215932998E-06
   4.505526796844536E-06   4.619586613243822E-06   4.736533963128045E-06
   4.856441949650491E-06   4.979385526830530E-06   5.105441546421341E-06
   5.234688805964841E-06   5.367208098063727E-06   5.503082260901644E-06
   5.642396230043047E-06   5.785237091545108E-06   5.931694136415123E-06
   6.081858916447277E-06   6.235825301473961E-06   6.393689538067357E-06
   6.555550309728065E-06   6.721508798598560E-06   6.891668748740021E-06
   7.066136531012243E-06   7.245021209597286E-06   7.428434610208413E-06
   7.616491390027270E-06   7.809309109412865E-06   8.007008305427502E-06
   8.209712567225662E-06   8.417548613352954E-06   8.630646371003840E-06
   8.849139057287538E-06   9.073163262553212E-06   9.302859035826658E-06
   9.538369972411938E-06   9.779843303713050E-06   1.002742998933177E-05
   1.028128481149956E-05   1.054156647190272E-05   1.080843769096142E-05
   1.108206530962498E-05   1.136262039374721E-05   1.165027834110727E-05
   1.194521899114330E-05   1.224762673746735E-05   1.255769064323270E-05
   1.287560455942544E-05   1.320156724615505E-05   1.353578249701966E-05
   1.387845926662431E-05   1.422981180133236E-05   1.459005977333173E-05
   1.495942841810064E-05   1.533814867535888E-05   1.572645733359317E-05
   1.612459717824751E-05   1.653281714367148E-05   1.695137246892206E-05
   1.738052485751691E-05   1.782054264123920E-05   1.827170094809754E-05
   1.873428187454591E-05   1.920857466207245E-05   1.969487587826779E-05
   2.019348960248694E-05   2.070472761622158E-05   2.122890959830236E-05
   2.176636332505410E-05   2.231742487553011E-05   2.288243884195419E-05
   2.346175854550357E-05   2.405574625756808E-05   2.466477342662503E-05
   2.528922091087303E-05   2.592947921677070E-05   2.658594874363133E-05
   2.725904003442695E-05   2.794917403296029E-05   2.865678234756701E-05
   2.938230752151372E-05   3.012620331026342E-05   3.088893496578231E-05
   3.167097952806807E-05   3.247282612408356E-05   3.329497627428413E-05
   3.413794420693301E-05   3.500225718040254E-05   3.588845581366555E-05
   3.679709442518521E-05   3.772874138041840E-05   3.868397944815117E-05
   3.966340616589294E-05   4.066763421456017E-05   4.169729180268627E-05
   4.275302306040206E-05   4.383548844343482E-05   4.494536514738361E-05
   4.608334753253218E-05   4.725014755946936E-05   4.844649523579336E-05
   4.967313907418248E-05   5.093084656212464E-05   5.222040464360229E-05
   5.354262021303976E-05   5.489832062182699E-05   5.628835419774017E-05
   5.771359077759188E-05   5.917492225344809E-05   6.067326313275985E-05
   6.220955111276744E-05   6.378474766954108E-05   6.539983866203565E-05
   6.705583495154345E-05   6.875377303694019E-05   7.049471570613123E-05
   7.227975270411092E-05   7.411000141806606E-05   7.598660757995835E-05
   7.791074598703654E-05   7.988362124073978E-05   8.190646850446385E-05
   8.398055428067815E-05   8.610717720788978E-05   8.828766887796676E-05
   9.052339467434622E-05   9.281575463166290E-05   9.516618431735461E-05
   9.757615573580883E-05   1.000471782556333E-04   1.025807995606494E-04
   1.051786066252175E-04   1.078422267145281E-04   1.105733284105021E-04
   1.133736226639619E-04   1.162448638737582E-04   1.191888509935433E-04
   1.222074286669164E-04   1.253024883916699E-04   1.284759697138950E-04
   1.317298614527234E-04   1.350662029564952E-04   1.384870853911784E-04
   1.419946530618719E-04   1.455911047682562E-04   1.492786951948783E-04
   1.530597363371719E-04   1.569365989641527E-04   1.609117141187417E-04
   1.649875746566997E-04   1.691667368251820E-04   1.734518218819528E-04
   1.778455177563165E-04   1.823505807528674E-04   1.869698372991728E-04
   1.917061857385461E-04   1.965625981690947E-04   2.015421223302516E-04
   2.066478835380503E-04   2.118830866704161E-04   2.172510182037969E-04
   2.227550483024866E-04   2.283986329620276E-04   2.341853162081262E-04
   2.401187323525458E-04   2.462026083074843E-04   2.524407659599891E-04
   2.588371246079938E-04   2.653957034596230E-04   2.721206241974339E-04
   2.790161136093296E-04   2.860865062879192E-04   2.933362474001387E-04
   3.007698955290212E-04   3.083921255895313E-04   3.162077318204499E-04
   3.242216308543444E-04   3.324388648677103E-04   3.408646048134444E-04
   3.495041537378527E-04   3.583629501844687E-04   3.674465716870228E-04
   3.767607383539524E-04   3.863113165469409E-04   3.961043226560114E-04
   4.061459269737939E-04   4.164424576716521E-04   4.270004048804243E-04
   4.378264248786304E-04   4.489273443910610E-04   4.603101650007499E-04
   4.719820676774327E-04   4.839504174256534E-04   4.962227680558076E-04
   5.088068670814758E-04   5.217106607465114E-04   5.349422991854483E-04
   5.485101417208789E-04   5.624227623015945E-04   5.766889550853434E-04
   5.913177401702163E-04   6.063183694787607E-04   6.217003327990405E-04
   6.374733639870108E-04   6.536474473346708E-04   6.702328241086027E-04
   6.872399992636533E-04   7.046797483366106E-04   7.225631245249347E-04
   7.409014659556898E-04   7.597064031500072E-04   7.789898666885700E-04
   7.987640950837390E-04   8.190416428641497E-04   8.398353888777472E-04
   8.611585448194143E-04   8.830246639895398E-04   9.054476502900278E-04
   9.284417674644924E-04   9.520216485895366E-04   9.762023058242316E-04
   1.000999140425145E-03   1.026427953034430E-03   1.052504954248785E-03
   1.079246775477254E-03   1.106670480096099E-03   1.134793574909261E-03
   1.163634021923067E-03   1.193210250444238E-03   1.223541169510392E-03
   1.254646180662597E-03   1.286545191069740E-03   1.319258627014812E-03
   1.352807447753486E-03   1.387213159755661E-03   1.422497831340951E-03
   1.458684107719468E-03   1.495795226449437E-03   1.533855033323725E-03
   1.572887998697495E-03   1.612919234269687E-03   1.653974510331338E-03
   1.696080273494079E-03   1.739263664912631E-03   1.783552539015372E-03
   1.828975482757531E-03   1.875561835411929E-03   1.923341708912573E-03
   1.972346008766867E-03   2.022606455552581E-03   2.074155607016152E-03
   2.127026880789366E-03   2.181254577741799E-03   2.236873905986991E-03
   2.293921005560626E-03   2.352432973789532E-03   2.412447891370752E-03
   2.474004849180316E-03   2.537143975831948E-03   2.601906466006252E-03
   2.668334609571432E-03   2.736471821517103E-03   2.806362672723047E-03
   2.878052921585406E-03   2.951589546523065E-03   3.027020779387459E-03
   3.104396139799514E-03   3.183766470437627E-03   3.265183973301229E-03
   3.348702246974586E-03   3.434376324915941E-03   3.522262714797408E-03
   3.612419438921135E-03   3.704906075737736E-03   3.799783802492906E-03
   3.897115439028456E-03   3.996965492763972E-03   4.099400204885330E-03
   4.204487597766366E-03   4.312297523649656E-03   4.422901714612371E-03
   4.536373833842744E-03   4.652789528252240E-03   4.772226482448175E-03
   4.894764474090740E-03   5.020485430657615E-03   5.149473487638567E-03
   5.281815048181094E-03   5.417598844207226E-03   5.556915999019843E-03
   5.699860091415364E-03   5.846527221317732E-03   5.997016076946351E-03
   6.151428003528405E-03   6.309867073563075E-03   6.472440158642221E-03
   6.639257002828663E-03   6.810430297589373E-03   6.986075758276872E-03
   7.166312202147240E-03   7.351261627898265E-03   7.541049296705553E-03
   7.735803814728080E-03   7.935657217048258E-03   8.140745053003776E-03
   8.351206472860539E-03   8.567184315767248E-03   8.788825198922124E-03
   9.016279607872314E-03   9.249701987854483E-03   9.489250836073026E-03
   9.735088794798705E-03   9.987382745155706E-03   1.024630390144962E-02
   1.051202790587129E-02   1.078473492339315E-02   1.106460973665469E-02
   1.135184184061169E-02   1.164662553670124E-02   1.194916002624884E-02
   1.225964950281726E-02   1.257830324316793E-02   1.290533569647384E-02
   1.324096657139067E-02   1.358542092055581E-02   1.393892922204757E-02
   1.430172745729515E-02   1.467405718488626E-02   1.505616560967281E-02
   1.544830564652431E-02   1.585073597802565E-02   1.626372110535938E-02
   1.668753139155120E-02   1.712244309619429E-02   1.756873840069857E-02
   1.802670542303913E-02   1.849663822090143E-02   1.897883678203826E-02
   1.947360700056920E-02   1.998126063786063E-02   2.050211526652946E-02
   2.103649419601214E-02   2.158472637803418E-02   2.214714629020340E-02
   2.272409379583328E-02   2.331591397797848E-02   2.392295694553783E-02
   2.454557760914311E-02   2.518413542441445E-02   2.583899410001547E-02
   2.651052126779050E-02   2.719908811210989E-02   2.790506895538592E-02
   2.862884079655674E-02   2.937078279916230E-02   3.013127572546119E-02
   3.091070131285789E-02   3.170944158872600E-02   3.252787811953027E-02
   3.336639118996148E-02   3.422535890761282E-02   3.510515622854032E-02
   3.600615389886453E-02   3.692871730739287E-02   3.787320524406489E-02
   3.883996855885630E-02   3.982934871562078E-02   4.084167623520057E-02
   4.187726902201010E-02   4.293643056818081E-02   4.401944802926771E-02
   4.512659016545120E-02   4.625810514213245E-02   4.741421818382134E-02
   4.859512907525164E-02   4.980100950374406E-02   5.103200023697170E-02
   5.228820813047323E-02   5.356970295952064E-02   5.487651407027337E-02
   5.620862684556545E-02   5.756597898117121E-02   5.894845656899447E-02
   6.035588998433800E-02   6.178804957523686E-02   6.324464115280180E-02
   6.472530128262320E-02   6.622959237854505E-02   6.775699760154959E-02
   6.930691556810260E-02   7.087865487411769E-02   7.247142844271516E-02
   7.408434770619211E-02   7.571641663510351E-02   7.736652563008339E-02
   7.903344529503958E-02   8.071582011363210E-02   8.241216205451866E-02
   8.412084413472737E-02   8.584009397470370E-02   8.756798738308971E-02
   8.930244201412987E-02   9.104121114575994E-02   9.278187763193241E-02
   9.452184808854132E-02   9.625834737843894E-02   9.798841346746030E-02
   9.970889273006256E-02   1.014164357901369E-01   1.031074939896819E-01
   1.047783165853414E-01   1.064249487802047E-01   1.080432307056882E-01
   1.096287974756973E-01   1.111770804424634E-01   1.126833097903974E-01
   1.141425186108291E-01   1.155495486064676E-01   1.168990575796666E-01
   1.181855288628814E-01   1.194032828528807E-01   1.205464908120605E-01
   1.216091911003313E-01   1.225853079992513E-01   1.234686732859920E-01
   1.242530507080509E-01   1.249321634999742E-01   1.254997250703288E-01
   1.259494729703722E-01   1.262752062348576E-01   1.264708261597482E-01
   1.265303805508384E-01   1.264481114409313E-01   1.262185062308529E-01
   1.258363521607530E-01   1.252967939624432E-01   1.245953944805817E-01
   1.237281979800271E-01   1.226917957784003E-01   1.214833937566898E-01
   1.201008812065807E-01   1.185429003712027E-01   1.168089159265107E-01
   1.148992835339884E-01   1.128153164726216E-01   1.105593492300956E-01
   1.081347968013087E-01   1.055462083082869E-01   1.027993134214743E-01
   9.990105993079806E-02   9.685964068879048E-02   9.368450803099621E-02
   9.038637367495786E-02   8.697719201287243E-02   8.347012464983371E-02
   7.987948400516985E-02   7.622065379516678E-02   7.250998425837937E-02
   6.876466007711626E-02   6.500253909844501E-02   6.124196017321759E-02
   5.750151872045911E-02   5.379980899520236E-02   5.015513249831418E-02
   4.658517252451970E-02   4.310663550597213E-02   3.973486057856936E-02
   3.648339968010565E-02   3.336357148432446E-02   3.038399358133827E-02
   2.755009852740600E-02   2.486364069644809E-02   2.232220225780027E-02
   1.991870805988166E-02   1.764464677069977E-02   1.550232317233036E-02
   1.349639201214331E-02   1.163049699938484E-02   9.907213458730357E-03
   8.328000494378707E-03   6.893164054989631E-03   5.601832262626949E-03
   4.451944318224099E-03   3.440254220654027E-03   2.562350435391214E-03
   1.812692521565684E-03   1.184665572990462E-03   6.706531500422774E-04
   2.621291762332500E-04  -5.023095258410715E-05  -2.764200451033094E-04
  -4.269498414838924E-04  -5.126833355454385E-04  -5.446495324546441E-04
  -5.338417888414160E-04  -4.910011992019236E-04  -4.263868193234988E-04
  -3.495348552543520E-04  -2.690092978201997E-04  -1.921468529589854E-04
  -1.247994145976428E-04  -7.107775976922248E-05  -3.310062825151450E-05
  -1.075389685156747E-05  -1.465189723270921E-06   1.110223024625157E-16
   0.000000000000000E+00   0.000000000000000E+00   0.000000000000000E+00
   0.000000000000000E+00   0.000000000000000E+00   0.000000000000000E+00
   0.000000000000000E+00   0.000000000000000E+00   0.000000000000000E+00
   0.000000000000000E+00   0.000000000000000E+00   0.000000000000000E+00
   0.000000000000000E+00   0.000000000000000E+00   0.000000000000000E+00
   0.000000000000000E+00   0.000000000000000E+00   0.000000000000000E+00
   0.000000000000000E+00   0.000000000000000E+00   0.000000000000000E+00
   0.000000000000000E+00   0.000000000000000E+00   0.000000000000000E+00
   0.000000000000000E+00   0.000000000000000E+00   0.000000000000000E+00
   0.000000000000000E+00   0.000000000000000E+00   0.000000000000000E+00
   0.000000000000000E+00   0.000000000000000E+00   0.000000000000000E+00
   0.000000000000000E+00   0.000000000000000E+00   0.000000000000000E+00
   0.000000000000000E+00   0.000000000000000E+00   0.000000000000000E+00
   0.000000000000000E+00   0.000000000000000E+00   0.000000000000000E+00
   0.000000000000000E+00   0.000000000000000E+00   0.000000000000000E+00
   0.000000000000000E+00   0.000000000000000E+00   0.000000000000000E+00
   0.000000000000000E+00   0.000000000000000E+00   0.000000000000000E+00
   0.000000000000000E+00   0.000000000000000E+00   0.000000000000000E+00
   0.000000000000000E+00   0.000000000000000E+00   0.000000000000000E+00
   0.000000000000000E+00   0.000000000000000E+00   0.000000000000000E+00
   0.000000000000000E+00   0.000000000000000E+00   0.000000000000000E+00
   0.000000000000000E+00   0.000000000000000E+00   0.000000000000000E+00
   0.000000000000000E+00   0.000000000000000E+00   0.000000000000000E+00
   0.000000000000000E+00   0.000000000000000E+00   0.000000000000000E+00
   0.000000000000000E+00   0.000000000000000E+00   0.000000000000000E+00
   0.000000000000000E+00   0.000000000000000E+00   0.000000000000000E+00
   0.000000000000000E+00   0.000000000000000E+00   0.000000000000000E+00
   0.000000000000000E+00   0.000000000000000E+00   0.000000000000000E+00
   0.000000000000000E+00   0.000000000000000E+00   0.000000000000000E+00
   0.000000000000000E+00   0.000000000000000E+00   0.000000000000000E+00
   0.000000000000000E+00   0.000000000000000E+00   0.000000000000000E+00
   0.000000000000000E+00   0.000000000000000E+00   0.000000000000000E+00
   0.000000000000000E+00   0.000000000000000E+00   0.000000000000000E+00
   0.000000000000000E+00   0.000000000000000E+00   0.000000000000000E+00
   0.000000000000000E+00   0.000000000000000E+00   0.000000000000000E+00
   0.000000000000000E+00   0.000000000000000E+00   0.000000000000000E+00
   0.000000000000000E+00   0.000000000000000E+00   0.000000000000000E+00
   0.000000000000000E+00   0.000000000000000E+00   0.000000000000000E+00
   0.000000000000000E+00   0.000000000000000E+00   0.000000000000000E+00
   0.000000000000000E+00   0.000000000000000E+00   0.000000000000000E+00
   0.000000000000000E+00   0.000000000000000E+00   0.000000000000000E+00
   0.000000000000000E+00   0.000000000000000E+00   0.000000000000000E+00
   0.000000000000000E+00   0.000000000000000E+00   0.000000000000000E+00
   0.000000000000000E+00   0.000000000000000E+00   0.000000000000000E+00
   0.000000000000000E+00   0.000000000000000E+00   0.000000000000000E+00
   0.000000000000000E+00   0.000000000000000E+00   0.000000000000000E+00
   0.000000000000000E+00   0.000000000000000E+00   0.000000000000000E+00
   0.000000000000000E+00   0.000000000000000E+00   0.000000000000000E+00
   0.000000000000000E+00   0.000000000000000E+00   0.000000000000000E+00
   0.000000000000000E+00   0.000000000000000E+00   0.000000000000000E+00
   0.000000000000000E+00   0.000000000000000E+00   0.000000000000000E+00
   0.000000000000000E+00   0.000000000000000E+00   0.000000000000000E+00
   0.000000000000000E+00   0.000000000000000E+00   0.000000000000000E+00
   0.000000000000000E+00   0.000000000000000E+00   0.000000000000000E+00
   0.000000000000000E+00   0.000000000000000E+00   0.000000000000000E+00
   0.000000000000000E+00   0.000000000000000E+00   0.000000000000000E+00
   0.000000000000000E+00   0.000000000000000E+00   0.000000000000000E+00
   0.000000000000000E+00   0.000000000000000E+00   0.000000000000000E+00
   0.000000000000000E+00   0.000000000000000E+00   0.000000000000000E+00
   0.000000000000000E+00   0.000000000000000E+00   0.000000000000000E+00
   0.000000000000000E+00   0.000000000000000E+00   0.000000000000000E+00
   0.000000000000000E+00   0.000000000000000E+00   0.000000000000000E+00
   0.000000000000000E+00   0.000000000000000E+00   0.000000000000000E+00
   0.000000000000000E+00   0.000000000000000E+00   0.000000000000000E+00
   0.000000000000000E+00   0.000000000000000E+00   0.000000000000000E+00
   0.000000000000000E+00   0.000000000000000E+00   0.000000000000000E+00
   0.000000000000000E+00   0.000000000000000E+00   0.000000000000000E+00
   0.000000000000000E+00   0.000000000000000E+00   0.000000000000000E+00
   0.000000000000000E+00   0.000000000000000E+00   0.000000000000000E+00
   0.000000000000000E+00   0.000000000000000E+00   0.000000000000000E+00
   0.000000000000000E+00   0.000000000000000E+00   0.000000000000000E+00
   0.000000000000000E+00   0.000000000000000E+00   0.000000000000000E+00
   0.000000000000000E+00   0.000000000000000E+00   0.000000000000000E+00
   0.000000000000000E+00   0.000000000000000E+00   0.000000000000000E+00
   0.000000000000000E+00   0.000000000000000E+00   0.000000000000000E+00
   0.000000000000000E+00   0.000000000000000E+00   0.000000000000000E+00
   0.000000000000000E+00   0.000000000000000E+00   0.000000000000000E+00
   0.000000000000000E+00   0.000000000000000E+00   0.000000000000000E+00
   0.000000000000000E+00   0.000000000000000E+00   0.000000000000000E+00
   0.000000000000000E+00   0.000000000000000E+00   0.000000000000000E+00
   0.000000000000000E+00   0.000000000000000E+00   0.000000000000000E+00
   0.000000000000000E+00   0.000000000000000E+00   0.000000000000000E+00
   0.000000000000000E+00   0.000000000000000E+00   0.000000000000000E+00
   0.000000000000000E+00   0.000000000000000E+00   0.000000000000000E+00
   0.000000000000000E+00   0.000000000000000E+00   0.000000000000000E+00
   0.000000000000000E+00   0.000000000000000E+00   0.000000000000000E+00
   0.000000000000000E+00   0.000000000000000E+00   0.000000000000000E+00
   0.000000000000000E+00   0.000000000000000E+00   0.000000000000000E+00
   0.000000000000000E+00   0.000000000000000E+00   0.000000000000000E+00
   0.000000000000000E+00   0.000000000000000E+00   0.000000000000000E+00
   0.000000000000000E+00   0.000000000000000E+00   0.000000000000000E+00
   0.000000000000000E+00   0.000000000000000E+00   0.000000000000000E+00
   0.000000000000000E+00   0.000000000000000E+00   0.000000000000000E+00
   0.000000000000000E+00   0.000000000000000E+00   0.000000000000000E+00
   0.000000000000000E+00   0.000000000000000E+00   0.000000000000000E+00
   0.000000000000000E+00   0.000000000000000E+00   0.000000000000000E+00
   0.000000000000000E+00   0.000000000000000E+00   0.000000000000000E+00
   0.000000000000000E+00   0.000000000000000E+00   0.000000000000000E+00
   0.000000000000000E+00   0.000000000000000E+00   0.000000000000000E+00
   0.000000000000000E+00   0.000000000000000E+00   0.000000000000000E+00
   0.000000000000000E+00   0.000000000000000E+00   0.000000000000000E+00
   0.000000000000000E+00   0.000000000000000E+00   0.000000000000000E+00
   0.000000000000000E+00   0.000000000000000E+00   0.000000000000000E+00
   0.000000000000000E+00   0.000000000000000E+00   0.000000000000000E+00
   0.000000000000000E+00   0.000000000000000E+00   0.000000000000000E+00
   0.000000000000000E+00   0.000000000000000E+00   0.000000000000000E+00
   0.000000000000000E+00   0.000000000000000E+00   0.000000000000000E+00
   0.000000000000000E+00   0.000000000000000E+00   0.000000000000000E+00
   0.000000000000000E+00   0.000000000000000E+00   0.000000000000000E+00
   0.000000000000000E+00   0.000000000000000E+00   0.000000000000000E+00
   0.000000000000000E+00   0.000000000000000E+00   0.000000000000000E+00
   0.000000000000000E+00   0.000000000000000E+00   0.000000000000000E+00
   0.000000000000000E+00   0.000000000000000E+00   0.000000000000000E+00
   0.000000000000000E+00   0.000000000000000E+00   0.000000000000000E+00
   0.000000000000000E+00   0.000000000000000E+00
      </PP_QIJL.3.4.0>
      <PP_QIJL.3.4.2 first_index="3" second_index="4" composite_index="9" angular_momentum="2" size="1085">
   2.554882436976951E-15   2.685874053886060E-15   2.823581754084718E-15
   2.968349878485599E-15   3.120540422734339E-15   3.280533942386743E-15
   3.448730504495502E-15   3.625550687985734E-15   3.811436635320835E-15
   4.006853158088462E-15   4.212288899270951E-15   4.428257555106689E-15
   4.655299159597604E-15   4.893981434874705E-15   5.144901210798413E-15
   5.408685917343100E-15   5.685995153498012E-15   5.977522336607288E-15
   6.283996436273414E-15   6.606183797159873E-15   6.944890055250597E-15
   7.300962152358312E-15   7.675290453918743E-15   8.068810975366422E-15
   8.482507722659217E-15   8.917415152803805E-15   9.374620760535206E-15
   9.855267797617907E-15   1.036055813156847E-14   1.089175525094807E-14
   1.145018742473912E-14   1.203725102370700E-14   1.265441401205108E-14
   1.330321961807663E-14   1.398529019306594E-14   1.470233126799755E-14
   1.545613581825806E-14   1.624858874701007E-14   1.708167159842697E-14
   1.795746751258067E-14   1.887816643437082E-14   1.984607058952204E-14
   2.086360024134083E-14   2.193329974262751E-14   2.305784389787620E-14
   2.424004465167082E-14   2.548285812000274E-14   2.678939198209103E-14
   2.816291325118909E-14   2.960685644380868E-14   3.112483216778806E-14
   3.272063615067979E-14   3.439825873103297E-14   3.616189483630307E-14
   3.801595447234038E-14   3.996507375068363E-14   4.201412648123576E-14
   4.416823635930716E-14   4.643278977750132E-14   4.881344929447916E-14
   5.131616779427949E-14   5.394720337160342E-14   5.671313498028167E-14
   5.962087888405444E-14   6.267770595080046E-14   6.589125983345635E-14
   6.926957608309191E-14   7.282110224193096E-14   7.655471896656136E-14
   8.047976223415398E-14   8.460604668721427E-14   8.894389017524462E-14
   9.350413955468117E-14   9.829819781161751E-14   1.033380525751401E-13
   1.086363060925658E-13   1.142062067415429E-13   1.200616821578060E-13
   1.262173740614240E-13   1.326886748686234E-13   1.394917661807331E-13
   1.466436592464966E-13   1.541622374989248E-13   1.620663012730522E-13
   1.703756148164187E-13   1.791109557098169E-13   1.882941668218933E-13
   1.979482109275076E-13   2.080972281264259E-13   2.187665962059271E-13
   2.299829940982490E-13   2.417744685915619E-13   2.541705044612728E-13
   2.672020981970239E-13   2.809018355097454E-13   2.953039728125559E-13
   3.104445228792719E-13   3.263613448946966E-13   3.430942391218709E-13
   3.606850464230009E-13   3.791777528828980E-13   3.986185997965669E-13
   4.190561992959447E-13   4.405416559049223E-13   4.631286943266025E-13
   4.868737937823015E-13   5.118363292382414E-13   5.380787198730432E-13
   5.656665851572687E-13   5.946689089353009E-13   6.251582119198129E-13
   6.572107330301859E-13   6.909066200282828E-13   7.263301299282724E-13
   7.635698396816193E-13   8.027188676640513E-13   8.438751065183351E-13
   8.871414679350857E-13   9.326261399836534E-13   9.804428576365749E-13
   1.030711187163986E-12   1.083556825109160E-12   1.139111912592723E-12
   1.197515365731471E-12   1.258913222997995E-12   1.323459010389637E-12
   1.391314125319944E-12   1.462648240192461E-12   1.537639726666026E-12
   1.616476101672415E-12   1.699354496301573E-12   1.786482148726901E-12
   1.878076922403095E-12   1.974367850832305E-12   2.075595710260792E-12
   2.182013621737981E-12   2.293887684043503E-12   2.411497639064695E-12
   2.535137571288342E-12   2.665116643155771E-12   2.801759868119853E-12
   2.945408923337112E-12   3.096423004026864E-12   3.255179721633737E-12
   3.422076048039414E-12   3.597529308184381E-12   3.781978223581902E-12
   3.975884009333274E-12   4.179731527387442E-12   4.394030498928690E-12
   4.619316778923703E-12   4.856153696015141E-12   5.105133461111893E-12
   5.366878648198075E-12   5.642043751063564E-12   5.931316819848227E-12
   6.235421181492284E-12   6.555117248394365E-12   6.891204419799667E-12
   7.244523080672680E-12   7.615956703052023E-12   8.006434055142149E-12
   8.416931523665150E-12   8.848475555279526E-12   9.302145223170741E-12
   9.779074925230130E-12   1.028045722057023E-11   1.080754581146693E-11
   1.136165867818614E-11   1.194418137453236E-11   1.255657049235892E-11
   1.320035730370379E-11   1.387715158965579E-11   1.458864566552627E-11
   1.533661861239001E-11   1.612294072557489E-11   1.694957819122537E-11
   1.781859800262963E-11   1.873217312860559E-11   1.969258794686720E-11
   2.070224395595565E-11   2.176366578001928E-11   2.287950748145316E-11
   2.405255919718435E-11   2.528575411519463E-11   2.658217580872303E-11
   2.794506594648874E-11   2.937783239820856E-11   3.088405775567764E-11
   3.246750829071824E-11   3.413214337239121E-11   3.588212536702100E-11
   3.772183004578032E-11   3.965585752586135E-11   4.168904377258703E-11
   4.382647269121849E-11   4.607348883869630E-11   4.843571078709087E-11
   5.091904517217912E-11   5.352970146226999E-11   5.627420748420044E-11
   5.915942574532785E-11   6.219257059231698E-11   6.538122624962957E-11
   6.873336578281235E-11   7.225737103399191E-11   7.596205357942675E-11
   7.985667676150180E-11   8.395097885025797E-11   8.825519739235940E-11
   9.278009480836948E-11   9.753698530234266E-11   1.025377631509940E-10
   1.077949324431828E-10   1.133216383440581E-10   1.191316999620201E-10
   1.252396449006841E-10   1.316607455822065E-10   1.384110574327976E-10
   1.455074590258820E-10   1.529676942832535E-10   1.608104168397474E-10
   1.690552366823161E-10   1.777227691801225E-10   1.868346866282174E-10
   1.964137724336437E-10   2.064839780794569E-10   2.170704830090305E-10
   2.281997575803739E-10   2.398996292478389E-10   2.521993521366337E-10
   2.651296801841128E-10   2.787229440306309E-10   2.930131318522129E-10
   3.080359743370863E-10   3.238290340184820E-10   3.404317991870532E-10
   3.578857826176132E-10   3.762346253570199E-10   3.955242058326323E-10
   4.158027545540440E-10   4.371209746948649E-10   4.595321688558861E-10
   4.830923723265397E-10   5.078604931777250E-10   5.338984595361584E-10
   5.612713744083889E-10   5.900476784414239E-10   6.202993210268094E-10
   6.521019401758131E-10   6.855350516152825E-10   7.206822475768230E-10
   7.576314057761073E-10   7.964749091046531E-10   8.373098765831206E-10
   8.802384061533393E-10   9.253678299158763E-10   9.728109824509997E-10
   1.022686482893646E-09   1.075119031467313E-09   1.130239721217930E-09
   1.188186365726779E-09   1.249103843621377E-09   1.313144460745285E-09
   1.380468330891873E-09   1.451243776053405E-09   1.525647747185705E-09
   1.603866266539697E-09   1.686094892665203E-09   1.772539209248866E-09
   1.863415339007622E-09   1.958950483921827E-09   2.059383493157763E-09
   2.164965460098556E-09   2.275960349962387E-09   2.392645659568667E-09
   2.515313110745861E-09   2.644269381516129E-09   2.779836867666823E-09
   2.922354494045947E-09   3.072178559465262E-09   3.229683626350452E-09
   3.395263457065647E-09   3.569332000489574E-09   3.752324424459133E-09
   3.944698203143786E-09   4.146934260153618E-09   4.359538174198057E-09
   4.583041437178466E-09   4.818002786370860E-09   5.065009598683635E-09
   5.324679360869029E-09   5.597661208938215E-09   5.884637555629085E-09
   6.186325789894504E-09   6.503480072883845E-09   6.836893224060516E-09
   7.187398700291948E-09   7.555872675610734E-09   7.943236231014811E-09
   8.350457680808330E-09   8.778554921840646E-09   9.228598092849330E-09
   9.701712107515636E-09   1.019907960197408E-08   1.072194378146802E-08
   1.127161158088145E-08   1.184945694554097E-08   1.245692420171799E-08
   1.309553171813564E-08   1.376687568443807E-08   1.447263409951827E-08
   1.521457094350428E-08   1.599454062584957E-08   1.681449256915704E-08
   1.767647610770783E-08   1.858264562685745E-08   1.953526587840450E-08
   2.053671771739230E-08   2.158950397672767E-08   2.269625576501549E-08
   2.385973901602603E-08   2.508286141697139E-08   2.636867965609685E-08
   2.772040704252412E-08   2.914142154047116E-08   3.063527423853226E-08
   3.220569815342349E-08   3.385661760871266E-08   3.559215799152447E-08
   3.741665609139557E-08   3.933467088109316E-08   4.135099492773354E-08
   4.347066638572481E-08   4.569898151168757E-08   4.804150790053821E-08
   5.050409844675035E-08   5.309290586124087E-08   5.581439807277788E-08
   5.867537438194431E-08   6.168298245185891E-08   6.484473605086580E-08
   6.816853388081797E-08   7.166267926330945E-08   7.533590089551909E-08
   7.919737455884164E-08   8.325674605780467E-08   8.752415528577621E-08
   9.201026150261849E-08   9.672626992207077E-08   1.016839597317534E-07
   1.068957132939967E-07   1.123745472283968E-07   1.181341447476090E-07
   1.241888898435233E-07   1.305539031364253E-07   1.372450795397261E-07
   1.442791279109957E-07   1.516736127556351E-07   1.594469979351982E-07
   1.676186927130846E-07   1.762091001576503E-07   1.852396678907349E-07
   1.947329417219772E-07   2.047126216866947E-07   2.152036210153845E-07
   2.262321284771764E-07   2.378256733211392E-07   2.500131939956205E-07
   2.628251102077581E-07   2.762933986908754E-07   2.904516726970638E-07
   3.053352658886894E-07   3.209813201655995E-07   3.374288781263367E-07
   3.547189803208703E-07   3.728947672831065E-07   3.920015869529160E-07
   4.120871074847776E-07   4.332014357673299E-07   4.553972421725237E-07
   4.787298914370699E-07   5.032575804508376E-07   5.290414828107180E-07
   5.561459010736654E-07   5.846384263859363E-07   6.145901066365318E-07
   6.460756229047108E-07   6.791734750533326E-07   7.139661766656779E-07
   7.505404600387796E-07   7.889874915047922E-07   8.294030978125161E-07
   8.718880039806921E-07   9.165480832838357E-07   9.634946199545759E-07
   1.012844585334565E-06   1.064720927849530E-06   1.119252878082386E-06
   1.176576269062703E-06   1.236833873048803E-06   1.300175755344848E-06
   1.366759645936467E-06   1.436751330539267E-06   1.510325060973719E-06
   1.587663986507731E-06   1.668960607415547E-06   1.754417251201353E-06
   1.844246573245852E-06   1.938672082663250E-06   2.037928695097101E-06
   2.142263313298185E-06   2.251935437387501E-06   2.367217805762089E-06
   2.488397068851288E-06   2.615774496825063E-06   2.749666722944414E-06
   2.890406525086460E-06   3.038343646326944E-06   3.193845657369336E-06
   3.357298862350797E-06   3.529109250838157E-06   3.709703497436658E-06
   3.899530012487499E-06   4.099060045406235E-06   4.308788844028866E-06
   4.529236872272890E-06   4.760951089299358E-06   5.004506293455749E-06
   5.260506533541788E-06   5.529586591634626E-06   5.812413540324720E-06
   6.109688378289946E-06   6.422147748829100E-06   6.750565743806979E-06
   7.095755799324917E-06   7.458572686021676E-06   7.839914599517805E-06
   8.240725355987931E-06   8.661996697655363E-06   9.104770713935236E-06
   9.570142384112047E-06   1.005926224722668E-05   1.057333920552654E-05
   1.111364346844277E-05   1.168150964352305E-05   1.227833998176479E-05
   1.290560778529543E-05   1.356486098464247E-05   1.425772589475423E-05
   1.498591115782459E-05   1.575121188266489E-05   1.655551398980474E-05
   1.740079877265306E-05   1.828914768524298E-05   1.922274736733755E-05
   2.020389491897913E-05   2.123500343606286E-05   2.231860781998673E-05
   2.345737087454043E-05   2.465408970389867E-05   2.591170242636953E-05
   2.723329521924427E-05   2.862210971014789E-05   3.008155073254757E-05
   3.161519446179023E-05   3.322679695090834E-05   3.492030308450021E-05
   3.669985597128027E-05   3.856980679579692E-05   4.053472515145791E-05
   4.259940987719425E-05   4.476890042245879E-05   4.704848876469219E-05
   4.944373190561010E-05   5.196046497385247E-05   5.460481496163134E-05
   5.738321512623368E-05   6.030242008589355E-05   6.336952164377220E-05
   6.659196537307330E-05   6.997756799834333E-05   7.353453561025202E-05
   7.727148275196731E-05   8.119745241654282E-05   8.532193699796190E-05
   8.965490023815477E-05   9.420680021590496E-05   9.898861342438932E-05
   1.040118599863563E-04   1.092886300581411E-04   1.148316114753036E-04
   1.206541186951472E-04   1.267701230937063E-04   1.331942846766112E-04
   1.399419852658561E-04   1.470293632269235E-04   1.544733498029403E-04
   1.622917071253407E-04   1.705030679727634E-04   1.791269773531192E-04
   1.881839359857035E-04   1.976954457633036E-04   2.076840572780372E-04
   2.181734194952414E-04   2.291883316653924E-04   2.407547975647696E-04
   2.529000821596031E-04   2.656527707920128E-04   2.790428309870746E-04
   2.931016769861135E-04   3.078622371122325E-04   3.233590240780649E-04
   3.396282083489421E-04   3.567076946772381E-04   3.746372019269472E-04
   3.934583463104591E-04   4.132147281620389E-04   4.339520223763370E-04
   4.557180726410740E-04   4.785629895977204E-04   5.025392530647928E-04
   5.277018184613306E-04   5.541082275699247E-04   5.818187237804633E-04
   6.108963719570523E-04   6.414071830722997E-04   6.734202437528273E-04
   7.070078508818943E-04   7.422456514031604E-04   7.792127874704672E-04
   8.179920470871358E-04   8.586700203754760E-04   9.013372616164792E-04
   9.460884571954141E-04   9.930225995850449E-04   1.042243167493875E-03
   1.093858312300632E-03   1.147981050888583E-03   1.204729464986855E-03
   1.264226907114007E-03   1.326602213210492E-03   1.391989922032522E-03
   1.460530501367101E-03   1.532370581110839E-03   1.607663193238590E-03
   1.686568018666657E-03   1.769251640994371E-03   1.855887807082523E-03
   1.946657694399404E-03   2.041750185036498E-03   2.141362146261104E-03
   2.245698717437746E-03   2.354973603110385E-03   2.469409371993069E-03
   2.589237761570142E-03   2.714699987954872E-03   2.846047060598326E-03
   2.983540101381445E-03   3.127450667554333E-03   3.278061077917853E-03
   3.435664741563799E-03   3.600566488407343E-03   3.773082900656276E-03
   3.953542644264568E-03   4.142286799315392E-03   4.339669188167668E-03
   4.546056700082132E-03   4.761829610916688E-03   4.987381896345690E-03
   5.223121536914896E-03   5.469470813090506E-03   5.726866588299444E-03
   5.995760577785823E-03   6.276619600926922E-03   6.569925814459902E-03
   6.876176923868534E-03   7.195886369964829E-03   7.529583487477710E-03
   7.877813632224987E-03   8.241138273198827E-03   8.620135045638935E-03
   9.015397760898155E-03   9.427536368628650E-03   9.857176866526597E-03
   1.030496115257523E-02   1.077154681441837E-02   1.125760685017911E-02
   1.176382931471498E-02   1.229091688496936E-02   1.283958633774209E-02
   1.341056793286325E-02   1.400460469440950E-02   1.462245158226211E-02
   1.526487454596313E-02   1.593264945249212E-02   1.662656087925644E-02
   1.734740076327237E-02   1.809596689721181E-02   1.887306126270661E-02
   1.967948819104282E-02   2.051605234114830E-02   2.138355648457907E-02
   2.228279908705787E-02   2.321457167600869E-02   2.417965598348041E-02
   2.517882085386335E-02   2.621281890588523E-02   2.728238293853886E-02
   2.838822207084776E-02   2.953101760573646E-02   3.071141860874286E-02
   3.193003719290811E-02   3.318744350191954E-02   3.448416038446846E-02
   3.582065775384444E-02   3.719734662802622E-02   3.861457284696267E-02
   4.007261046539019E-02   4.157165482140627E-02   4.311181528314426E-02
   4.469310767827797E-02   4.631544641374492E-02   4.797863629603519E-02
   4.968236406565392E-02   5.142618966295336E-02   5.320953724645316E-02
   5.503168598903595E-02   5.689176068203621E-02   5.878872218222703E-02
   6.072135774207289E-02   6.268827126934352E-02   6.468787356827728E-02
   6.671837262093711E-02   6.877776397419560E-02   7.086382130490586E-02
   7.297408724323470E-02   7.510586454181060E-02   7.725620768624639E-02
   7.942191505065754E-02   8.159952170997256E-02   8.378529302903444E-02
   8.597521915663064E-02   8.816501056058731E-02   9.035009474776655E-02
   9.252561432013427E-02   9.468642652483855E-02   9.682710446230411E-02
   9.894194012155827E-02   1.010249494161139E-01   1.030698793965966E-01
   1.050702178176517E-01   1.070192052362704E-01   1.089098498163132E-01
   1.107349450093644E-01   1.124870902749105E-01   1.141587149928714E-01
   1.157421057084648E-01   1.172294368329714E-01   1.186128049038917E-01
   1.198842664840029E-01   1.210358797506658E-01   1.220597497941672E-01
   1.229480776067406E-01   1.236932127019810E-01   1.242877092576016E-01
   1.247243856227681E-01   1.249963869746267E-01   1.250972508472035E-01
   1.250209751897448E-01   1.247620885410917E-01   1.243157218321783E-01
   1.236776812507165E-01   1.228445215211738E-01   1.218136188699960E-01
   1.205832428615289E-01   1.191526262052190E-01   1.175220315505674E-01
   1.156928142041450E-01   1.136674796241533E-01   1.114497344739182E-01
   1.090445299478826E-01   1.064580960237153E-01   1.036979652436504E-01
   1.007729845888388E-01   9.769331398387432E-02   9.447040995641307E-02
   9.111699298045921E-02   8.764699705285607E-02   8.407550009225115E-02
   8.041863380948053E-02   7.669347177920320E-02   7.291789454584752E-02
   6.911043072363336E-02   6.529007320192359E-02   6.147606974483678E-02
   5.768768747975908E-02   5.394395100552041E-02   5.026335412058094E-02
   4.666354547886777E-02   4.316098883125496E-02   3.977059891119509E-02
   3.650535448267900E-02   3.337589059857633E-02   3.039007273118467E-02
   2.755255615047660E-02   2.486433475780111E-02   2.232228455460929E-02
   1.991870805988167E-02   1.764464677069977E-02   1.550232317233036E-02
   1.349639201214331E-02   1.163049699938484E-02   9.907213458730357E-03
   8.328000494378707E-03   6.893164054989631E-03   5.601832262626949E-03
   4.451944318224099E-03   3.440254220654027E-03   2.562350435391214E-03
   1.812692521565684E-03   1.184665572990462E-03   6.706531500422774E-04
   2.621291762332500E-04  -5.023095258410715E-05  -2.764200451033094E-04
  -4.269498414838924E-04  -5.126833355454385E-04  -5.446495324546441E-04
  -5.338417888414160E-04  -4.910011992019236E-04  -4.263868193234988E-04
  -3.495348552543520E-04  -2.690092978201997E-04  -1.921468529589854E-04
  -1.247994145976428E-04  -7.107775976922248E-05  -3.310062825151450E-05
  -1.075389685156747E-05  -1.465189723270921E-06   1.110223024625157E-16
   0.000000000000000E+00   0.000000000000000E+00   0.000000000000000E+00
   0.000000000000000E+00   0.000000000000000E+00   0.000000000000000E+00
   0.000000000000000E+00   0.000000000000000E+00   0.000000000000000E+00
   0.000000000000000E+00   0.000000000000000E+00   0.000000000000000E+00
   0.000000000000000E+00   0.000000000000000E+00   0.000000000000000E+00
   0.000000000000000E+00   0.000000000000000E+00   0.000000000000000E+00
   0.000000000000000E+00   0.000000000000000E+00   0.000000000000000E+00
   0.000000000000000E+00   0.000000000000000E+00   0.000000000000000E+00
   0.000000000000000E+00   0.000000000000000E+00   0.000000000000000E+00
   0.000000000000000E+00   0.000000000000000E+00   0.000000000000000E+00
   0.000000000000000E+00   0.000000000000000E+00   0.000000000000000E+00
   0.000000000000000E+00   0.000000000000000E+00   0.000000000000000E+00
   0.000000000000000E+00   0.000000000000000E+00   0.000000000000000E+00
   0.000000000000000E+00   0.000000000000000E+00   0.000000000000000E+00
   0.000000000000000E+00   0.000000000000000E+00   0.000000000000000E+00
   0.000000000000000E+00   0.000000000000000E+00   0.000000000000000E+00
   0.000000000000000E+00   0.000000000000000E+00   0.000000000000000E+00
   0.000000000000000E+00   0.000000000000000E+00   0.000000000000000E+00
   0.000000000000000E+00   0.000000000000000E+00   0.000000000000000E+00
   0.000000000000000E+00   0.000000000000000E+00   0.000000000000000E+00
   0.000000000000000E+00   0.000000000000000E+00   0.000000000000000E+00
   0.000000000000000E+00   0.000000000000000E+00   0.000000000000000E+00
   0.000000000000000E+00   0.000000000000000E+00   0.000000000000000E+00
   0.000000000000000E+00   0.000000000000000E+00   0.000000000000000E+00
   0.000000000000000E+00   0.000000000000000E+00   0.000000000000000E+00
   0.000000000000000E+00   0.000000000000000E+00   0.000000000000000E+00
   0.000000000000000E+00   0.000000000000000E+00   0.000000000000000E+00
   0.000000000000000E+00   0.000000000000000E+00   0.000000000000000E+00
   0.000000000000000E+00   0.000000000000000E+00   0.000000000000000E+00
   0.000000000000000E+00   0.000000000000000E+00   0.000000000000000E+00
   0.000000000000000E+00   0.000000000000000E+00   0.000000000000000E+00
   0.000000000000000E+00   0.000000000000000E+00   0.000000000000000E+00
   0.000000000000000E+00   0.000000000000000E+00   0.000000000000000E+00
   0.000000000000000E+00   0.000000000000000E+00   0.000000000000000E+00
   0.000000000000000E+00   0.000000000000000E+00   0.000000000000000E+00
   0.000000000000000E+00   0.000000000000000E+00   0.000000000000000E+00
   0.000000000000000E+00   0.000000000000000E+00   0.000000000000000E+00
   0.000000000000000E+00   0.000000000000000E+00   0.000000000000000E+00
   0.000000000000000E+00   0.000000000000000E+00   0.000000000000000E+00
   0.000000000000000E+00   0.000000000000000E+00   0.000000000000000E+00
   0.000000000000000E+00   0.000000000000000E+00   0.000000000000000E+00
   0.000000000000000E+00   0.000000000000000E+00   0.000000000000000E+00
   0.000000000000000E+00   0.000000000000000E+00   0.000000000000000E+00
   0.000000000000000E+00   0.000000000000000E+00   0.000000000000000E+00
   0.000000000000000E+00   0.000000000000000E+00   0.000000000000000E+00
   0.000000000000000E+00   0.000000000000000E+00   0.000000000000000E+00
   0.000000000000000E+00   0.000000000000000E+00   0.000000000000000E+00
   0.000000000000000E+00   0.000000000000000E+00   0.000000000000000E+00
   0.000000000000000E+00   0.000000000000000E+00   0.000000000000000E+00
   0.000000000000000E+00   0.000000000000000E+00   0.000000000000000E+00
   0.000000000000000E+00   0.000000000000000E+00   0.000000000000000E+00
   0.000000000000000E+00   0.000000000000000E+00   0.000000000000000E+00
   0.000000000000000E+00   0.000000000000000E+00   0.000000000000000E+00
   0.000000000000000E+00   0.000000000000000E+00   0.000000000000000E+00
   0.000000000000000E+00   0.000000000000000E+00   0.000000000000000E+00
   0.000000000000000E+00   0.000000000000000E+00   0.000000000000000E+00
   0.000000000000000E+00   0.000000000000000E+00   0.000000000000000E+00
   0.000000000000000E+00   0.000000000000000E+00   0.000000000000000E+00
   0.000000000000000E+00   0.000000000000000E+00   0.000000000000000E+00
   0.000000000000000E+00   0.000000000000000E+00   0.000000000000000E+00
   0.000000000000000E+00   0.000000000000000E+00   0.000000000000000E+00
   0.000000000000000E+00   0.000000000000000E+00   0.000000000000000E+00
   0.000000000000000E+00   0.000000000000000E+00   0.000000000000000E+00
   0.000000000000000E+00   0.000000000000000E+00   0.000000000000000E+00
   0.000000000000000E+00   0.000000000000000E+00   0.000000000000000E+00
   0.000000000000000E+00   0.000000000000000E+00   0.000000000000000E+00
   0.000000000000000E+00   0.000000000000000E+00   0.000000000000000E+00
   0.000000000000000E+00   0.000000000000000E+00   0.000000000000000E+00
   0.000000000000000E+00   0.000000000000000E+00   0.000000000000000E+00
   0.000000000000000E+00   0.000000000000000E+00   0.000000000000000E+00
   0.000000000000000E+00   0.000000000000000E+00   0.000000000000000E+00
   0.000000000000000E+00   0.000000000000000E+00   0.000000000000000E+00
   0.000000000000000E+00   0.000000000000000E+00   0.000000000000000E+00
   0.000000000000000E+00   0.000000000000000E+00   0.000000000000000E+00
   0.000000000000000E+00   0.000000000000000E+00   0.000000000000000E+00
   0.000000000000000E+00   0.000000000000000E+00   0.000000000000000E+00
   0.000000000000000E+00   0.000000000000000E+00   0.000000000000000E+00
   0.000000000000000E+00   0.000000000000000E+00   0.000000000000000E+00
   0.000000000000000E+00   0.000000000000000E+00   0.000000000000000E+00
   0.000000000000000E+00   0.000000000000000E+00   0.000000000000000E+00
   0.000000000000000E+00   0.000000000000000E+00   0.000000000000000E+00
   0.000000000000000E+00   0.000000000000000E+00   0.000000000000000E+00
   0.000000000000000E+00   0.000000000000000E+00   0.000000000000000E+00
   0.000000000000000E+00   0.000000000000000E+00   0.000000000000000E+00
   0.000000000000000E+00   0.000000000000000E+00   0.000000000000000E+00
   0.000000000000000E+00   0.000000000000000E+00   0.000000000000000E+00
   0.000000000000000E+00   0.000000000000000E+00   0.000000000000000E+00
   0.000000000000000E+00   0.000000000000000E+00   0.000000000000000E+00
   0.000000000000000E+00   0.000000000000000E+00   0.000000000000000E+00
   0.000000000000000E+00   0.000000000000000E+00   0.000000000000000E+00
   0.000000000000000E+00   0.000000000000000E+00   0.000000000000000E+00
   0.000000000000000E+00   0.000000000000000E+00   0.000000000000000E+00
   0.000000000000000E+00   0.000000000000000E+00   0.000000000000000E+00
   0.000000000000000E+00   0.000000000000000E+00   0.000000000000000E+00
   0.000000000000000E+00   0.000000000000000E+00   0.000000000000000E+00
   0.000000000000000E+00   0.000000000000000E+00   0.000000000000000E+00
   0.000000000000000E+00   0.000000000000000E+00   0.000000000000000E+00
   0.000000000000000E+00   0.000000000000000E+00   0.000000000000000E+00
   0.000000000000000E+00   0.000000000000000E+00   0.000000000000000E+00
   0.000000000000000E+00   0.000000000000000E+00   0.000000000000000E+00
   0.000000000000000E+00   0.000000000000000E+00   0.000000000000000E+00
   0.000000000000000E+00   0.000000000000000E+00   0.000000000000000E+00
   0.000000000000000E+00   0.000000000000000E+00   0.000000000000000E+00
   0.000000000000000E+00   0.000000000000000E+00   0.000000000000000E+00
   0.000000000000000E+00   0.000000000000000E+00   0.000000000000000E+00
   0.000000000000000E+00   0.000000000000000E+00   0.000000000000000E+00
   0.000000000000000E+00   0.000000000000000E+00   0.000000000000000E+00
   0.000000000000000E+00   0.000000000000000E+00   0.000000000000000E+00
   0.000000000000000E+00   0.000000000000000E+00   0.000000000000000E+00
   0.000000000000000E+00   0.000000000000000E+00   0.000000000000000E+00
   0.000000000000000E+00   0.000000000000000E+00   0.000000000000000E+00
   0.000000000000000E+00   0.000000000000000E+00   0.000000000000000E+00
   0.000000000000000E+00   0.000000000000000E+00   0.000000000000000E+00
   0.000000000000000E+00   0.000000000000000E+00   0.000000000000000E+00
   0.000000000000000E+00   0.000000000000000E+00
      </PP_QIJL.3.4.2>
      <PP_QIJL.4.4.0 first_index="4" second_index="4" composite_index="10" angular_momentum="0" size="1085">
   8.920435599146425E-09   9.146257507919188E-09   9.377796125860284E-09
   9.615196172168256E-09   9.858606029626509E-09   1.010817783734737E-08
   1.036406758586410E-08   1.062643521463012E-08   1.089544471198642E-08
   1.117126421765982E-08   1.145406612785567E-08   1.174402720301131E-08
   1.204132867827713E-08   1.234615637679455E-08   1.265870082584172E-08
   1.297915737591921E-08   1.330772632285071E-08   1.364461303297444E-08
   1.399002807150399E-08   1.434418733413860E-08   1.470731218200503E-08
   1.507962958001570E-08   1.546137223872927E-08   1.585277875980249E-08
   1.625409378512422E-08   1.666556814972463E-08   1.708745903855556E-08
   1.752003014723965E-08   1.796355184688886E-08   1.841830135309555E-08
   1.888456289920133E-08   1.936262791395248E-08   1.985279520365265E-08
   2.035537113892673E-08   2.087066984621296E-08   2.139901340410213E-08
   2.194073204464779E-08   2.249616435977221E-08   2.306565751289773E-08
   2.364956745593567E-08   2.424825915176803E-08   2.486210680236172E-08
   2.549149408265735E-08   2.613681438037898E-08   2.679847104191486E-08
   2.747687762442230E-08   2.817245815431502E-08   2.888564739229395E-08
   2.961689110508744E-08   3.036664634407060E-08   3.113538173093776E-08
   3.192357775060710E-08   3.273172705153993E-08   3.356033475366280E-08
   3.440991876408485E-08   3.528101010080703E-08   3.617415322462681E-08
   3.708990637944458E-08   3.802884194118532E-08   3.899154677555324E-08
   3.997862260484276E-08   4.099068638403576E-08   4.202837068641965E-08
   4.309232409896733E-08   4.418321162772691E-08   4.530171511347277E-08
   4.644853365788005E-08   4.762438406048743E-08   4.883000126672146E-08
   5.006613882726344E-08   5.133356936904430E-08   5.263308507816372E-08
   5.396549819503403E-08   5.533164152205872E-08   5.673236894416368E-08
   5.816855596250449E-08   5.964110024168597E-08   6.115092217083396E-08
   6.269896543887115E-08   6.428619762435621E-08   6.591361080025421E-08
   6.758222215401789E-08   6.929307462336589E-08   7.104723754815589E-08
   7.284580733876077E-08   7.468990816136373E-08   7.658069264060290E-08
   7.851934258000323E-08   8.050706970064615E-08   8.254511639853970E-08
   8.463475652116021E-08   8.677729616365391E-08   8.897407448519386E-08
   9.122646454600336E-08   9.353587416556934E-08   9.590374680258054E-08
   9.833156245714316E-08   1.008208385958352E-07   1.033731311001793E-07
   1.059900352391279E-07   1.086731866661635E-07   1.114242624416456E-07
   1.142449820810352E-07   1.171371086296570E-07   1.201024497646704E-07
   1.231428589249348E-07   1.262602364694803E-07   1.294565308653053E-07
   1.327337399052420E-07   1.360939119566554E-07   1.395391472417510E-07
   1.430715991502952E-07   1.466934755855689E-07   1.504070403443928E-07
   1.542146145320898E-07   1.581185780132674E-07   1.621213708993272E-07
   1.662254950736325E-07   1.704335157552851E-07   1.747480631024910E-07
   1.791718338565150E-07   1.837075930272538E-07   1.883581756214806E-07
   1.931264884148394E-07   1.980155117687023E-07   2.030283014930161E-07
   2.081679907563126E-07   2.134377920440700E-07   2.188409991666519E-07
   2.243809893180791E-07   2.300612251869189E-07   2.358852571206145E-07
   2.418567253446063E-07   2.479793622376293E-07   2.542569946646161E-07
   2.606935463686528E-07   2.672930404234936E-07   2.740596017481620E-07
   2.809974596852090E-07   2.881109506442463E-07   2.954045208123960E-07
   3.028827289333647E-07   3.105502491568674E-07   3.184118739601890E-07
   3.264725171437094E-07   3.347372169022576E-07   3.432111389742263E-07
   3.518995798704057E-07   3.608079701845582E-07   3.699418779878085E-07
   3.793070123089572E-07   3.889092267029106E-07   3.987545229094451E-07
   4.088490546045973E-07   4.191991312470280E-07   4.298112220217541E-07
   4.406919598837291E-07   4.518481457037868E-07   4.632867525195438E-07
   4.750149298939254E-07   4.870400083840231E-07   4.993695041230954E-07
   5.120111235185653E-07   5.249727680689511E-07   5.382625393027554E-07
   5.518887438423665E-07   5.658598985961918E-07   5.801847360822067E-07
   5.948722098862973E-07   6.099315002587860E-07   6.253720198526302E-07
   6.412034196069140E-07   6.574355947792703E-07   6.740786911310346E-07
   6.911431112689902E-07   7.086395211476466E-07   7.265788567361690E-07
   7.449723308540564E-07   7.638314401799038E-07   7.831679724376006E-07
   8.029940137644449E-07   8.233219562658276E-07   8.441645057611491E-07
   8.655346897258602E-07   8.874458654345698E-07   9.099117283102980E-07
   9.329463204851437E-07   9.565640395776498E-07   9.807796476924087E-07
   1.005608280647521E-06   1.031065457435641E-06   1.057167089924599E-06
   1.083929492803579E-06   1.111369393781131E-06   1.139503944041382E-06
   1.168350728964949E-06   1.197927779121320E-06   1.228253581539512E-06
   1.259347091264086E-06   1.291227743203762E-06   1.323915464279974E-06
   1.357430685883068E-06   1.391794356643808E-06   1.427027955528285E-06
   1.463153505264356E-06   1.500193586107997E-06   1.538171349958259E-06
   1.577110534829537E-06   1.617035479690306E-06   1.657971139677550E-06
   1.699943101696375E-06   1.742977600414658E-06   1.787101534662601E-06
   1.832342484247555E-06   1.878728727194593E-06   1.926289257423553E-06
   1.975053802873754E-06   2.025052844087532E-06   2.076317633264374E-06
   2.128880213797500E-06   2.182773440305069E-06   2.238030999168663E-06
   2.294687429591740E-06   2.352778145191349E-06   2.412339456136571E-06
   2.473408591847456E-06   2.536023724268844E-06   2.600223991733393E-06
   2.666049523428907E-06   2.733541464485247E-06   2.802742001696387E-06
   2.873694389893938E-06   2.946442978988378E-06   3.021033241695109E-06
   3.097511801962595E-06   3.175926464120305E-06   3.256326242764906E-06
   3.338761393403114E-06   3.423283443870609E-06   3.509945226546599E-06
   3.598800911384064E-06   3.689906039776626E-06   3.783317559282906E-06
   3.879093859230330E-06   3.977294807220599E-06   4.077981786559598E-06
   4.181217734635273E-06   4.287067182267394E-06   4.395596294053902E-06
   4.506872909739064E-06   4.620966586629279E-06   4.737948643083187E-06
   4.857892203103173E-06   4.980872242056270E-06   5.106965633553066E-06
   5.236251197513874E-06   5.368809749452393E-06   5.504724151007571E-06
   5.644079361755391E-06   5.786962492333016E-06   5.933462858908452E-06
   6.083672039029998E-06   6.237683928890269E-06   6.395594802040777E-06
   6.557503369593829E-06   6.723510841949290E-06   6.893720992085124E-06
   7.068240220451058E-06   7.247177621506232E-06   7.430645051942466E-06
   7.618757200635710E-06   7.811631660369769E-06   8.009389001376955E-06
   8.212152846741935E-06   8.420049949715947E-06   8.633210272989738E-06
   8.851767069975079E-06   9.075856968145571E-06   9.305620054489117E-06
   9.541199963125636E-06   9.782743965144680E-06   1.003040306071963E-05
   1.028433207355588E-05   1.054468974773242E-05   1.081163884699740E-05
   1.108534625658002E-05   1.136598308758254E-05   1.165372478401779E-05
   1.194875123255945E-05   1.225124687507390E-05   1.256140082400398E-05
   1.287940698067743E-05   1.320546415661384E-05   1.353977619790651E-05
   1.388255211275714E-05   1.423400620224316E-05   1.459435819440026E-05
   1.496383338170373E-05   1.534266276203525E-05   1.573108318322355E-05
   1.612933749124946E-05   1.653767468220881E-05   1.695635005812818E-05
   1.738562538673156E-05   1.782576906525846E-05   1.827705628843577E-05
   1.873976922070966E-05   1.921419717284504E-05   1.970063678300409E-05
   2.019939220241733E-05   2.071077528576395E-05   2.123510578638141E-05
   2.177271155642651E-05   2.232392875211429E-05   2.288910204416360E-05
   2.346858483358159E-05   2.406273947292336E-05   2.467193749316523E-05
   2.529655983633514E-05   2.593699709404635E-05   2.659364975208416E-05
   2.726692844120051E-05   2.795725419427365E-05   2.866505870999523E-05
   2.939078462325076E-05   3.013488578236432E-05   3.089782753338104E-05
   3.168008701156815E-05   3.248215344031717E-05   3.330452843763623E-05
   3.414772633042609E-05   3.501227447673717E-05   3.589871359621246E-05
   3.680759810892345E-05   3.773949648281403E-05   3.869499158997131E-05
   3.967468107194811E-05   4.067917771436912E-05   4.170910983105593E-05
   4.276512165791513E-05   4.384787375683793E-05   4.495804342986642E-05
   4.609632514388951E-05   4.726343096613674E-05   4.846009101074548E-05
   4.968705389668532E-05   5.094508721732809E-05   5.223497802196308E-05
   5.355753330956124E-05   5.491358053510199E-05   5.630396812878465E-05
   5.772956602845173E-05   5.919126622556505E-05   6.068998332507949E-05
   6.222665511957024E-05   6.380224317797972E-05   6.541773344935659E-05
   6.707413688197291E-05   6.877249005821197E-05   7.051385584563181E-05
   7.229932406461932E-05   7.413001217305878E-05   7.600706596845396E-05
   7.793166030794924E-05   7.990499984671062E-05   8.192831979513833E-05
   8.400288669539234E-05   8.612999921773061E-05   8.831098897716695E-05
   9.054722137097105E-05   9.284009643754912E-05   9.519104973725093E-05
   9.760155325567303E-05   1.000731163300334E-04   1.026072865992135E-04
   1.052056509780789E-04   1.078698366567015E-04   1.106015121251281E-04
   1.134023882243551E-04   1.162742192241828E-04   1.192188039286483E-04
   1.222379868097434E-04   1.253336591701557E-04   1.285077603357793E-04
   1.317622788787657E-04   1.350992538719073E-04   1.385207761751656E-04
   1.420289897551732E-04   1.456260930385708E-04   1.493143403000515E-04
   1.530960430860172E-04   1.569735716747718E-04   1.609493565741966E-04
   1.650258900578892E-04   1.692057277407621E-04   1.734914901951291E-04
   1.778858646083379E-04   1.823916064830246E-04   1.870115413811103E-04
   1.917485667126757E-04   1.966056535708887E-04   2.015858486141881E-04
   2.066922759969572E-04   2.119281393499618E-04   2.172967238118489E-04
   2.228013981130507E-04   2.284456167134665E-04   2.342329219953286E-04
   2.401669465127128E-04   2.462514152991721E-04   2.524901482350279E-04
   2.588870624758913E-04   2.654461749440184E-04   2.721716048841705E-04
   2.790675764856689E-04   2.861384215724003E-04   2.933885823625681E-04
   3.008226143000289E-04   3.084451889591191E-04   3.162610970249124E-04
   3.242752513509107E-04   3.324926900962279E-04   3.409185799443701E-04
   3.495582194057917E-04   3.584170422064529E-04   3.675006207646708E-04
   3.768146697586180E-04   3.863650497868871E-04   3.961577711246132E-04
   4.061989975777020E-04   4.164950504377946E-04   4.270524125406697E-04
   4.378777324308468E-04   4.489778286352540E-04   4.603596940488831E-04
   4.720305004354423E-04   4.839976030461131E-04   4.962685453595715E-04
   5.088510639465697E-04   5.217530934624225E-04   5.349827717708580E-04
   5.485484452027946E-04   5.624586739536745E-04   5.767222376231343E-04
   5.913481409008508E-04   6.063456194025389E-04   6.217241456601836E-04
   6.374934352706797E-04   6.536634532072148E-04   6.702444202978099E-04
   6.872468198755739E-04   7.046814046053659E-04   7.225592034916578E-04
   7.408915290725688E-04   7.596899848051470E-04   7.789664726471239E-04
   7.987332008405315E-04   8.190026919026835E-04   8.397877908302299E-04
   8.611016735220968E-04   8.829578554273244E-04   9.053702004239730E-04
   9.283529299354116E-04   9.519206322905350E-04   9.760882723345719E-04
   1.000871201297375E-03   1.026285166926258E-03   1.052346323890623E-03
   1.079071244465844E-03   1.106476929504075E-03   1.134580819699815E-03
   1.163400807158341E-03   1.192955247275267E-03   1.223262970935767E-03
   1.254343297042193E-03   1.286216045379032E-03   1.318901549824453E-03
   1.352420671917810E-03   1.386794814792858E-03   1.422045937486555E-03
   1.458196569633656E-03   1.495269826557520E-03   1.533289424767817E-03
   1.572279697876089E-03   1.612265612940388E-03   1.653272787250437E-03
   1.695327505565114E-03   1.738456737814194E-03   1.782688157276730E-03
   1.828050159248544E-03   1.874571880211711E-03   1.922283217519112E-03
   1.971214849607394E-03   2.021398256752023E-03   2.072865742378271E-03
   2.125650454942298E-03   2.179786410396754E-03   2.235308515255477E-03
   2.292252590272242E-03   2.350655394748608E-03   2.410554651486185E-03
   2.471989072398876E-03   2.534998384800687E-03   2.599623358385088E-03
   2.665905832911840E-03   2.733888746617421E-03   2.803616165365311E-03
   2.875133312552334E-03   2.948486599787434E-03   3.023723658359154E-03
   3.100893371508055E-03   3.180045907520268E-03   3.261232753658130E-03
   3.344506750943796E-03   3.429922129811289E-03   3.517534546642273E-03
   3.607401121200356E-03   3.699580474978176E-03   3.794132770471144E-03
   3.891119751390840E-03   3.990604783830414E-03   4.092652898393374E-03
   4.197330833296160E-03   4.304707078453762E-03   4.414851920556274E-03
   4.527837489142855E-03   4.643737803677927E-03   4.762628821632512E-03
   4.884588487571742E-03   5.009696783247084E-03   5.138035778689527E-03
   5.269689684297058E-03   5.404744903906680E-03   5.543290088838066E-03
   5.685416192891992E-03   5.831216528282798E-03   5.980786822479708E-03
   6.134225275926840E-03   6.291632620606700E-03   6.453112179405989E-03
   6.618769926236346E-03   6.788714546855962E-03   6.963057500330232E-03
   7.141913081062160E-03   7.325398481313937E-03   7.513633854132038E-03
   7.706742376577961E-03   7.904850313155446E-03   8.108087079313514E-03
   8.316585304891532E-03   8.530480897358698E-03   8.749913104685630E-03
   8.975024577669362E-03   9.205961431516221E-03   9.442873306468171E-03
   9.685913427238475E-03   9.935238661001284E-03   1.019100957365654E-02
   1.045339048406759E-02   1.072254951594232E-02   1.099865864700074E-02
   1.128189375504200E-02   1.157243466049184E-02   1.187046516497759E-02
   1.217617308544118E-02   1.248975028326225E-02   1.281139268782244E-02
   1.314130031389748E-02   1.347967727221864E-02   1.382673177249459E-02
   1.418267611813306E-02   1.454772669184713E-02   1.492210393127114E-02
   1.530603229365113E-02   1.569974020860860E-02   1.610346001790819E-02
   1.651742790108796E-02   1.694188378573428E-02   1.737707124110500E-02
   1.782323735372005E-02   1.828063258345157E-02   1.874951059855517E-02
   1.923012808798730E-02   1.972274454925631E-02   2.022762204995079E-02
   2.074502496098233E-02   2.127521965946985E-02   2.181847419907794E-02
   2.237505794550572E-02   2.294524117470148E-02   2.352929463125572E-02
   2.412748904430045E-02   2.474009459811449E-02   2.536738035450756E-02
   2.600961362392527E-02   2.666705928208961E-02   2.733997902886068E-02
   2.802863058587915E-02   2.873326682942745E-02   2.945413485482729E-02
   3.019147496857949E-02   3.094551960434698E-02   3.171649215878439E-02
   3.250460574313524E-02   3.331006184644442E-02   3.413304890617989E-02
   3.497374078202145E-02   3.583229512855850E-02   3.670885166265241E-02
   3.760353032125637E-02   3.851642930555980E-02   3.944762300743458E-02
   4.039715981431047E-02   4.136505978880964E-02   4.235131221971827E-02
   4.335587304118563E-02   4.437866211741614E-02   4.541956039056438E-02
   4.647840689007224E-02   4.755499560229571E-02   4.864907219997779E-02
   4.976033063193262E-02   5.088840957422670E-02   5.203288874518710E-02
   5.319328508773773E-02   5.436904882387946E-02   5.555955938759277E-02
   5.676412124406498E-02   5.798195960494170E-02   5.921221605127282E-02
   6.045394407799241E-02   6.170610457613502E-02   6.296756127156328E-02
   6.423707614177292E-02   6.551330483535114E-02   6.679479212190476E-02
   6.807996740374761E-02   6.936714032433838E-02   7.065449651240156E-02
   7.194009350482512E-02   7.322185689581701E-02   7.449757676439701E-02
   7.576490443708518E-02   7.702134964761270E-02   7.826427816057362E-02
   7.949090993115235E-02   8.069831787833556E-02   8.188342735430242E-02
   8.304301639793790E-02   8.417371686553209E-02   8.527201653665813E-02
   8.633426229785042E-02   8.735666451092380E-02   8.833530267647599E-02
   8.926613250613462E-02   9.014499451931836E-02   9.096762428148483E-02
   9.172966440085320E-02   9.242667839921571E-02   9.305416656944272E-02
   9.360758392741596E-02   9.408236035911582E-02   9.447392305416333E-02
   9.477772130498731E-02   9.498925373562894E-02   9.510409800570239E-02
   9.511794301286756E-02   9.502662359100980E-02   9.482615767084078E-02
   9.451278583451582E-02   9.408301315580965E-02   9.353365317214092E-02
   9.286187378405440E-02   9.206524482148624E-02   9.114178695414711E-02
   9.009002155563768E-02   8.890902105754192E-02   8.759845925094487E-02
   8.615866090892381E-02   8.459065001513044E-02   8.289619579129971E-02
   8.107785562137269E-02   7.913901387310848E-02   7.708391552104644E-02
   7.491769337932166E-02   7.264638766122113E-02   7.027695649704783E-02
   6.781727596573292E-02   6.527612813197275E-02   6.266317553326951E-02
   5.998892053419001E-02   5.726464796305038E-02   5.450234947403342E-02
   5.171462814072307E-02   4.891458189088482E-02   4.611566454279051E-02
   4.333152340648576E-02   4.057581267506084E-02   3.786198215692067E-02
   3.520304129571167E-02   3.261129889461850E-02   3.009807951010155E-02
   2.767341810942328E-02   2.534573529751623E-02   2.312149621099325E-02
   2.100485704695216E-02   1.899730413545347E-02   1.709729146747462E-02
   1.529988364117624E-02   1.359904556170444E-02   1.199640199544477E-02
   1.049521619391408E-02   9.097994545770316E-03   7.806447997795174E-03
   6.621461021326436E-03   5.543069121316080E-03   4.570445847575655E-03
   3.701900210315467E-03   2.934885323774838E-03   2.266019001842201E-03
   1.691116907733992E-03   1.205238716103729E-03   8.027475808192186E-04
   4.773830161011738E-04   2.223470939968220E-04   3.040363915354782E-05
  -1.060101354101450E-04  -1.946603579952022E-04  -2.433826603463751E-04
  -2.599391077170721E-04  -2.518675065718845E-04  -2.263249778014509E-04
  -1.899279643093055E-04  -1.485911253185368E-04  -1.073678566801128E-04
  -7.029546879241955E-05  -4.024835490845646E-05  -1.880279727975442E-05
  -6.117392389426435E-06  -8.334359861139617E-07   5.551115123125783E-17
   0.000000000000000E+00   0.000000000000000E+00   0.000000000000000E+00
   0.000000000000000E+00   0.000000000000000E+00   0.000000000000000E+00
   0.000000000000000E+00   0.000000000000000E+00   0.000000000000000E+00
   0.000000000000000E+00   0.000000000000000E+00   0.000000000000000E+00
   0.000000000000000E+00   0.000000000000000E+00   0.000000000000000E+00
   0.000000000000000E+00   0.000000000000000E+00   0.000000000000000E+00
   0.000000000000000E+00   0.000000000000000E+00   0.000000000000000E+00
   0.000000000000000E+00   0.000000000000000E+00   0.000000000000000E+00
   0.000000000000000E+00   0.000000000000000E+00   0.000000000000000E+00
   0.000000000000000E+00   0.000000000000000E+00   0.000000000000000E+00
   0.000000000000000E+00   0.000000000000000E+00   0.000000000000000E+00
   0.000000000000000E+00   0.000000000000000E+00   0.000000000000000E+00
   0.000000000000000E+00   0.000000000000000E+00   0.000000000000000E+00
   0.000000000000000E+00   0.000000000000000E+00   0.000000000000000E+00
   0.000000000000000E+00   0.000000000000000E+00   0.000000000000000E+00
   0.000000000000000E+00   0.000000000000000E+00   0.000000000000000E+00
   0.000000000000000E+00   0.000000000000000E+00   0.000000000000000E+00
   0.000000000000000E+00   0.000000000000000E+00   0.000000000000000E+00
   0.000000000000000E+00   0.000000000000000E+00   0.000000000000000E+00
   0.000000000000000E+00   0.000000000000000E+00   0.000000000000000E+00
   0.000000000000000E+00   0.000000000000000E+00   0.000000000000000E+00
   0.000000000000000E+00   0.000000000000000E+00   0.000000000000000E+00
   0.000000000000000E+00   0.000000000000000E+00   0.000000000000000E+00
   0.000000000000000E+00   0.000000000000000E+00   0.000000000000000E+00
   0.000000000000000E+00   0.000000000000000E+00   0.000000000000000E+00
   0.000000000000000E+00   0.000000000000000E+00   0.000000000000000E+00
   0.000000000000000E+00   0.000000000000000E+00   0.000000000000000E+00
   0.000000000000000E+00   0.000000000000000E+00   0.000000000000000E+00
   0.000000000000000E+00   0.000000000000000E+00   0.000000000000000E+00
   0.000000000000000E+00   0.000000000000000E+00   0.000000000000000E+00
   0.000000000000000E+00   0.000000000000000E+00   0.000000000000000E+00
   0.000000000000000E+00   0.000000000000000E+00   0.000000000000000E+00
   0.000000000000000E+00   0.000000000000000E+00   0.000000000000000E+00
   0.000000000000000E+00   0.000000000000000E+00   0.000000000000000E+00
   0.000000000000000E+00   0.000000000000000E+00   0.000000000000000E+00
   0.000000000000000E+00   0.000000000000000E+00   0.000000000000000E+00
   0.000000000000000E+00   0.000000000000000E+00   0.000000000000000E+00
   0.000000000000000E+00   0.000000000000000E+00   0.000000000000000E+00
   0.000000000000000E+00   0.000000000000000E+00   0.000000000000000E+00
   0.000000000000000E+00   0.000000000000000E+00   0.000000000000000E+00
   0.000000000000000E+00   0.000000000000000E+00   0.000000000000000E+00
   0.000000000000000E+00   0.000000000000000E+00   0.000000000000000E+00
   0.000000000000000E+00   0.000000000000000E+00   0.000000000000000E+00
   0.000000000000000E+00   0.000000000000000E+00   0.000000000000000E+00
   0.000000000000000E+00   0.000000000000000E+00   0.000000000000000E+00
   0.000000000000000E+00   0.000000000000000E+00   0.000000000000000E+00
   0.000000000000000E+00   0.000000000000000E+00   0.000000000000000E+00
   0.000000000000000E+00   0.000000000000000E+00   0.000000000000000E+00
   0.000000000000000E+00   0.000000000000000E+00   0.000000000000000E+00
   0.000000000000000E+00   0.000000000000000E+00   0.000000000000000E+00
   0.000000000000000E+00   0.000000000000000E+00   0.000000000000000E+00
   0.000000000000000E+00   0.000000000000000E+00   0.000000000000000E+00
   0.000000000000000E+00   0.000000000000000E+00   0.000000000000000E+00
   0.000000000000000E+00   0.000000000000000E+00   0.000000000000000E+00
   0.000000000000000E+00   0.000000000000000E+00   0.000000000000000E+00
   0.000000000000000E+00   0.000000000000000E+00   0.000000000000000E+00
   0.000000000000000E+00   0.000000000000000E+00   0.000000000000000E+00
   0.000000000000000E+00   0.000000000000000E+00   0.000000000000000E+00
   0.000000000000000E+00   0.000000000000000E+00   0.000000000000000E+00
   0.000000000000000E+00   0.000000000000000E+00   0.000000000000000E+00
   0.000000000000000E+00   0.000000000000000E+00   0.000000000000000E+00
   0.000000000000000E+00   0.000000000000000E+00   0.000000000000000E+00
   0.000000000000000E+00   0.000000000000000E+00   0.000000000000000E+00
   0.000000000000000E+00   0.000000000000000E+00   0.000000000000000E+00
   0.000000000000000E+00   0.000000000000000E+00   0.000000000000000E+00
   0.000000000000000E+00   0.000000000000000E+00   0.000000000000000E+00
   0.000000000000000E+00   0.000000000000000E+00   0.000000000000000E+00
   0.000000000000000E+00   0.000000000000000E+00   0.000000000000000E+00
   0.000000000000000E+00   0.000000000000000E+00   0.000000000000000E+00
   0.000000000000000E+00   0.000000000000000E+00   0.000000000000000E+00
   0.000000000000000E+00   0.000000000000000E+00   0.000000000000000E+00
   0.000000000000000E+00   0.000000000000000E+00   0.000000000000000E+00
   0.000000000000000E+00   0.000000000000000E+00   0.000000000000000E+00
   0.000000000000000E+00   0.000000000000000E+00   0.000000000000000E+00
   0.000000000000000E+00   0.000000000000000E+00   0.000000000000000E+00
   0.000000000000000E+00   0.000000000000000E+00   0.000000000000000E+00
   0.000000000000000E+00   0.000000000000000E+00   0.000000000000000E+00
   0.000000000000000E+00   0.000000000000000E+00   0.000000000000000E+00
   0.000000000000000E+00   0.000000000000000E+00   0.000000000000000E+00
   0.000000000000000E+00   0.000000000000000E+00   0.000000000000000E+00
   0.000000000000000E+00   0.000000000000000E+00   0.000000000000000E+00
   0.000000000000000E+00   0.000000000000000E+00   0.000000000000000E+00
   0.000000000000000E+00   0.000000000000000E+00   0.000000000000000E+00
   0.000000000000000E+00   0.000000000000000E+00   0.000000000000000E+00
   0.000000000000000E+00   0.000000000000000E+00   0.000000000000000E+00
   0.000000000000000E+00   0.000000000000000E+00   0.000000000000000E+00
   0.000000000000000E+00   0.000000000000000E+00   0.000000000000000E+00
   0.000000000000000E+00   0.000000000000000E+00   0.000000000000000E+00
   0.000000000000000E+00   0.000000000000000E+00   0.000000000000000E+00
   0.000000000000000E+00   0.000000000000000E+00   0.000000000000000E+00
   0.000000000000000E+00   0.000000000000000E+00   0.000000000000000E+00
   0.000000000000000E+00   0.000000000000000E+00   0.000000000000000E+00
   0.000000000000000E+00   0.000000000000000E+00   0.000000000000000E+00
   0.000000000000000E+00   0.000000000000000E+00   0.000000000000000E+00
   0.000000000000000E+00   0.000000000000000E+00   0.000000000000000E+00
   0.000000000000000E+00   0.000000000000000E+00   0.000000000000000E+00
   0.000000000000000E+00   0.000000000000000E+00   0.000000000000000E+00
   0.000000000000000E+00   0.000000000000000E+00   0.000000000000000E+00
   0.000000000000000E+00   0.000000000000000E+00   0.000000000000000E+00
   0.000000000000000E+00   0.000000000000000E+00   0.000000000000000E+00
   0.000000000000000E+00   0.000000000000000E+00   0.000000000000000E+00
   0.000000000000000E+00   0.000000000000000E+00   0.000000000000000E+00
   0.000000000000000E+00   0.000000000000000E+00   0.000000000000000E+00
   0.000000000000000E+00   0.000000000000000E+00   0.000000000000000E+00
   0.000000000000000E+00   0.000000000000000E+00   0.000000000000000E+00
   0.000000000000000E+00   0.000000000000000E+00   0.000000000000000E+00
   0.000000000000000E+00   0.000000000000000E+00   0.000000000000000E+00
   0.000000000000000E+00   0.000000000000000E+00   0.000000000000000E+00
   0.000000000000000E+00   0.000000000000000E+00   0.000000000000000E+00
   0.000000000000000E+00   0.000000000000000E+00   0.000000000000000E+00
   0.000000000000000E+00   0.000000000000000E+00   0.000000000000000E+00
   0.000000000000000E+00   0.000000000000000E+00   0.000000000000000E+00
   0.000000000000000E+00   0.000000000000000E+00   0.000000000000000E+00
   0.000000000000000E+00   0.000000000000000E+00   0.000000000000000E+00
   0.000000000000000E+00   0.000000000000000E+00
      </PP_QIJL.4.4.0>
      <PP_QIJL.4.4.2 first_index="4" second_index="4" composite_index="10" angular_momentum="2" size="1085">
   1.975524143078293E-15   2.076811426524145E-15   2.183291819629437E-15
   2.295231578787927E-15   2.412910611648130E-15   2.536623177027865E-15
   2.666678620714265E-15   2.803402148989002E-15   2.947135641812971E-15
   3.098238507703894E-15   3.257088582444298E-15   3.424083073867304E-15
   3.599639555082589E-15   3.784197008626050E-15   3.978216924144252E-15
   4.182184452358157E-15   4.396609618191978E-15   4.622028596100339E-15
   4.859005050782850E-15   5.108131546638617E-15   5.370031029484819E-15
   5.645358384244738E-15   5.934802072500039E-15   6.239085854002087E-15
   6.558970596447087E-15   6.895256178040077E-15   7.248783487605669E-15
   7.620436527246417E-15   8.011144622806732E-15   8.421884747669749E-15
   8.853683965697454E-15   9.307621999423200E-15   9.784833929917977E-15
   1.028651303508177E-14   1.081391377345717E-14   1.136835492102596E-14
   1.195122286883288E-14   1.256397508968186E-14   1.320814378257339E-14
   1.388533970399626E-14   1.459725619565310E-14   1.534567341869216E-14
   1.613246280503232E-14   1.695959173691211E-14   1.782912846636447E-14
   1.874324728691734E-14   1.970423397045349E-14   2.071449148282334E-14
   2.177654599250322E-14   2.289305318732409E-14   2.406680491506473E-14
   2.530073616451576E-14   2.659793240446947E-14   2.796163729898734E-14
   2.939526081823770E-14   3.090238776518316E-14   3.248678673944129E-14
   3.415241956073075E-14   3.590345117546749E-14   3.774426007128216E-14
   3.967944922549999E-14   4.171385761496070E-14   4.385257231595843E-14
   4.610094122455753E-14   4.846458642909247E-14   5.094941826828777E-14
   5.356165011015317E-14   5.630781388860691E-14   5.919477643667699E-14
   6.222975665712277E-14   6.542034357340949E-14   6.877451530617601E-14
   7.230065902264376E-14   7.600759190885100E-14   7.990458321715610E-14
   8.400137744413455E-14   8.830821869683204E-14   9.283587630829778E-14
   9.759567176645094E-14   1.025995070236171E-13   1.078598942575193E-13
   1.133899871581459E-13   1.192036138187254E-13   1.253153113130512E-13
   1.317403620456221E-13   1.384948319654830E-13   1.455956107393308E-13
   1.530604539843289E-13   1.609080276662390E-13   1.691579547738878E-13
   1.778308643866711E-13   1.869484432577997E-13   1.965334900422625E-13
   2.066099723051052E-13   2.172030864525802E-13   2.283393207360111E-13
   2.400465214859310E-13   2.523539627420966E-13   2.652924194534989E-13
   2.788942444314032E-13   2.931934492478302E-13   3.082257892817829E-13
   3.240288531258595E-13   3.406421565768210E-13   3.581072414451407E-13
   3.764677794305880E-13   3.957696813236141E-13   4.160612118055771E-13
   4.373931101348664E-13   4.598187170207118E-13   4.833941080019002E-13
   5.081782336639384E-13   5.342330670452543E-13   5.616237586010329E-13
   5.904187991121671E-13   6.206901909466703E-13   6.525136281017960E-13
   6.859686854770563E-13   7.211390178513959E-13   7.581125690620882E-13
   7.969817919083633E-13   8.378438793296709E-13   8.808010074366056E-13
   9.259605910021944E-13   9.734355520524140E-13   1.023344602227493E-12
   1.075812539620093E-12   1.130970560832566E-12   1.188956589033584E-12
   1.249915618834450E-12   1.314000078847409E-12   1.381370212832559E-12
   1.452194480386389E-12   1.526649978173834E-12   1.604922882757178E-12
   1.687208916128968E-12   1.773713835113117E-12   1.864653945857827E-12
   1.960256644706827E-12   2.060760986801377E-12   2.166418283834703E-12
   2.277492732453649E-12   2.394262074878732E-12   2.517018293394453E-12
   2.646068340446487E-12   2.781734906171125E-12   2.924357225276362E-12
   3.074291925292004E-12   3.231913918309846E-12   3.397617338443727E-12
   3.571816527353337E-12   3.754947070296194E-12   3.947466885298254E-12
   4.149857368166547E-12   4.362624596206931E-12   4.586300593656551E-12
   4.821444661995396E-12   5.068644778463070E-12   5.328519066277638E-12
   5.601717340232922E-12   5.888922731538433E-12   6.190853395965166E-12
   6.508264309567968E-12   6.841949156474553E-12   7.192742313461638E-12
   7.561520936279681E-12   7.949207152944051E-12   8.356770369475227E-12
   8.785229693854430E-12   9.235656484255050E-12   9.709177027920853E-12
   1.020697535739043E-11   1.073029621110788E-11   1.128044814582364E-11
   1.185880680856691E-11   1.246681837637037E-11   1.310600317234915E-11
   1.377795946717337E-11   1.448436747544102E-11   1.522699355694266E-11
   1.600769463332185E-11   1.682842283117623E-11   1.769123036320600E-11
   1.859827465961624E-11   1.955182376260230E-11   2.055426199740525E-11
   2.160809593411908E-11   2.271596065515278E-11   2.388062634402009E-11
   2.510500521193018E-11   2.639215877949580E-11   2.774530553176894E-11
   2.916782896573870E-11   3.066328605041606E-11   3.223541612065649E-11
   3.388815022695507E-11   3.562562096459525E-11   3.745217280672091E-11
   3.937237296717083E-11   4.139102282023339E-11   4.351316990587091E-11
   4.574412055043460E-11   4.808945313441693E-11   5.055503204041906E-11
   5.314702231620325E-11   5.587190508948732E-11   5.873649377302768E-11
   6.174795110049671E-11   6.491380703575339E-11   6.824197760028019E-11
   7.174078466585275E-11   7.541897676193548E-11   7.928575094981131E-11
   8.335077581814213E-11   8.762421565744656E-11   9.211675587392805E-11
   9.683962970620088E-11   1.018046463116906E-10   1.070242202929383E-10
   1.125114027376201E-10   1.182799138498742E-10   1.243441772545308E-10
   1.307193560599805E-10   1.374213907698570E-10   1.444670391383016E-10
   1.518739180684361E-10   1.596605476588090E-10   1.678463975078994E-10
   1.764519353924499E-10   1.854986784413187E-10   1.950092469327579E-10
   2.050074208496328E-10   2.155181993339231E-10   2.265678631891578E-10
   2.381840405870138E-10   2.503957761423156E-10   2.632336035291376E-10
   2.767296218194853E-10   2.909175757354109E-10   3.058329400151564E-10
   3.215130081041902E-10   3.379969853928743E-10   3.553260872337643E-10
   3.735436419835863E-10   3.926951993274301E-10   4.128286441559134E-10
   4.339943162799681E-10   4.562451362824527E-10   4.796367378211654E-10
   5.042276067139347E-10   5.300792271534010E-10   5.572562354169594E-10
   5.858265814560028E-10   6.158616987683540E-10   6.474366829784274E-10
   6.806304795714326E-10   7.155260812508228E-10   7.522107354121908E-10
   7.907761622521446E-10   8.313187840572284E-10   8.739399662458802E-10
   9.187462707658339E-10   9.658497224801579E-10   1.015368089207658E-09
   1.067425176117417E-09   1.122151135213117E-09   1.179682790680531E-09
   1.240163980911101E-09   1.303745918056283E-09   1.370587566011059E-09
   1.440856037771035E-09   1.514727013156027E-09   1.592385177943758E-09
   1.674024685510919E-09   1.759849641794168E-09   1.850074617211603E-09
   1.944925179184609E-09   2.044638460588770E-09   2.149463749265048E-09
   2.259663111120226E-09   2.375512048400957E-09   2.497300183189489E-09
   2.625331986855768E-09   2.759927535895513E-09   2.901423315307233E-09
   3.050173058545487E-09   3.206548632177730E-09   3.370940962114991E-09
   3.543761015274594E-09   3.725440824505933E-09   3.916434566886648E-09
   4.117219702441852E-09   4.328298161981847E-09   4.550197605868737E-09
   4.783472742661660E-09   5.028706712826856E-09   5.286512544954293E-09
   5.557534692865387E-09   5.842450640513843E-09   6.141972598463496E-09
   6.456849283997631E-09   6.787867773427942E-09   7.135855520451025E-09
   7.501682358829376E-09   7.886262712862276E-09   8.290557872293679E-09
   8.715578405887574E-09   9.162386663566030E-09   9.632099466172614E-09
   1.012589083886632E-08   1.064499499674093E-08   1.119070941804645E-08
   1.176439807680596E-08   1.236749481544296E-08   1.300150700750455E-08
   1.366801925446563E-08   1.436869735319513E-08   1.510529249571756E-08
   1.587964560289069E-08   1.669369193655079E-08   1.754946592722171E-08
   1.844910627640605E-08   1.939486127165679E-08   2.038909440509617E-08
   2.143429028702068E-08   2.253306086832528E-08   2.368815190393750E-08
   2.490244985008533E-08   2.617898908692021E-08   2.752095945528634E-08
   2.893171426154625E-08   3.041477859197120E-08   3.197385817967397E-08
   3.361284860726828E-08   3.533584506737247E-08   3.714715252716127E-08
   3.905129655882290E-08   4.105303455191202E-08   4.315736767167591E-08
   4.536955325656266E-08   4.769511795962744E-08   5.013987157895594E-08
   5.270992153972542E-08   5.541168812776499E-08   5.825192050054648E-08
   6.123771352221582E-08   6.437652548090737E-08   6.767619669296186E-08
   7.114496905957154E-08   7.479150662514422E-08   7.862491713795890E-08
   8.265477490422463E-08   8.689114449316431E-08   9.134460590464872E-08
   9.602628105592312E-08   1.009478613289324E-07   1.061216368456603E-07
   1.115605270847757E-07   1.172781130398551E-07   1.232886711266017E-07
   1.296072087226132E-07   1.362495016431964E-07   1.432321332960957E-07
   1.505725362809835E-07   1.582890354955039E-07   1.664008940505679E-07
   1.749283610506198E-07   1.838927222801537E-07   1.933163529534908E-07
   2.032227736014288E-07   2.136367086070509E-07   2.245841477840182E-07
   2.360924109669288E-07   2.481902161957867E-07   2.609077510577273E-07
   2.742767478758459E-07   2.883305626833004E-07   3.031042581885623E-07
   3.186346909860684E-07   3.349606033242953E-07   3.521227194106078E-07
   3.701638465751764E-07   3.891289819524506E-07   4.090654241395524E-07
   4.300228908674958E-07   4.520536425778504E-07   4.752126122216669E-07
   4.995575418241598E-07   5.251491258500255E-07   5.520511620667884E-07
   5.803307098723015E-07   6.100582568349979E-07   6.413078937094939E-07
   6.741574983264611E-07   7.086889288042344E-07   7.449882267329488E-07
   7.831458304894737E-07   8.232567996382210E-07   8.654210506806453E-07
   9.097436045445837E-07   9.563348471142314E-07   1.005310802659691E-06
   1.056793421256660E-06   1.110910880844389E-06   1.167797904673713E-06
   1.227596094760419E-06   1.290454282358714E-06   1.356528896217507E-06
   1.425984349599513E-06   1.498993446754159E-06   1.575737810157868E-06
   1.656408329461596E-06   1.741205633144081E-06   1.830340583972050E-06
   1.924034799824787E-06   2.022521200574193E-06   2.126044583052227E-06
   2.234862224787039E-06   2.349244518528478E-06   2.469475638734045E-06
   2.595854241821932E-06   2.728694201999399E-06   2.868325383907744E-06
   3.015094454689119E-06   3.169365736952553E-06   3.331522104605065E-06
   3.501965924263222E-06   3.681120043839466E-06   3.869428831206744E-06
   4.067359265071623E-06   4.275402080917271E-06   4.494072974604763E-06
   4.723913866606987E-06   4.965494229786133E-06   5.219412484043839E-06
   5.486297461036032E-06   5.766809942444867E-06   6.061644275607380E-06
   6.371530070060088E-06   6.697233979305163E-06   7.039561571979941E-06
   7.399359296555143E-06   7.777516544503394E-06   8.174967816923466E-06
   8.592694999213897E-06   9.031729749540385E-06   9.493156006640158E-06
   9.978112622776853E-06   1.048779612799193E-05   1.102346363210749E-05
   1.158643587128005E-05   1.217810040613229E-05   1.279991497896347E-05
   1.345341103768448E-05   1.414019743475215E-05   1.486196430951636E-05
   1.562048716299893E-05   1.641763113439375E-05   1.725535548915976E-05
   1.813571832878870E-05   1.906088153322231E-05   2.003311594698440E-05
   2.105480682070652E-05   2.212845952075992E-05   2.325670551913803E-05
   2.444230867802436E-05   2.568817184200786E-05   2.699734375382800E-05
   2.837302630812385E-05   2.981858215984081E-05   3.133754270386134E-05
   3.293361644371360E-05   3.461069776739994E-05   3.637287614995869E-05
   3.822444580255129E-05   4.016991578913914E-05   4.221402063273638E-05
   4.436173143384588E-05   4.661826752542248E-05   4.898910868873795E-05
   5.148000795640327E-05   5.409700502985355E-05   5.684644033915565E-05
   5.973496977491146E-05   6.276958012305162E-05   6.595760523424821E-05
   6.930674296171180E-05   7.282507290177732E-05   7.652107497382268E-05
   8.040364887678707E-05   8.448213446205654E-05   8.876633306307266E-05
   9.326652982399834E-05   9.799351707221150E-05   1.029586187797302E-04
   1.081737161615565E-04   1.136512744602095E-04   1.194043709680907E-04
   1.254467243403460E-04   1.317927252540227E-04   1.384574684704161E-04
   1.454567863598676E-04   1.528072839506641E-04   1.605263755652036E-04
   1.686323231095119E-04   1.771442760838137E-04   1.860823133841547E-04
   1.954674869680910E-04   2.053218674584022E-04   2.156685917625885E-04
   2.265319127869168E-04   2.379372513269916E-04   2.499112502188410E-04
   2.624818308365251E-04   2.756782520253149E-04   2.895311715603973E-04
   3.040727102250595E-04   3.193365186027743E-04   3.353578466805785E-04
   3.521736163628621E-04   3.698224969966329E-04   3.883449840108220E-04
   4.077834807740446E-04   4.281823837765737E-04   4.495881712432209E-04
   4.720494952855289E-04   4.956172777013027E-04   5.203448095310934E-04
   5.462878544807491E-04   5.735047563188119E-04   6.020565503577491E-04
   6.320070791255483E-04   6.634231123342489E-04   6.963744712483840E-04
   7.309341575551437E-04   7.671784868329250E-04   8.051872267127684E-04
   8.450437398207381E-04   8.868351315847206E-04   9.306524029817489E-04
   9.765906082944930E-04   1.024749017937338E-03   1.075231286401159E-03
   1.128145625356343E-03   1.183604981939340E-03   1.241727222234805E-03
   1.302635319949156E-03   1.366457550253763E-03   1.433327688756290E-03
   1.503385215537551E-03   1.576775524166789E-03   1.653650135582796E-03
   1.734166916699067E-03   1.818490303559803E-03   1.906791528840053E-03
   1.999248853444608E-03   2.096047801920961E-03   2.197381401356403E-03
   2.303450423382353E-03   2.414463628856904E-03   2.530638014740335E-03
   2.652199062618739E-03   2.779380988265560E-03   2.912426991560959E-03
   3.051589506014005E-03   3.197130447052626E-03   3.349321458159946E-03
   3.508444153843398E-03   3.674790358325683E-03   3.848662338741277E-03
   4.030373031511270E-03   4.220246260451186E-03   4.418616945040801E-03
   4.625831297152379E-03   4.842247004393264E-03   5.068233398070797E-03
   5.304171603630896E-03   5.550454671258113E-03   5.807487684152212E-03
   6.075687841815887E-03   6.355484515499383E-03   6.647319272751247E-03
   6.951645867818908E-03   7.268930194430858E-03   7.599650197271296E-03
   7.944295738231036E-03   8.303368413284650E-03   8.677381315602983E-03
   9.066858740265903E-03   9.472335825689359E-03   9.894358126628150E-03
   1.033348111336049E-02   1.079026959140389E-02   1.126529703585771E-02
   1.175914483421438E-02   1.227240143123442E-02   1.280566136924020E-02
   1.335952421695262E-02   1.393459337977888E-02   1.453147478425737E-02
   1.515077542918548E-02   1.579310179579996E-02   1.645905810924980E-02
   1.714924444350895E-02   1.786425466181924E-02   1.860467418474336E-02
   1.937107757794803E-02   2.016402595193524E-02   2.098406416610336E-02
   2.183171782975542E-02   2.270749009299068E-02   2.361185822082331E-02
   2.454526994437956E-02   2.550813958364430E-02   2.650084393696377E-02
   2.752371793338118E-02   2.857705004489342E-02   2.966107745687984E-02
   3.077598099628726E-02   3.192187981866056E-02   3.309882585680696E-02
   3.430679803578096E-02   3.554569626098762E-02   3.681533518854114E-02
   3.811543778958495E-02   3.944562872309879E-02   4.080542753478835E-02
   4.219424170298551E-02   4.361135955608929E-02   4.505594308994429E-02
   4.652702071769967E-02   4.802347998910220E-02   4.954406032085414E-02
   5.108734578460249E-02   5.265175800430028E-02   5.423554922008119E-02
   5.583679558139061E-02   5.745339073788304E-02   5.908303980250282E-02
   6.072325376715168E-02   6.237134445737415E-02   6.402442011849156E-02
   6.567938173151155E-02   6.733292016287058E-02   6.898151425750521E-02
   7.062142998983449E-02   7.224872079181974E-02   7.385922918123730E-02
   7.544858981653010E-02   7.701223410691377E-02   7.854539650767643E-02
   8.004312263063849E-02   8.150027929834018E-02   8.291156666754568E-02
   8.427153254284890E-02   8.557458899438215E-02   8.681503138463272E-02
   8.798705989796454E-02   8.908480365244494E-02   9.010234745676349E-02
   9.103376125526089E-02   9.187313228117308E-02   9.261459991201183E-02
   9.325239319144983E-02   9.378087094906276E-02   9.419456441279769E-02
   9.448822216909374E-02   9.465685728225555E-02   9.469579633812787E-02
   9.460073012753975E-02   9.436776563268359E-02   9.399347892493767E-02
   9.347496852609433E-02   9.280990872707633E-02   9.199660229965902E-02
   9.103403197819783E-02   8.992191003072389E-02   8.866072518292155E-02
   8.725178610541143E-02   8.569726062549453E-02   8.400020978012326E-02
   8.216461578848235E-02   8.019540299129797E-02   7.809845078089910E-02
   7.588059753221582E-02   7.354963454120571E-02   7.111428898452660E-02
   6.858419493332386E-02   6.596985148526734E-02   6.328256712289902E-02
   6.053438946304834E-02   5.773801963160723E-02   5.490671058021383E-02
   5.205414875611788E-02   4.919431864356134E-02   4.634134981420917E-02
   4.350934625570971E-02   4.071219789190884E-02   3.796337436678055E-02
   3.527570133897944E-02   3.266111972835628E-02   3.013042857472836E-02
   2.769301241941831E-02   2.535655441045238E-02   2.312673667433504E-02
   2.100692990504737E-02   1.899787461135603E-02   1.709735705640937E-02
   1.529988364117623E-02   1.359904556170444E-02   1.199640199544477E-02
   1.049521619391408E-02   9.097994545770316E-03   7.806447997795174E-03
   6.621461021326436E-03   5.543069121316080E-03   4.570445847575655E-03
   3.701900210315467E-03   2.934885323774838E-03   2.266019001842201E-03
   1.691116907733992E-03   1.205238716103729E-03   8.027475808192186E-04
   4.773830161011738E-04   2.223470939968220E-04   3.040363915354782E-05
  -1.060101354101450E-04  -1.946603579952022E-04  -2.433826603463751E-04
  -2.599391077170721E-04  -2.518675065718845E-04  -2.263249778014509E-04
  -1.899279643093055E-04  -1.485911253185368E-04  -1.073678566801128E-04
  -7.029546879241955E-05  -4.024835490845646E-05  -1.880279727975442E-05
  -6.117392389426435E-06  -8.334359861139617E-07   5.551115123125783E-17
   0.000000000000000E+00   0.000000000000000E+00   0.000000000000000E+00
   0.000000000000000E+00   0.000000000000000E+00   0.000000000000000E+00
   0.000000000000000E+00   0.000000000000000E+00   0.000000000000000E+00
   0.000000000000000E+00   0.000000000000000E+00   0.000000000000000E+00
   0.000000000000000E+00   0.000000000000000E+00   0.000000000000000E+00
   0.000000000000000E+00   0.000000000000000E+00   0.000000000000000E+00
   0.000000000000000E+00   0.000000000000000E+00   0.000000000000000E+00
   0.000000000000000E+00   0.000000000000000E+00   0.000000000000000E+00
   0.000000000000000E+00   0.000000000000000E+00   0.000000000000000E+00
   0.000000000000000E+00   0.000000000000000E+00   0.000000000000000E+00
   0.000000000000000E+00   0.000000000000000E+00   0.000000000000000E+00
   0.000000000000000E+00   0.000000000000000E+00   0.000000000000000E+00
   0.000000000000000E+00   0.000000000000000E+00   0.000000000000000E+00
   0.000000000000000E+00   0.000000000000000E+00   0.000000000000000E+00
   0.000000000000000E+00   0.000000000000000E+00   0.000000000000000E+00
   0.000000000000000E+00   0.000000000000000E+00   0.000000000000000E+00
   0.000000000000000E+00   0.000000000000000E+00   0.000000000000000E+00
   0.000000000000000E+00   0.000000000000000E+00   0.000000000000000E+00
   0.000000000000000E+00   0.000000000000000E+00   0.000000000000000E+00
   0.000000000000000E+00   0.000000000000000E+00   0.000000000000000E+00
   0.000000000000000E+00   0.000000000000000E+00   0.000000000000000E+00
   0.000000000000000E+00   0.000000000000000E+00   0.000000000000000E+00
   0.000000000000000E+00   0.000000000000000E+00   0.000000000000000E+00
   0.000000000000000E+00   0.000000000000000E+00   0.000000000000000E+00
   0.000000000000000E+00   0.000000000000000E+00   0.000000000000000E+00
   0.000000000000000E+00   0.000000000000000E+00   0.000000000000000E+00
   0.000000000000000E+00   0.000000000000000E+00   0.000000000000000E+00
   0.000000000000000E+00   0.000000000000000E+00   0.000000000000000E+00
   0.000000000000000E+00   0.000000000000000E+00   0.000000000000000E+00
   0.000000000000000E+00   0.000000000000000E+00   0.000000000000000E+00
   0.000000000000000E+00   0.000000000000000E+00   0.000000000000000E+00
   0.000000000000000E+00   0.000000000000000E+00   0.000000000000000E+00
   0.000000000000000E+00   0.000000000000000E+00   0.000000000000000E+00
   0.000000000000000E+00   0.000000000000000E+00   0.000000000000000E+00
   0.000000000000000E+00   0.000000000000000E+00   0.000000000000000E+00
   0.000000000000000E+00   0.000000000000000E+00   0.000000000000000E+00
   0.000000000000000E+00   0.000000000000000E+00   0.000000000000000E+00
   0.000000000000000E+00   0.000000000000000E+00   0.000000000000000E+00
   0.000000000000000E+00   0.000000000000000E+00   0.000000000000000E+00
   0.000000000000000E+00   0.000000000000000E+00   0.000000000000000E+00
   0.000000000000000E+00   0.000000000000000E+00   0.000000000000000E+00
   0.000000000000000E+00   0.000000000000000E+00   0.000000000000000E+00
   0.000000000000000E+00   0.000000000000000E+00   0.000000000000000E+00
   0.000000000000000E+00   0.000000000000000E+00   0.000000000000000E+00
   0.000000000000000E+00   0.000000000000000E+00   0.000000000000000E+00
   0.000000000000000E+00   0.000000000000000E+00   0.000000000000000E+00
   0.000000000000000E+00   0.000000000000000E+00   0.000000000000000E+00
   0.000000000000000E+00   0.000000000000000E+00   0.000000000000000E+00
   0.000000000000000E+00   0.000000000000000E+00   0.000000000000000E+00
   0.000000000000000E+00   0.000000000000000E+00   0.000000000000000E+00
   0.000000000000000E+00   0.000000000000000E+00   0.000000000000000E+00
   0.000000000000000E+00   0.000000000000000E+00   0.000000000000000E+00
   0.000000000000000E+00   0.000000000000000E+00   0.000000000000000E+00
   0.000000000000000E+00   0.000000000000000E+00   0.000000000000000E+00
   0.000000000000000E+00   0.000000000000000E+00   0.000000000000000E+00
   0.000000000000000E+00   0.000000000000000E+00   0.000000000000000E+00
   0.000000000000000E+00   0.000000000000000E+00   0.000000000000000E+00
   0.000000000000000E+00   0.000000000000000E+00   0.000000000000000E+00
   0.000000000000000E+00   0.000000000000000E+00   0.000000000000000E+00
   0.000000000000000E+00   0.000000000000000E+00   0.000000000000000E+00
   0.000000000000000E+00   0.000000000000000E+00   0.000000000000000E+00
   0.000000000000000E+00   0.000000000000000E+00   0.000000000000000E+00
   0.000000000000000E+00   0.000000000000000E+00   0.000000000000000E+00
   0.000000000000000E+00   0.000000000000000E+00   0.000000000000000E+00
   0.000000000000000E+00   0.000000000000000E+00   0.000000000000000E+00
   0.000000000000000E+00   0.000000000000000E+00   0.000000000000000E+00
   0.000000000000000E+00   0.000000000000000E+00   0.000000000000000E+00
   0.000000000000000E+00   0.000000000000000E+00   0.000000000000000E+00
   0.000000000000000E+00   0.000000000000000E+00   0.000000000000000E+00
   0.000000000000000E+00   0.000000000000000E+00   0.000000000000000E+00
   0.000000000000000E+00   0.000000000000000E+00   0.000000000000000E+00
   0.000000000000000E+00   0.000000000000000E+00   0.000000000000000E+00
   0.000000000000000E+00   0.000000000000000E+00   0.000000000000000E+00
   0.000000000000000E+00   0.000000000000000E+00   0.000000000000000E+00
   0.000000000000000E+00   0.000000000000000E+00   0.000000000000000E+00
   0.000000000000000E+00   0.000000000000000E+00   0.000000000000000E+00
   0.000000000000000E+00   0.000000000000000E+00   0.000000000000000E+00
   0.000000000000000E+00   0.000000000000000E+00   0.000000000000000E+00
   0.000000000000000E+00   0.000000000000000E+00   0.000000000000000E+00
   0.000000000000000E+00   0.000000000000000E+00   0.000000000000000E+00
   0.000000000000000E+00   0.000000000000000E+00   0.000000000000000E+00
   0.000000000000000E+00   0.000000000000000E+00   0.000000000000000E+00
   0.000000000000000E+00   0.000000000000000E+00   0.000000000000000E+00
   0.000000000000000E+00   0.000000000000000E+00   0.000000000000000E+00
   0.000000000000000E+00   0.000000000000000E+00   0.000000000000000E+00
   0.000000000000000E+00   0.000000000000000E+00   0.000000000000000E+00
   0.000000000000000E+00   0.000000000000000E+00   0.000000000000000E+00
   0.000000000000000E+00   0.000000000000000E+00   0.000000000000000E+00
   0.000000000000000E+00   0.000000000000000E+00   0.000000000000000E+00
   0.000000000000000E+00   0.000000000000000E+00   0.000000000000000E+00
   0.000000000000000E+00   0.000000000000000E+00   0.000000000000000E+00
   0.000000000000000E+00   0.000000000000000E+00   0.000000000000000E+00
   0.000000000000000E+00   0.000000000000000E+00   0.000000000000000E+00
   0.000000000000000E+00   0.000000000000000E+00   0.000000000000000E+00
   0.000000000000000E+00   0.000000000000000E+00   0.000000000000000E+00
   0.000000000000000E+00   0.000000000000000E+00   0.000000000000000E+00
   0.000000000000000E+00   0.000000000000000E+00   0.000000000000000E+00
   0.000000000000000E+00   0.000000000000000E+00   0.000000000000000E+00
   0.000000000000000E+00   0.000000000000000E+00   0.000000000000000E+00
   0.000000000000000E+00   0.000000000000000E+00   0.000000000000000E+00
   0.000000000000000E+00   0.000000000000000E+00   0.000000000000000E+00
   0.000000000000000E+00   0.000000000000000E+00   0.000000000000000E+00
   0.000000000000000E+00   0.000000000000000E+00   0.000000000000000E+00
   0.000000000000000E+00   0.000000000000000E+00   0.000000000000000E+00
   0.000000000000000E+00   0.000000000000000E+00   0.000000000000000E+00
   0.000000000000000E+00   0.000000000000000E+00   0.000000000000000E+00
   0.000000000000000E+00   0.000000000000000E+00   0.000000000000000E+00
   0.000000000000000E+00   0.000000000000000E+00   0.000000000000000E+00
   0.000000000000000E+00   0.000000000000000E+00   0.000000000000000E+00
   0.000000000000000E+00   0.000000000000000E+00   0.000000000000000E+00
   0.000000000000000E+00   0.000000000000000E+00   0.000000000000000E+00
   0.000000000000000E+00   0.000000000000000E+00   0.000000000000000E+00
   0.000000000000000E+00   0.000000000000000E+00   0.000000000000000E+00
   0.000000000000000E+00   0.000000000000000E+00   0.000000000000000E+00
   0.000000000000000E+00   0.000000000000000E+00
      </PP_QIJL.4.4.2>
    </PP_AUGMENTATION>
  </PP_NONLOCAL>
  <PP_PSWFC>
    <PP_CHI.1 size="1085" index="1" label="2S" l="0" occupation="2.00000000000000" n="1" cutoff_radius="1.00000000000000" ultrasoft_cutoff_radius="1.30000000000000">
   2.235322570063657E-04   2.263439465990334E-04   2.291910028903206E-04
   2.320738707384297E-04   2.349930005971870E-04   2.379488485864264E-04
   2.409418765632588E-04   2.439725521942376E-04   2.470413490284329E-04
   2.501487465714250E-04   2.532952303602259E-04   2.564812920391467E-04
   2.597074294366176E-04   2.629741466429734E-04   2.662819540892204E-04
   2.696313686267895E-04   2.730229136082966E-04   2.764571189693166E-04
   2.799345213111868E-04   2.834556639848520E-04   2.870210971757629E-04
   2.906313779898441E-04   2.942870705405424E-04   2.979887460369701E-04
   3.017369828731580E-04   3.055323667184287E-04   3.093754906089096E-04
   3.132669550401953E-04   3.172073680611751E-04   3.211973453690425E-04
   3.252375104054970E-04   3.293284944541593E-04   3.334709367392090E-04
   3.376654845252647E-04   3.419127932185198E-04   3.462135264691502E-04
   3.505683562750100E-04   3.549779630866330E-04   3.594430359135522E-04
   3.639642724319602E-04   3.685423790937204E-04   3.731780712367505E-04
   3.778720731967958E-04   3.826251184206069E-04   3.874379495805417E-04
   3.923113186906076E-04   3.972459872239649E-04   4.022427262319080E-04
   4.073023164643418E-04   4.124255484917760E-04   4.176132228288503E-04
   4.228661500594164E-04   4.281851509631929E-04   4.335710566440106E-04
   4.390247086596753E-04   4.445469591534598E-04   4.501386709872525E-04
   4.558007178763799E-04   4.615339845261248E-04   4.673393667699623E-04
   4.732177717095327E-04   4.791701178563783E-04   4.851973352754595E-04
   4.913003657304775E-04   4.974801628310269E-04   5.037376921815951E-04
   5.100739315324395E-04   5.164898709323594E-04   5.229865128833925E-04
   5.295648724974558E-04   5.362259776549555E-04   5.429708691653932E-04
   5.498006009299932E-04   5.567162401063721E-04   5.637188672752859E-04
   5.708095766094641E-04   5.779894760445793E-04   5.852596874523576E-04
   5.926213468158718E-04   6.000756044070394E-04   6.076236249663482E-04
   6.152665878848489E-04   6.230056873884322E-04   6.308421327244260E-04
   6.387771483505392E-04   6.468119741261807E-04   6.549478655061869E-04
   6.631860937369855E-04   6.715279460552221E-04   6.799747258888944E-04
   6.885277530610069E-04   6.971883639957916E-04   7.059579119275245E-04
   7.148377671119595E-04   7.238293170404357E-04   7.329339666566654E-04
   7.421531385762536E-04   7.514882733089815E-04   7.609408294838766E-04
   7.705122840771288E-04   7.802041326428541E-04   7.900178895467781E-04
   7.999550882028476E-04   8.100172813128212E-04   8.202060411088804E-04
   8.305229595992757E-04   8.409696488170801E-04   8.515477410720609E-04
   8.622588892057210E-04   8.731047668495526E-04   8.840870686865307E-04
   8.952075107159028E-04   9.064678305213088E-04   9.178697875422636E-04
   9.294151633490685E-04   9.411057619211690E-04   9.529434099290184E-04
   9.649299570194869E-04   9.770672761048580E-04   9.893572636554624E-04
   1.001801839995984E-03   1.014402949605509E-03   1.027162561421331E-03
   1.040082669146588E-03   1.053165291561769E-03   1.066412472840129E-03
   1.079826282867078E-03   1.093408817563588E-03   1.107162199213663E-03
   1.121088576795934E-03   1.135190126319411E-03   1.149469051163474E-03
   1.163927582422128E-03   1.178567979252596E-03   1.193392529228293E-03
   1.208403548696232E-03   1.223603383138932E-03   1.238994407540883E-03
   1.254579026759608E-03   1.270359675901399E-03   1.286338820701775E-03
   1.302518957910726E-03   1.318902615682799E-03   1.335492353972096E-03
   1.352290764932239E-03   1.369300473321352E-03   1.386524136912155E-03
   1.403964446907200E-03   1.421624128359336E-03   1.439505940597467E-03
   1.457612677657646E-03   1.475947168719610E-03   1.494512278548791E-03
   1.513310907943895E-03   1.532345994190107E-03   1.551620511517982E-03
   1.571137471568130E-03   1.590899923861726E-03   1.610910956276943E-03
   1.631173695531378E-03   1.651691307670539E-03   1.672466998562479E-03
   1.693504014398649E-03   1.714805642201044E-03   1.736375210335742E-03
   1.758216089032870E-03   1.780331690913144E-03   1.802725471521001E-03
   1.825400929864446E-03   1.848361608961700E-03   1.871611096394685E-03
   1.895153024869516E-03   1.918991072783993E-03   1.943128964802267E-03
   1.967570472436711E-03   1.992319414637095E-03   2.017379658387214E-03
   2.042755119308965E-03   2.068449762274041E-03   2.094467602023332E-03
   2.120812703794077E-03   2.147489183954941E-03   2.174501210649035E-03
   2.201853004445050E-03   2.229548838996578E-03   2.257593041709687E-03
   2.285989994418931E-03   2.314744134071831E-03   2.343859953421966E-03
   2.373342001730792E-03   2.403194885478249E-03   2.433423269082346E-03
   2.464031875627746E-03   2.495025487603544E-03   2.526408947650299E-03
   2.558187159316451E-03   2.590365087824279E-03   2.622947760845442E-03
   2.655940269286304E-03   2.689347768083099E-03   2.723175477007107E-03
   2.757428681479960E-03   2.792112733399171E-03   2.827233051974039E-03
   2.862795124572097E-03   2.898804507576130E-03   2.935266827252031E-03
   2.972187780627509E-03   3.009573136381872E-03   3.047428735746999E-03
   3.085760493419568E-03   3.124574398484848E-03   3.163876515351994E-03
   3.203672984701166E-03   3.243970024442536E-03   3.284773930687290E-03
   3.326091078730909E-03   3.367927924048726E-03   3.410291003304060E-03
   3.453186935368968E-03   3.496622422357811E-03   3.540604250673853E-03
   3.585139292068960E-03   3.630234504716620E-03   3.675896934298474E-03
   3.722133715104403E-03   3.768952071146557E-03   3.816359317287266E-03
   3.864362860381164E-03   3.912970200431669E-03   3.962188931761920E-03
   4.012026744200509E-03   4.062491424282015E-03   4.113590856462659E-03
   4.165333024351220E-03   4.217726011955350E-03   4.270778004943629E-03
   4.324497291923371E-03   4.378892265734511E-03   4.433971424759751E-03
   4.489743374251079E-03   4.546216827673043E-03   4.603400608062741E-03
   4.661303649407021E-03   4.719934998036866E-03   4.779303814039300E-03
   4.839419372687028E-03   4.900291065885976E-03   4.961928403641010E-03
   5.024341015540040E-03   5.087538652256723E-03   5.151531187072037E-03
   5.216328617414910E-03   5.281941066422177E-03   5.348378784518132E-03
   5.415652151013813E-03   5.483771675726392E-03   5.552748000618844E-03
   5.622591901460169E-03   5.693314289506440E-03   5.764926213202874E-03
   5.837438859907292E-03   5.910863557635119E-03   5.985211776826262E-03
   6.060495132134179E-03   6.136725384237256E-03   6.213914441672927E-03
   6.292074362694772E-03   6.371217357152857E-03   6.451355788397613E-03
   6.532502175207545E-03   6.614669193741084E-03   6.697869679512870E-03
   6.782116629394731E-03   6.867423203641748E-03   6.953802727943634E-03
   7.041268695501801E-03   7.129834769132378E-03   7.219514783395544E-03
   7.310322746751497E-03   7.402272843743352E-03   7.495379437207330E-03
   7.589657070510594E-03   7.685120469817014E-03   7.781784546381298E-03
   7.879664398871685E-03   7.978775315721720E-03   8.079132777511379E-03
   8.180752459377954E-03   8.283650233456948E-03   8.387842171353506E-03
   8.493344546644695E-03   8.600173837412923E-03   8.708346728811007E-03
   8.817880115659227E-03   8.928791105074763E-03   9.041097019133857E-03
   9.154815397567217E-03   9.269964000488991E-03   9.386560811159643E-03
   9.504624038783310E-03   9.624172121340041E-03   9.745223728453120E-03
   9.867797764292221E-03   9.991913370512615E-03   1.011758992923085E-02
   1.024484706603756E-02   1.037370465304767E-02   1.050418281198844E-02
   1.063630191732591E-02   1.077008259943014E-02   1.090554574777977E-02
   1.104271251420636E-02   1.118160431617884E-02   1.132224284012886E-02
   1.146465004481722E-02   1.160884816474211E-02   1.175485971358942E-02
   1.190270748772592E-02   1.205241456973558E-02   1.220400433199965E-02
   1.235750044032105E-02   1.251292685759339E-02   1.267030784751556E-02
   1.282966797835194E-02   1.299103212673925E-02   1.315442548154013E-02
   1.331987354774445E-02   1.348740215041847E-02   1.365703743870284E-02
   1.382880588985973E-02   1.400273431336966E-02   1.417884985507888E-02
   1.435718000139759E-02   1.453775258354973E-02   1.472059578187505E-02
   1.490573813018368E-02   1.509320852016443E-02   1.528303620584673E-02
   1.547525080811749E-02   1.566988231929299E-02   1.586696110774688E-02
   1.606651792259437E-02   1.626858389843392E-02   1.647319056014660E-02
   1.668036982775400E-02   1.689015402133519E-02   1.710257586600349E-02
   1.731766849694392E-02   1.753546546451160E-02   1.775600073939219E-02
   1.797930871782457E-02   1.820542422688718E-02   1.843438252984805E-02
   1.866621933157949E-02   1.890097078403816E-02   1.913867349181135E-02
   1.937936451772983E-02   1.962308138854847E-02   1.986986210069493E-02
   2.011974512608757E-02   2.037276941802282E-02   2.062897441713321E-02
   2.088840005741676E-02   2.115108677233807E-02   2.141707550100242E-02
   2.168640769440312E-02   2.195912532174351E-02   2.223527087683362E-02
   2.251488738456294E-02   2.279801840744975E-02   2.308470805226757E-02
   2.337500097675018E-02   2.366894239637535E-02   2.396657809122821E-02
   2.426795441294544E-02   2.457311829174062E-02   2.488211724351154E-02
   2.519499937703081E-02   2.551181340121962E-02   2.583260863250673E-02
   2.615743500227190E-02   2.648634306437614E-02   2.681938400277837E-02
   2.715660963924007E-02   2.749807244111806E-02   2.784382552924704E-02
   2.819392268591158E-02   2.854841836290941E-02   2.890736768970622E-02
   2.927082648168253E-02   2.963885124847442E-02   3.001149920240745E-02
   3.038882826702570E-02   3.077089708571621E-02   3.115776503042961E-02
   3.154949221049778E-02   3.194613948154888E-02   3.234776845452125E-02
   3.275444150477618E-02   3.316622178131039E-02   3.358317321606939E-02
   3.400536053336184E-02   3.443284925937557E-02   3.486570573179646E-02
   3.530399710953031E-02   3.574779138252866E-02   3.619715738171853E-02
   3.665216478903768E-02   3.711288414757502E-02   3.757938687181703E-02
   3.805174525800127E-02   3.853003249457600E-02   3.901432267276839E-02
   3.950469079725982E-02   4.000121279697019E-02   4.050396553595056E-02
   4.101302682438492E-02   4.152847542970167E-02   4.205039108779432E-02
   4.257885451435242E-02   4.311394741630264E-02   4.365575250335958E-02
   4.420435349968758E-02   4.475983515567273E-02   4.532228325980498E-02
   4.589178465067150E-02   4.646842722905906E-02   4.705229997016768E-02
   4.764349293593361E-02   4.824209728746202E-02   4.884820529756934E-02
   4.946191036343390E-02   5.008330701935555E-02   5.071249094962285E-02
   5.134955900148736E-02   5.199460919824472E-02   5.264774075242078E-02
   5.330905407906352E-02   5.397865080913748E-02   5.465663380302179E-02
   5.534310716410957E-02   5.603817625250657E-02   5.674194769882993E-02
   5.745452941810272E-02   5.817603062374477E-02   5.890656184165740E-02
   5.964623492439890E-02   6.039516306545051E-02   6.115346081357000E-02
   6.192124408722920E-02   6.269863018913562E-02   6.348573782083229E-02
   6.428268709737556E-02   6.508959956208671E-02   6.590659820137318E-02
   6.673380745961865E-02   6.757135325413487E-02   6.841936299017413E-02
   6.927796557599718E-02   7.014729143799173E-02   7.102747253583837E-02
   7.191864237771753E-02   7.282093603555315E-02   7.373449016028875E-02
   7.465944299718769E-02   7.559593440115429E-02   7.654410585206764E-02
   7.750410047012296E-02   7.847606303117227E-02   7.946013998205836E-02
   8.045647945593386E-02   8.146523128755680E-02   8.248654702855594E-02
   8.352057996265498E-02   8.456748512084845E-02   8.562741929651803E-02
   8.670054106048021E-02   8.778701077595451E-02   8.888699061344052E-02
   9.000064456549345E-02   9.112813846138505E-02   9.226963998163716E-02
   9.342531867241552E-02   9.459534595976964E-02   9.577989516370351E-02
   9.697914151206437E-02   9.819326215423006E-02   9.942243617458182E-02
   1.006668446057450E-01   1.019266704415773E-01   1.032020986498886E-01
   1.044933161848726E-01   1.058005119992270E-01   1.071238770559466E-01
   1.084636043397607E-01   1.098198888681982E-01   1.111929277022510E-01
   1.125829199566150E-01   1.139900668094807E-01   1.154145715118455E-01
   1.168566393963224E-01   1.183164778854130E-01   1.197942964992167E-01
   1.212903068625419E-01   1.228047227113886E-01   1.243377598987669E-01
   1.258896363998162E-01   1.274605723161873E-01   1.290507898796491E-01
   1.306605134548821E-01   1.322899695414126E-01   1.339393867746478E-01
   1.356089959259670E-01   1.372990299018203E-01   1.390097237417861E-01
   1.407413146155410E-01   1.424940418186844E-01   1.442681467673675E-01
   1.460638729916686E-01   1.478814661276570E-01   1.497211739080855E-01
   1.515832461516456E-01   1.534679347507251E-01   1.553754936575955E-01
   1.573061788689623E-01   1.592602484088047E-01   1.612379623094271E-01
   1.632395825906486E-01   1.652653732370453E-01   1.673156001731648E-01
   1.693905312366228E-01   1.714904361489941E-01   1.736155864844041E-01
   1.757662556357243E-01   1.779427187782714E-01   1.801452528309072E-01
   1.823741364144318E-01   1.846296498071583E-01   1.869120748975582E-01
   1.892216951338525E-01   1.915587954704340E-01   1.939236623109857E-01
   1.963165834481711E-01   1.987378479997563E-01   2.011877463410280E-01
   2.036665700333598E-01   2.061746117487773E-01   2.087121651903711E-01
   2.112795250083961E-01   2.138769867118918E-01   2.165048465756595E-01
   2.191634015424117E-01   2.218529491199251E-01   2.245737872730034E-01
   2.273262143100607E-01   2.301105287641275E-01   2.329270292680777E-01
   2.357760144238644E-01   2.386577826655499E-01   2.415726321159091E-01
   2.445208604363781E-01   2.475027646701072E-01   2.505186410778868E-01
   2.535687849666885E-01   2.566534905105726E-01   2.597730505636979E-01
   2.629277564651621E-01   2.661178978354021E-01   2.693437623638673E-01
   2.726056355876768E-01   2.759038006609627E-01   2.792385381145965E-01
   2.826101256059836E-01   2.860188376586120E-01   2.894649453910214E-01
   2.929487162348682E-01   2.964704136417380E-01   3.000302967783631E-01
   3.036286202098893E-01   3.072656335708280E-01   3.109415812233340E-01
   3.146567019024204E-01   3.184112283477463E-01   3.222053869215779E-01
   3.260393972125386E-01   3.299134716247482E-01   3.338278149519421E-01
   3.377826239361792E-01   3.417780868107051E-01   3.458143828265753E-01
   3.498916817626102E-01   3.540101434182586E-01   3.581699170889587E-01
   3.623711410235570E-01   3.666139418633779E-01   3.708984340625077E-01
   3.752247192888772E-01   3.795928858057243E-01   3.840030078330195E-01
   3.884551448884458E-01   3.929493411075277E-01   3.974856245425162E-01
   4.020640064396451E-01   4.066844804943717E-01   4.113470220842567E-01
   4.160515874791245E-01   4.207981130281763E-01   4.255865143237453E-01
   4.304166853414030E-01   4.352884975561538E-01   4.402017990344734E-01
   4.451564135019857E-01   4.501521393866041E-01   4.551887488369877E-01
   4.602659867162174E-01   4.653835695706342E-01   4.705411845738192E-01
   4.757384884457692E-01   4.809751063473477E-01   4.862506307501750E-01
   4.915646202821741E-01   4.969165985490559E-01   5.023060529321143E-01
   5.077324333627712E-01   5.131951510744022E-01   5.186935773320653E-01
   5.242270421408537E-01   5.297948329337023E-01   5.353961932395791E-01
   5.410303213331273E-01   5.466963688669491E-01   5.523934394878295E-01
   5.581205874383890E-01   5.638768161457661E-01   5.696610767990989E-01
   5.754722669177624E-01   5.813092289124657E-01   5.871707486415289E-01
   5.930555539648288E-01   5.989623132981318E-01   6.048896341707288E-01
   6.108360617895212E-01   6.168000776129460E-01   6.227800979383549E-01
   6.287744725067385E-01   6.347814831289332E-01   6.407993423377273E-01
   6.468261920705709E-01   6.528601023878688E-01   6.588990702321520E-01
   6.649410182337276E-01   6.709837935687000E-01   6.770251668756029E-01
   6.830628312371945E-01   6.890944012342881E-01   6.951174120788458E-01
   7.011293188338598E-01   7.071274957279344E-01   7.131092355727214E-01
   7.190717492917942E-01   7.250121655697812E-01   7.309275306309162E-01
   7.368148081564693E-01   7.426708793507809E-01   7.484925431658804E-01
   7.542765166949312E-01   7.600194357449035E-01   7.657178555991027E-01
   7.713682519802498E-01   7.769670222249686E-01   7.825104866805048E-01
   7.879948903345203E-01   7.934164046887062E-01   7.987711298867854E-01
   8.040550971072448E-01   8.092642712308025E-01   8.143945537921532E-01
   8.194417862250160E-01   8.244017534087934E-01   8.292701875243977E-01
   8.340427722257832E-01   8.387151471326386E-01   8.432829126484024E-01
   8.477416351062596E-01   8.520868522441200E-01   8.563140790076403E-01
   8.604188136782471E-01   8.643965443207124E-01   8.682427555421901E-01
   8.719529355516753E-01   8.755225835055442E-01   8.789472171213243E-01
   8.822223805379917E-01   8.853436523968486E-01   8.883066541124085E-01
   8.911070582977871E-01   8.937405973037065E-01   8.962030718245033E-01
   8.984903595183736E-01   9.005984235825373E-01   9.025233212170695E-01
   9.042612119037634E-01   9.058083654186727E-01   9.071611694888579E-01
   9.083161369953627E-01   9.092699126156555E-01   9.100192787896862E-01
   9.105611608843345E-01   9.108926314214889E-01   9.110109132253662E-01
   9.109133813349485E-01   9.105975635177865E-01   9.100611392118689E-01
   9.093019367130737E-01   9.083179284169215E-01   9.071072239151431E-01
   9.056680607402056E-01   9.039987925444146E-01   9.020978744950039E-01
   8.999638456629109E-01   8.975953081809533E-01   8.949909029471744E-01
   8.921492816515332E-01   8.890690749094216E-01   8.857488562938707E-01
   8.821871020702670E-01   8.783821464534934E-01   8.743321322278962E-01
   8.700349565961231E-01   8.654882121539265E-01   8.606891229252934E-01
   8.556344754361114E-01   8.503205448555975E-01   8.447430162936095E-01
   8.388969014090296E-01   8.327764505604386E-01   8.263773422737947E-01
   8.197038479644099E-01   8.127626591396080E-01   8.055606964995182E-01
   7.981051005531986E-01   7.904032219492275E-01   7.824626115389528E-01
   7.742910101909839E-01   7.658963383752223E-01   7.572866855290273E-01
   7.484702982810802E-01   7.394555620127401E-01   7.302510065059548E-01
   7.208652872407358E-01   7.113071729905558E-01   7.015855342919884E-01
   6.917093318645893E-01   6.816876049241443E-01   6.715294594138369E-01
   6.612440562053251E-01   6.508405992734854E-01   6.403283238555418E-01
   6.297164846080769E-01   6.190143437752879E-01   6.082311593816141E-01
   5.973761734616606E-01   5.864586003402820E-01   5.754876149756765E-01
   5.644723413785097E-01   5.534218411203321E-01   5.423451019449465E-01
   5.312510264969244E-01   5.201484211821220E-01   5.090459851758720E-01
   4.979522995954240E-01   4.868758168542580E-01   4.758248502170157E-01
   4.648075635749582E-01   4.538319614631008E-01   4.429058793413520E-01
   4.320369741631612E-01   4.212327152562389E-01   4.105003755408233E-01
   3.998470231117269E-01   3.892795132108658E-01   3.788044806172101E-01
   3.684283324809923E-01   3.581572416285362E-01   3.479971403632596E-01
   3.379537147871516E-01   3.280323996654063E-01   3.182383738548766E-01
   3.085765563145912E-01   2.990516027138514E-01   2.896679026503413E-01
   2.804295774873735E-01   2.713404788158533E-01   2.624041875428604E-01
   2.536240136049889E-01   2.450029963007931E-01   2.365439052329644E-01
   2.282492418472328E-01   2.201212415515347E-01   2.121618763957692E-01
   2.043728582894961E-01   1.967556427322876E-01   1.893114330291396E-01
   1.820411849613704E-01   1.749456118819223E-01   1.680251902027708E-01
   1.612801652412429E-01   1.547105573917208E-01   1.483161685890922E-01
   1.420965890305172E-01   1.360512041226609E-01   1.301792016223976E-01
   1.244795789400895E-01   1.189511505758711E-01   1.135925556609047E-01
   1.084022655772518E-01   1.033785916318318E-01   9.851969276185110E-02
   9.382358325106675E-02   8.928814043826364E-02   8.491111240133468E-02
   8.069012560233858E-02   7.662269248082942E-02   7.270621898458127E-02
   6.893801202854515E-02   6.531528687443915E-02   6.183517442477152E-02
   5.849472842630704E-02   5.529093257898812E-02   5.222070754711094E-02
   4.928091787011644E-02   4.646837877069095E-02   4.377986285798566E-02
   4.121210672366177E-02   3.876181742817492E-02   3.642567887424061E-02
   3.420035806380520E-02   3.208251123411225E-02   3.006878986763465E-02
   2.815584656978034E-02   2.634034080740254E-02   2.461894450029990E-02
   2.298834745710526E-02   2.144526264627029E-02   1.998643129228550E-02
   1.860862778685322E-02   1.730866440447577E-02   1.608339581184591E-02
   1.492972336053785E-02   1.384459915279994E-02   1.282502987073897E-02
   1.186808035985538E-02   1.097087695872567E-02   1.013061056761703E-02
   9.344539449942822E-03   8.609991761702674E-03   7.924367805378685E-03
   7.285142006153312E-03   6.689864609753898E-03   6.136163102689974E-03
   5.621743357109837E-03   5.144390503942604E-03   4.701969539391260E-03
   4.292425671183614E-03   3.913784412257069E-03   3.564151430735149E-03
   3.241712166138975E-03   2.944731222755547E-03   2.671551551950138E-03
   2.420593435957843E-03   2.190353286315707E-03   1.979402270601530E-03
   1.786384781528226E-03   1.610016762705704E-03   1.449083905529123E-03
   1.302439731686878E-03   1.169003575709834E-03   1.047758481810941E-03
   9.377490289985336E-04   8.380790980949191E-04   7.479095938618956E-04
   6.664561349351745E-04   5.929867237083569E-04   5.268194076927154E-04
   4.673199432199754E-04   4.138994716597451E-04   3.660122175994317E-04
   3.231532176901185E-04   2.848560881045160E-04   2.506908377898462E-04
   2.202617339360533E-04   1.932052253242843E-04   1.691879284779122E-04
   1.479046808136794E-04   1.290766642886079E-04   1.124496023625030E-04
   9.779203245256017E-05   8.489365544389086E-05   7.356376324533080E-05
   6.362974484273058E-05   5.493567080443250E-05   4.734095573680929E-05
   4.071909777213180E-05   3.495649379680537E-05   2.995132879495963E-05
   2.561253738930935E-05   2.185883540921954E-05   1.861781910007787E-05
   1.582512941069286E-05   1.342367865251676E-05   1.136293671477469E-05
   9.598273940942815E-06   8.090357722236426E-06   6.804599840547235E-06
   5.710651594256476E-06   4.781943763156188E-06   3.995268510946071E-06
   3.330400383060713E-06   2.769753631692793E-06   2.298080819175959E-06
   1.902255063164790E-06   1.570871040610925E-06   1.294100999718422E-06
   1.063504401881397E-06   8.718499867096050E-07   7.129579968664624E-07
   5.815606569454890E-07   4.731791325733870E-07   3.840153250394915E-07
   3.108569824222049E-07   2.509947298421088E-07   2.021497386908690E-07
   1.624108671848661E-07   1.301802122493992E-07   1.041261156018496E-07
   8.314276520312054E-08   6.631562745873149E-08   5.289203639897943E-08
   4.206258289374616E-08   3.335161438324729E-08   2.636555313635047E-08
   2.077971764084275E-08   1.632708092784008E-08   1.278871204567940E-08
   9.985675123138657E-09   7.772186319756372E-09   6.029852536325574E-09
   4.662837150580004E-09   3.593817362809132E-09   2.760615103449130E-09
   2.113398995199325E-09   1.612368704712723E-09   1.225845293123311E-09
   9.287020092740387E-10   7.010794904482124E-10   5.273376645378127E-10
   3.952039015555396E-10   2.950832518104310E-10   2.195020368428672E-10
   1.626607241930584E-10   1.200760077853817E-10   8.829541429863279E-11
   6.467063719775635E-11   4.717823183386590E-11   3.427834802337993E-11
   2.480388512062958E-11   1.787387699838377E-11   1.282609304132365E-11
   9.164813475585705E-12   6.520535537570893E-12   4.619019211161767E-12
   3.257611708540543E-12   2.287219223856144E-12   1.598640353249461E-12
   1.112252840017900E-12   7.702664950823145E-13   5.309307356445830E-13
   3.642238900376306E-13   2.486604371096918E-13   1.689376059846980E-13
   1.142090978446283E-13   7.682504056251631E-14   5.141682991055084E-14
   3.423580331750505E-14   2.267777561094001E-14   1.494296280809245E-14
   9.794010756033998E-15   6.384735999583020E-15   4.139561703783190E-15
   2.669100925113855E-15   1.711372883123950E-15   1.091095407829054E-15
   6.916530115251392E-16   4.359030634363744E-16   2.731089435504801E-16
   1.700960090562445E-16   1.053008725771203E-16   6.479127032157152E-17
   3.961998609420531E-17   2.407640507419967E-17   1.453832048258398E-17
   8.722630053396190E-18   5.199435510838687E-18   3.078966283869345E-18
   1.811163618053695E-18   1.058225009951309E-18   6.140857932538773E-19
   3.538941779590521E-19   2.025225097749220E-19   1.150774948328071E-19
   6.492110920082056E-20   3.635972824436400E-20   2.021411480702616E-20
   1.115444499716087E-20   6.108851587065468E-21   3.320077866211097E-21
   1.790491445790080E-21   9.580522392564889E-22   5.085764304643134E-22
   2.678119606243836E-22   1.398834918133297E-22   7.246381918577338E-23
   3.722624033903181E-23   1.896289817265049E-23   9.577267783391480E-24
   4.795270950636171E-24   2.379972335221696E-24   1.170765565112785E-24
   5.707667696174215E-25   2.757331308732676E-25   1.319808621077474E-25
   6.258558055130781E-26   2.939868260141956E-26   1.367791864158990E-26
   6.302289912083275E-27   2.875477320826402E-27   1.298975772711566E-27
   5.809213562599020E-28   2.571602205520079E-28   1.126690592371022E-28
   4.884988587341970E-29   2.095672001716179E-29   8.894593165739281E-30
   3.734335252163312E-30   1.550692339896731E-30   6.367999730379156E-31
   2.585738903796363E-31   1.038027734891334E-31   4.119206282877240E-32
   1.615605332224710E-32   6.261959151052760E-33   2.398135162627009E-33
   9.073189935634331E-34   3.390805556940792E-34   1.251512216663471E-34
   4.561299223823570E-35   1.641324223041499E-35   5.830190659246557E-36
   0.000000000000000E+00   0.000000000000000E+00   0.000000000000000E+00
   0.000000000000000E+00   0.000000000000000E+00   0.000000000000000E+00
   0.000000000000000E+00   0.000000000000000E+00   0.000000000000000E+00
   0.000000000000000E+00   0.000000000000000E+00   0.000000000000000E+00
   0.000000000000000E+00   0.000000000000000E+00   0.000000000000000E+00
   0.000000000000000E+00   0.000000000000000E+00   0.000000000000000E+00
   0.000000000000000E+00   0.000000000000000E+00   0.000000000000000E+00
   0.000000000000000E+00   0.000000000000000E+00   0.000000000000000E+00
   0.000000000000000E+00   0.000000000000000E+00
    </PP_CHI.1>
    <PP_CHI.2 size="1085" index="2" label="2P" l="1" occupation="3.00000000000000" n="2" cutoff_radius="0.900000000000000" ultrasoft_cutoff_radius="1.35000000000000">
   3.925945645497149E-08   4.025331430658136E-08   4.127233178844962E-08
   4.231714581960269E-08   4.338840944273903E-08   4.448679223240866E-08
   4.561298071351914E-08   4.676767879043550E-08   4.795160818694339E-08
   4.916550889734952E-08   5.041013964900201E-08   5.168627837651933E-08
   5.299472270802463E-08   5.433629046368872E-08   5.571182016689417E-08
   5.712217156833926E-08   5.856822618340985E-08   6.005088784315479E-08
   6.157108325920939E-08   6.312976260302002E-08   6.472790009973156E-08
   6.636649463710938E-08   6.804657038987640E-08   6.976917745985510E-08
   7.153539253231462E-08   7.334631954893367E-08   7.520309039779956E-08
   7.710686562087406E-08   7.905883513936967E-08   8.106021899748832E-08
   8.311226812498779E-08   8.521626511905314E-08   8.737352504596048E-08
   8.958539626303552E-08   9.185326126142013E-08   9.417853753017300E-08
   9.656267844224577E-08   9.900717416288734E-08   1.015135525810446E-07
   1.040833802643413E-07   1.067182634382332E-07   1.094198489899493E-07
   1.121898254978494E-07   1.150299242868383E-07   1.179419205105001E-07
   1.209276342606238E-07   1.239889317048196E-07   1.271277262529320E-07
   1.303459797529816E-07   1.336457037173824E-07   1.370289605802004E-07
   1.404978649862396E-07   1.440545851127620E-07   1.477013440246671E-07
   1.514404210639765E-07   1.552741532744952E-07   1.592049368625370E-07
   1.632352286946283E-07   1.673675478331273E-07   1.716044771107168E-07
   1.759486647447554E-07   1.804028259924957E-07   1.849697448482056E-07
   1.896522757832509E-07   1.944533455302295E-07   1.993759549122701E-07
   2.044231807186398E-07   2.095981776278331E-07   2.149041801793439E-07
   2.203445047953526E-07   2.259225518535930E-07   2.316418078126927E-07
   2.375058473913181E-07   2.435183358024836E-07   2.496830310444228E-07
   2.560037862494518E-07   2.624845520922955E-07   2.691293792593813E-07
   2.759424209806402E-07   2.829279356254041E-07   2.900902893640153E-07
   2.974339588968165E-07   3.049635342522236E-07   3.126837216556336E-07
   3.205993464709577E-07   3.287153562166188E-07   3.370368236579004E-07
   3.455689499775774E-07   3.543170680268108E-07   3.632866456583410E-07
   3.724832891440573E-07   3.819127466790863E-07   3.915809119745842E-07
   4.014938279414817E-07   4.116576904674829E-07   4.220788522896760E-07
   4.327638269651832E-07   4.437192929423240E-07   4.549520977348422E-07
   4.664692622018027E-07   4.782779849358298E-07   4.903856467624400E-07
   5.027998153532694E-07   5.155282499560886E-07   5.285789062445567E-07
   5.419599412907413E-07   5.556797186635264E-07   5.697468136560787E-07
   5.841700186456502E-07   5.989583485890614E-07   6.141210466573039E-07
   6.296675900127810E-07   6.456076957328015E-07   6.619513268830205E-07
   6.787086987446330E-07   6.958902851992053E-07   7.135068252751392E-07
   7.315693298598580E-07   7.500890885819102E-07   7.690776768672948E-07
   7.885469631744115E-07   8.085091164121675E-07   8.289766135458661E-07
   8.499622473956450E-07   8.714791346323223E-07   8.935407239756603E-07
   9.161608046001651E-07   9.393535147536769E-07   9.631333505941356E-07
   9.875151752500545E-07   1.012514228110347E-06   1.038146134349331E-06
   1.064426914692849E-06   1.091372995431620E-06   1.119001218688082E-06
   1.147328852943114E-06   1.176373603829264E-06   1.206153625197192E-06
   1.236687530462254E-06   1.267994404238328E-06   1.300093814266137E-06
   1.333005823643544E-06   1.366751003365436E-06   1.401350445181069E-06
   1.436825774776877E-06   1.473199165293001E-06   1.510493351181987E-06
   1.548731642418308E-06   1.587937939067588E-06   1.628136746224650E-06
   1.669353189329697E-06   1.711613029872230E-06   1.754942681492493E-06
   1.799369226490510E-06   1.844920432753067E-06   1.891624771109150E-06
   1.939511433124753E-06   1.988610349348146E-06   2.038952208016996E-06
   2.090568474239071E-06   2.143491409658460E-06   2.197754092619654E-06
   2.253390438842049E-06   2.310435222617822E-06   2.368924098546404E-06
   2.428893623819141E-06   2.490381281068087E-06   2.553425501793182E-06
   2.618065690382469E-06   2.684342248740368E-06   2.752296601539381E-06
   2.821971222111038E-06   2.893409658992223E-06   2.966656563143507E-06
   3.041757715856484E-06   3.118760057367536E-06   3.197711716195961E-06
   3.278662039224713E-06   3.361661622542639E-06   3.446762343067437E-06
   3.534017390969092E-06   3.623481302914110E-06   3.715209996151241E-06
   3.809260803460070E-06   3.905692508984281E-06   4.004565384971946E-06
   4.105941229445910E-06   4.209883404827690E-06   4.316456877539098E-06
   4.425728258606324E-06   4.537765845291819E-06   4.652639663780060E-06
   4.770421512943791E-06   4.891185009218158E-06   5.015005632610731E-06
   5.141960773876195E-06   5.272129782885186E-06   5.405594018217474E-06
   5.542436898010486E-06   5.682743952094998E-06   5.826602875450477E-06
   5.974103583013590E-06   6.125338265873987E-06   6.280401448892642E-06
   6.439390049778595E-06   6.602403439661088E-06   6.769543505194986E-06
   6.940914712238184E-06   7.116624171140846E-06   7.296781703687306E-06
   7.481499911732347E-06   7.670894247574905E-06   7.865083086112993E-06
   8.064187798825049E-06   8.268332829623907E-06   8.477645772630737E-06
   8.692257451917624E-06   8.912302003268524E-06   9.137916958009759E-06
   9.369243328962356E-06   9.606425698569944E-06   9.849612309257369E-06
   1.009895515607629E-05   1.035461008169581E-05   1.061673687379746E-05
   1.088549936493513E-05   1.116106553492283E-05   1.144360761581374E-05
   1.173330219953641E-05   1.203033034825532E-05   1.233487770752462E-05
   1.264713462230593E-05   1.296729625592248E-05   1.329556271202399E-05
   1.363213915963849E-05   1.397723596138914E-05   1.433106880495623E-05
   1.469385883786626E-05   1.506583280569266E-05   1.544722319375407E-05
   1.583826837239890E-05   1.623921274596694E-05   1.665030690552092E-05
   1.707180778544335E-05   1.750397882399732E-05   1.794709012794978E-05
   1.840141864136175E-05   1.886724831864984E-05   1.934487030202781E-05
   1.983458310343882E-05   2.033669279109151E-05   2.085151318071724E-05
   2.137936603166700E-05   2.192058124797120E-05   2.247549708448749E-05
   2.304446035826520E-05   2.362782666525906E-05   2.422596060252634E-05
   2.483923599604740E-05   2.546803613431106E-05   2.611275400781082E-05
   2.677379255460162E-05   2.745156491207006E-05   2.814649467507585E-05
   2.885901616062493E-05   2.958957467924000E-05   3.033862681319747E-05
   3.110664070180487E-05   3.189409633389646E-05   3.270148584772981E-05
   3.352931383847014E-05   3.437809767345505E-05   3.524836781543546E-05
   3.614066815399513E-05   3.705555634535576E-05   3.799360416077832E-05
   3.895539784378001E-05   3.994153847638803E-05   4.095264235465972E-05
   4.198934137370268E-05   4.305228342243536E-05   4.414213278833467E-05
   4.525957057242208E-05   4.640529511474846E-05   4.758002243064194E-05
   4.878448665799096E-05   5.001944051584234E-05   5.128565577459911E-05
   5.258392373811234E-05   5.391505573796688E-05   5.527988364026983E-05
   5.667926036525698E-05   5.811406042004139E-05   5.958518044483658E-05
   6.109353977299492E-05   6.264008100520876E-05   6.422577059823446E-05
   6.585159946850473E-05   6.751858361100521E-05   6.922776473380239E-05
   7.098021090861608E-05   7.277701723784463E-05   7.461930653845481E-05
   7.650823004316553E-05   7.844496811936111E-05   8.043073100617969E-05
   8.246675957024059E-05   8.455432608047525E-05   8.669473500254944E-05
   8.888932381336839E-05   9.113946383617186E-05   9.344656109674097E-05
   9.581205720124661E-05   9.823743023628898E-05   1.007241956916862E-04
   1.032739074065857E-04   1.058881585394900E-04   1.085685825627950E-04
   1.113168542824653E-04   1.141346908834767E-04   1.170238530016762E-04
   1.199861458227278E-04   1.230234202088247E-04   1.261375738538714E-04
   1.293305524678487E-04   1.326043509911040E-04   1.359610148393150E-04
   1.394026411799027E-04   1.429313802406890E-04   1.465494366516063E-04
   1.502590708202964E-04   1.540626003424497E-04   1.579624014477616E-04
   1.619609104824048E-04   1.660606254289315E-04   1.702641074645577E-04
   1.745739825587834E-04   1.789929431113526E-04   1.835237496315587E-04
   1.881692324599399E-04   1.929322935334338E-04   1.978159081950780E-04
   2.028231270493839E-04   2.079570778645305E-04   2.132209675225550E-04
   2.186180840187488E-04   2.241517985114917E-04   2.298255674238010E-04
   2.356429345978851E-04   2.416075335040426E-04   2.477230895052651E-04
   2.539934221789467E-04   2.604224476971359E-04   2.670141812667965E-04
   2.737727396315840E-04   2.807023436366895E-04   2.878073208583098E-04
   2.950921082993733E-04   3.025612551534004E-04   3.102194256374070E-04
   3.180714018970259E-04   3.261220869840709E-04   3.343765079095215E-04
   3.428398187731993E-04   3.515173039723176E-04   3.604143814906918E-04
   3.695366062709363E-04   3.788896736715320E-04   3.884794230105457E-04
   3.983118411989979E-04   4.083930664652372E-04   4.187293921732318E-04
   4.293272707367480E-04   4.401933176321918E-04   4.513343155118450E-04
   4.627572184210639E-04   4.744691561211361E-04   4.864774385206778E-04
   4.987895602184929E-04   5.114132051608856E-04   5.243562514150616E-04
   5.376267760632529E-04   5.512330602191468E-04   5.651835941703579E-04
   5.794870826500937E-04   5.941524502407655E-04   6.091888469132597E-04
   6.246056537052231E-04   6.404124885414179E-04   6.566192122000978E-04
   6.732359344287687E-04   6.902730202132633E-04   7.077410962037788E-04
   7.256510573015039E-04   7.440140734104906E-04   7.628415963580633E-04
   7.821453669887278E-04   8.019374224349875E-04   8.222301035701775E-04
   8.430360626475503E-04   8.643682711299895E-04   8.862400277153655E-04
   9.086649665621514E-04   9.316570657203263E-04   9.552306557724363E-04
   9.794004286903734E-04   1.004181446912670E-03   1.029589152647714E-03
   1.055639377409512E-03   1.082348351789678E-03   1.109732715473314E-03
   1.137809527503804E-03   1.166596276802791E-03   1.196110892951415E-03
   1.226371757239490E-03   1.257397713988796E-03   1.289208082157619E-03
   1.321822667232061E-03   1.355261773414234E-03   1.389546216109032E-03
   1.424697334724137E-03   1.460737005782306E-03   1.497687656361655E-03
   1.535572277866062E-03   1.574414440135567E-03   1.614238305906866E-03
   1.655068645627968E-03   1.696930852639277E-03   1.739850958728878E-03
   1.783855650071013E-03   1.828972283553827E-03   1.875228903512370E-03
   1.922654258869496E-03   1.971277820698777E-03   2.021129800217062E-03
   2.072241167219172E-03   2.124643668961520E-03   2.178369849510606E-03
   2.233453069561357E-03   2.289927526740275E-03   2.347828276404197E-03
   2.407191252945271E-03   2.468053291613403E-03   2.530452150871049E-03
   2.594426535289850E-03   2.660016119001658E-03   2.727261569720243E-03
   2.796204573341936E-03   2.866887859141886E-03   2.939355225579052E-03
   3.013651566721632E-03   3.089822899312016E-03   3.167916390478269E-03
   3.247980386114480E-03   3.330064439940594E-03   3.414219343257005E-03
   3.500497155412404E-03   3.588951234996409E-03   3.679636271778455E-03
   3.772608319404494E-03   3.867924828870860E-03   3.965644682792057E-03
   4.065828230480076E-03   4.168537323850393E-03   4.273835354177641E-03
   4.381787289713749E-03   4.492459714191504E-03   4.605920866228131E-03
   4.722240679653063E-03   4.841490824774912E-03   4.963744750610133E-03
   5.089077728092183E-03   5.217566894281757E-03   5.349291297599403E-03
   5.484331944100260E-03   5.622771844813613E-03   5.764696064166980E-03
   5.910191769518484E-03   6.059348281817438E-03   6.212257127416507E-03
   6.369012091060394E-03   6.529709270066647E-03   6.694447129730693E-03
   6.863326559971938E-03   7.036450933245424E-03   7.213926163745404E-03
   7.395860767921376E-03   7.582365926331865E-03   7.773555546860066E-03
   7.969546329316112E-03   8.170457831446643E-03   8.376412536383776E-03
   8.587535921546752E-03   8.803956529032765E-03   9.025806037510159E-03
   9.253219335648542E-03   9.486334597100318E-03   9.725293357066843E-03
   9.970240590465813E-03   1.022132479172922E-02   1.047869805625198E-02
   1.074251616351569E-02   1.101293866191211E-02   1.129012895528558E-02
   1.157425439121991E-02   1.186548635108947E-02   1.216400034189602E-02
   1.246997608991315E-02   1.278359763615443E-02   1.310505343369089E-02
   1.343453644682686E-02   1.377224425216138E-02   1.411837914154292E-02
   1.447314822693782E-02   1.483676354722426E-02   1.520944217692503E-02
   1.559140633688749E-02   1.598288350692496E-02   1.638410654042325E-02
   1.679531378092047E-02   1.721674918066071E-02   1.764866242113003E-02
   1.809130903556700E-02   1.854495053344807E-02   1.900985452694446E-02
   1.948629485933649E-02   1.997455173537980E-02   2.047491185360445E-02
   2.098766854053085E-02   2.151312188678103E-02   2.205157888505833E-02
   2.260335356996549E-02   2.316876715962906E-02   2.374814819908721E-02
   2.434183270540210E-02   2.495016431444197E-02   2.557349442928174E-02
   2.621218237016124E-02   2.686659552592986E-02   2.753710950690726E-02
   2.822410829908070E-02   2.892798441954360E-02   2.964913907308567E-02
   3.038798230982666E-02   3.114493318377935E-02   3.192041991222055E-02
   3.271488003573591E-02   3.352876057879549E-02   3.436251821070582E-02
   3.521661940677234E-02   3.609154060949506E-02   3.698776838960512E-02
   3.790579960674024E-02   3.884614156953938E-02   3.980931219492172E-02
   4.079584016630518E-02   4.180626509049606E-02   4.284113765296883E-02
   4.390101977123451E-02   4.498648474598019E-02   4.609811740963803E-02
   4.723651427202728E-02   4.840228366268304E-02   4.959604586947187E-02
   5.081843327306319E-02   5.207009047680423E-02   5.335167443152045E-02
   5.466385455473178E-02   5.600731284375483E-02   5.738274398212329E-02
   5.879085543873250E-02   6.023236755908001E-02   6.170801364794447E-02
   6.321854004280153E-02   6.476470617725155E-02   6.634728463368256E-02
   6.796706118436498E-02   6.962483482012463E-02   7.132141776570357E-02
   7.305763548087299E-02   7.483432664631401E-02   7.665234313324243E-02
   7.851254995569497E-02   8.041582520435377E-02   8.236305996072429E-02
   8.435515819043811E-02   8.639303661438832E-02   8.847762455635073E-02
   9.060986376568807E-02   9.279070821367023E-02   9.502112386188193E-02
   9.730208840112964E-02   9.963459095918499E-02   1.020196317756496E-01
   1.044582218421399E-01   1.069513825059400E-01   1.095001450351833E-01
   1.121055501435622E-01   1.147686474724872E-01   1.174904950285461E-01
   1.202721585740329E-01   1.231147109682528E-01   1.260192314572156E-01
   1.289868049092752E-01   1.320185209941820E-01   1.351154733029413E-01
   1.382787584058100E-01   1.415094748456657E-01   1.448087220639386E-01
   1.481775992562022E-01   1.516172041544679E-01   1.551286317331529E-01
   1.587129728356363E-01   1.623713127182576E-01   1.661047295085573E-01
   1.699142925745159E-01   1.738010608015067E-01   1.777660807736324E-01
   1.818103848561095E-01   1.859349891753241E-01   1.901408914931927E-01
   1.944290689724562E-01   1.988004758295511E-01   2.032560408717335E-01
   2.077966649151749E-01   2.124232180808059E-01   2.171365369647698E-01
   2.219374216804320E-01   2.268266327690281E-01   2.318048879761608E-01
   2.368728588915277E-01   2.420311674494687E-01   2.472803822881202E-01
   2.526210149652486E-01   2.580535160291073E-01   2.635782709429954E-01
   2.691955958625619E-01   2.749057332653100E-01   2.807088474322122E-01
   2.866050197818434E-01   2.925942440580015E-01   2.986764213723921E-01
   3.048513551046088E-01   3.111187456623948E-01   3.174781851059316E-01
   3.239291516407853E-01   3.304710039850742E-01   3.371029756173975E-01
   3.438241689131979E-01   3.506335491783569E-01   3.575299385900955E-01
   3.645120100566033E-01   3.715782810082106E-01   3.787271071345104E-01
   3.859566760833891E-01   3.932650011397013E-01   4.006499149031273E-01
   4.081090629866582E-01   4.156398977592264E-01   4.232396721580781E-01
   4.309054335987408E-01   4.386340180127872E-01   4.464220440459680E-01
   4.542659074518798E-01   4.621617757188782E-01   4.701055829706768E-01
   4.780930251838252E-01   4.861195557680669E-01   4.941803815584938E-01
   5.022704592712761E-01   5.103844924777181E-01   5.185169291543136E-01
   5.266619598693458E-01   5.348135166695043E-01   5.429652727327071E-01
   5.511106428560114E-01   5.592427848500426E-01   5.673546019136443E-01
   5.754387460646164E-01   5.834876227041533E-01   5.914933963941045E-01
   5.994479979272266E-01   6.073431327711589E-01   6.151702909669402E-01
   6.229207585622484E-01   6.305856306582732E-01   6.381558261470442E-01
   6.456221042129523E-01   6.529750826682744E-01   6.602052581872947E-01
   6.673030284972430E-01   6.742587165764776E-01   6.810625969010644E-01
   6.877049237700690E-01   6.941759617271542E-01   7.004660180814781E-01
   7.065654775142240E-01   7.124648387381777E-01   7.181547531565683E-01
   7.236260654435991E-01   7.288698559427326E-01   7.338774847496585E-01
   7.386406373148097E-01   7.431513713653223E-01   7.474021649082493E-01
   7.513859650356561E-01   7.550962372079432E-01   7.585270146442479E-01
   7.616729473983322E-01   7.645293506448408E-01   7.670922516446004E-01
   7.693584347988131E-01   7.713254841408810E-01   7.729918225517205E-01
   7.743567469201011E-01   7.754204584045217E-01   7.761840868880874E-01
   7.766497086535997E-01   7.768203562436314E-01   7.767000194109193E-01
   7.762936360093565E-01   7.756070716265934E-01   7.746470867174557E-01
   7.734212899650520E-01   7.719380765756422E-01   7.702065502063686E-01
   7.682364272343440E-01   7.660379221041154E-01   7.636216125410908E-01
   7.609982834943092E-01   7.581787487761932E-01   7.551736495032112E-01
   7.519932286131883E-01   7.486470809460106E-01   7.451438786283406E-01
   7.414910718032918E-01   7.376945650962374E-01   7.337583706113542E-01
   7.296842387128903E-01   7.254712683630566E-01   7.211154993663974E-01
   7.166115993965974E-01   7.119601862055032E-01   7.071637522449906E-01
   7.022248870276131E-01   6.971462745288742E-01   6.919306905311345E-01
   6.865809998962417E-01   6.811001538275884E-01   6.754911871470460E-01
   6.697572154772475E-01   6.639014319465614E-01   6.579271011341848E-01
   6.518375631854811E-01   6.456362278050701E-01   6.393265708678172E-01
   6.329121313975822E-01   6.263965085159828E-01   6.197833583564604E-01
   6.130763909404089E-01   6.062793670128509E-01   5.993960948338027E-01
   5.924304269213575E-01   5.853862567421081E-01   5.782675153442611E-01
   5.710781679286755E-01   5.638222103530761E-01   5.565036655648322E-01
   5.491265799580685E-01   5.416950196513645E-01   5.342130666830522E-01
   5.266848151220231E-01   5.191143670930988E-01   5.115058287173463E-01
   5.038633059692258E-01   4.961909004541656E-01   4.884927051119933E-01
   4.807727998536157E-01   4.730352471403916E-01   4.652840875177165E-01
   4.575233351164421E-01   4.497569731377509E-01   4.419889493390385E-01
   4.342231715401018E-01   4.264635031704539E-01   4.187137588798581E-01
   4.109777002351201E-01   4.032590315267775E-01   3.955613957095604E-01
   3.878883705002943E-01   3.802434646563619E-01   3.726301144568140E-01
   3.650516804068529E-01   3.575114441846349E-01   3.500126058472197E-01
   3.425582813101021E-01   3.351515001120630E-01   3.277952034742120E-01
   3.204922426590588E-01   3.132453776323086E-01   3.060572760269251E-01
   2.989305124058250E-01   2.918675678164971E-01   2.848708296278534E-01
   2.779425916367608E-01   2.710850544291600E-01   2.643003259782608E-01
   2.575904224600102E-01   2.509572692643496E-01   2.444027021791715E-01
   2.379284687225441E-01   2.315362295978687E-01   2.252275602460164E-01
   2.190039524681852E-01   2.128668160932425E-01   2.068174806636862E-01
   2.008571971150278E-01   1.949871394244063E-01   1.892084062055533E-01
   1.835220222288421E-01   1.779289398470632E-01   1.724300403097407E-01
   1.670261349512461E-01   1.617179662406197E-01   1.565062086838709E-01
   1.513914695725515E-01   1.463742895755309E-01   1.414551431741180E-01
   1.366344389439062E-01   1.319125196899144E-01   1.272896624446997E-01
   1.227660783420654E-01   1.183419123817233E-01   1.140172431027398E-01
   1.097920821857322E-01   1.056663740055700E-01   1.016399951577035E-01
   9.771275398219111E-02   9.388439010999401E-02   9.015457405614422E-02
   8.652290688399539E-02   8.298891996392514E-02   7.955207484862273E-02
   7.621176328548993E-02   7.296730738475403E-02   6.981795995969337E-02
   6.676290505295393E-02   6.380125866035535E-02   6.093206966089818E-02
   5.815432095894418E-02   5.546693084181111E-02   5.286875455333690E-02
   5.035858608138338E-02   4.793516015479527E-02   4.559715444304054E-02
   4.334319194966369E-02   4.117184358879473E-02   3.908163093229589E-02
   3.707102911369820E-02   3.513846987388336E-02   3.328234473250714E-02
   3.150100826842238E-02   2.979278149184732E-02   2.815595529071418E-02
   2.658879393351826E-02   2.508953861105236E-02   2.365641099963684E-02
   2.228761682882920E-02   2.098134943710011E-02   1.973579329957785E-02
   1.854912751267851E-02   1.741952922123400E-02   1.634517697459436E-02
   1.532425399909829E-02   1.435495137526493E-02   1.343547110904969E-02
   1.256402908751368E-02   1.173885791027513E-02   1.095820958912899E-02
   1.022035810923218E-02   9.523601846249747E-03   8.866265834834857E-03
   8.246703884767751E-03   7.663300542001800E-03   7.114472892753535E-03
   6.598672209625785E-03   6.114385439565065E-03   5.660136534224637E-03
   5.234487624030833E-03   4.836040037931064E-03   4.463435171436635E-03
   4.115355206160598E-03   3.790523684590875E-03   3.487705944331142E-03
   3.205709416486720E-03   2.943383793272029E-03   2.699621070253387E-03
   2.473355468976108E-03   2.263563245953672E-03   2.069262394227540E-03
   1.889512243877695E-03   1.723412967995750E-03   1.570105000724867E-03
   1.428768374024968E-03   1.298621979839821E-03   1.178922764327735E-03
   1.068964860750497E-03   9.680786675730574E-04   8.756298781766299E-04
   7.910184684699683E-04   7.136776485191557E-04   6.430727841307827E-04
   5.787002941175401E-04   5.200865287503750E-04   4.667866346594291E-04
   4.183834111889980E-04   3.744861629414228E-04   3.347295529630353E-04
   2.987724607336005E-04   2.662968488313225E-04   2.370074276208701E-04
   2.106367760751422E-04   1.869290698164400E-04   1.656465999511268E-04
   1.465696330730604E-04   1.294953661050507E-04   1.142369155478478E-04
   1.006223422272629E-04   8.849371245282212E-05   7.770619631956755E-05
   6.812720371232937E-05   5.963555841070402E-05   5.212071054492113E-05
   4.548198751971182E-05   3.962788340735650E-05   3.447538671519784E-05
   2.994934635835183E-05   2.598187562132107E-05   2.251179387392589E-05
   1.948410582412514E-05   1.684951814862487E-05   1.456399344951034E-05
   1.258834165137250E-05   1.086021977647231E-05   9.351479175688321E-06
   8.036797773874318E-06   6.893441580298950E-06   5.901041271180410E-06
   5.041383411984153E-06   4.298215845855555E-06   3.657066739542263E-06
   3.105076749250568E-06   2.630843745863269E-06   2.224279521563983E-06
   1.876477887874972E-06   1.579593568099834E-06   1.326731284822456E-06
   1.111844445085154E-06   9.296428317722895E-07   7.755087191742101E-07
   6.454208433092262E-07   5.358856729487219E-07   4.438754450386728E-07
   3.667724479648295E-07   3.023190575075359E-07   2.485730530290667E-07
   2.038677651061273E-07   1.667766301557670E-07   1.360817523219908E-07
   1.107460977335684E-07   8.988897097674824E-08   7.276444804083645E-08
   5.874246390640786E-08   4.729227619673464E-08   3.796804876882068E-08
   3.039632067072366E-08   2.426514644851120E-08   1.931471328223092E-08
   1.532925881818409E-08   1.213013081506178E-08   9.569845820836615E-09
   7.527019046882034E-09   5.902051419523271E-09   4.613472491977843E-09
   3.594849525554434E-09   2.792183639812808E-09   2.161723534985605E-09
   1.668135958805619E-09   1.282979879749362E-09   9.834382974784923E-10
   7.512678278307747E-10   5.719317030507471E-10   4.338866862796893E-10
   3.279986694333208E-10   2.470654602696540E-10   1.854285200192507E-10
   1.386582369454445E-10   1.032997601031483E-10   7.666851464181675E-11
   5.668631522753196E-11   4.175052420752393E-11   3.062999940470759E-11
   2.238267312481001E-11   1.629052624231444E-11   1.180849335930211E-11
   8.524478532344110E-12   6.128194929655672E-12   4.386982668901325E-12
   3.127121514382253E-12   2.219451664048207E-12   1.568357374377399E-12
   1.103363943829437E-12   7.727565164010566E-13   5.387559785425896E-13
   3.738885508329133E-13   2.582662486606129E-13   1.775591415913086E-13
   1.214905402932571E-13   8.272556845179991E-14   5.605423421725747E-14
   3.779389213059907E-14   2.535433205912575E-14   1.692281374486490E-14
   1.123711854872247E-14   7.422857607632647E-15   4.877446485318400E-15
   3.187793582677112E-15   2.072215330251532E-15   1.339667223819808E-15
   8.612838768311065E-16   5.506208302520131E-16   3.500137520224981E-16
   2.212139758979225E-16   1.389963628731644E-16   8.682119821628626E-17
   5.390725528577234E-17   3.326863680643368E-17   2.040590949995682E-17
   1.243874251930645E-17   7.534640858532392E-18   4.535025660311799E-18
   2.712021826023554E-18   1.611267095054786E-18   9.509705447829916E-19
   5.575137158320843E-19   3.246357544665430E-19   1.877380599113103E-19
   1.078166652228024E-19   6.148355892553690E-20   3.481233046986628E-20
   1.956902419960149E-20   1.092012736702134E-20   6.048792531999371E-21
   3.325459121138282E-21   1.814410108751887E-21   9.823781224961184E-22
   5.277633540582254E-22   2.813030989637850E-22   1.487446712983394E-22
   7.801826105092540E-23   4.058773844046774E-23   2.094075850179072E-23
   1.071380162667993E-23   5.435037306385768E-24   2.733522897635858E-24
   1.362878369396350E-24   6.735316734380339E-25   3.298961429950588E-25
   1.601274850228218E-25   7.701485182388274E-26   3.669889157350036E-26
   1.732409462190156E-26   8.100576372091559E-27   3.751431841746390E-27
   1.720447019961206E-27   7.812595260109647E-28   3.512409419825382E-28
   1.563205420374153E-28   6.886090441734356E-29   3.002058058206604E-29
   1.295085332263788E-29   5.527810424810757E-30   2.334130626131535E-30
   9.748897513515527E-31   4.027026744399934E-31
    </PP_CHI.2>
  </PP_PSWFC>
  <PP_FULL_WFC number_of_wfc="4">
    <PP_AEWFC.1 index="1" label="2S" l="0">
   1.065487859193457E-03   1.078872440464390E-03   1.092425157875262E-03
   1.106148123540080E-03   1.120043312176751E-03   1.134112538268600E-03
   1.148358070302580E-03   1.162782097679421E-03   1.177386854825578E-03
   1.192174603919504E-03   1.207147635349923E-03   1.222308268089886E-03
   1.237658849908269E-03   1.253201757573385E-03   1.268939397359859E-03
   1.284874206239760E-03   1.301008651649278E-03   1.317345231178442E-03
   1.333886473423513E-03   1.350634938518420E-03   1.367593218466901E-03
   1.384763937363430E-03   1.402149751995397E-03   1.419753352252878E-03
   1.437577461462112E-03   1.455624836813105E-03   1.473898269669663E-03
   1.492400586128039E-03   1.511134647445607E-03   1.530103350398130E-03
   1.549309627818122E-03   1.568756448948514E-03   1.588446819872713E-03
   1.608383784030639E-03   1.628570422688985E-03   1.649009855370152E-03
   1.669705240302594E-03   1.690659774947759E-03   1.711876696446166E-03
   1.733359282057873E-03   1.755110849731840E-03   1.777134758628030E-03
   1.799434409547394E-03   1.822013245426555E-03   1.844874751915467E-03
   1.868022457910077E-03   1.891459936031462E-03   1.915190803189587E-03
   1.939218721115809E-03   1.963547396912520E-03   1.988180583607616E-03
   2.013122080714715E-03   2.038375734797964E-03   2.063945440051419E-03
   2.089835138888249E-03   2.116048822512426E-03   2.142590531514900E-03
   2.169464356491984E-03   2.196674438642562E-03   2.224224970384517E-03
   2.252120195978799E-03   2.280364412151283E-03   2.308961968747701E-03
   2.337917269376688E-03   2.367234772045697E-03   2.396918989840368E-03
   2.426974491592123E-03   2.457405902546460E-03   2.488217905052331E-03
   2.519415239252939E-03   2.551002703786462E-03   2.582985156494601E-03
   2.615367515139417E-03   2.648154758128501E-03   2.681351925248530E-03
   2.714964118407338E-03   2.748996502384576E-03   2.783454305591045E-03
   2.818342820836805E-03   2.853667406108145E-03   2.889433485353509E-03
   2.925646549278480E-03   2.962312156149862E-03   2.999435932608989E-03
   3.037023574493946E-03   3.075080847674296E-03   3.113613588903077E-03
   3.152627706654622E-03   3.192129181962571E-03   3.232124069330664E-03
   3.272618497589382E-03   3.313618670762287E-03   3.355130869021474E-03
   3.397161449591680E-03   3.439716847643850E-03   3.482803577257061E-03
   3.526428232342060E-03   3.570597487569103E-03   3.615318099371492E-03
   3.660596906899214E-03   3.706440833010302E-03   3.752856885265907E-03
   3.799852156937617E-03   3.847433828026013E-03   3.895609166290516E-03
   3.944385528290654E-03   3.993770360438896E-03   4.043771200065125E-03
   4.094395676492867E-03   4.145651512127390E-03   4.197546523555772E-03
   4.250088622659042E-03   4.303285817736521E-03   4.357146214642451E-03
   4.411678017935025E-03   4.466889532037952E-03   4.522789162414616E-03
   4.579385416754991E-03   4.636686906175394E-03   4.694702346431176E-03
   4.753440559142499E-03   4.812910473033262E-03   4.873121125183329E-03
   4.934081662294130E-03   4.995801341967778E-03   5.058289533999795E-03
   5.121555721685549E-03   5.185609503140539E-03   5.250460592634604E-03
   5.316118821940196E-03   5.382594141694800E-03   5.449896622777623E-03
   5.518036457700669E-03   5.587023962014282E-03   5.656869575727292E-03
   5.727583864741852E-03   5.799177522303081E-03   5.871661370463617E-03
   5.945046361563192E-03   6.019343579723363E-03   6.094564242357503E-03
   6.170719701694963E-03   6.247821446327278E-03   6.325881102792268E-03
   6.404910437128969E-03   6.484921356381625E-03   6.565925910219091E-03
   6.647936292593437E-03   6.730964843474747E-03   6.815024050491752E-03
   6.900126550436028E-03   6.986285131024394E-03   7.073512732630146E-03
   7.161822449968248E-03   7.251227533840100E-03   7.341741392881624E-03
   7.433377595330052E-03   7.526149870807446E-03   7.620072112121111E-03
   7.715158377080941E-03   7.811422890333803E-03   7.908880045215021E-03
   8.007544405617016E-03   8.107430707875205E-03   8.208553862671161E-03
   8.310928956953153E-03   8.414571255874083E-03   8.519496204746894E-03
   8.625719431017477E-03   8.733256746255148E-03   8.842124148160721E-03
   8.952337822592230E-03   9.063914145608297E-03   9.176869685529230E-03
   9.291221205015843E-03   9.406985663166025E-03   9.524180217629080E-03
   9.642822226737830E-03   9.762929251658553E-03   9.884519058558645E-03
   1.000760962079213E-02   1.013221912110289E-02   1.025836595384574E-02
   1.038606872722514E-02   1.051534626555171E-02   1.064621761151640E-02
   1.077870202848227E-02   1.091281900279394E-02   1.104858824610453E-02
   1.118602969772009E-02   1.132516352696144E-02   1.146601013554340E-02
   1.160859015997122E-02   1.175292447395418E-02   1.189903419083629E-02
   1.204694066604389E-02   1.219666549955014E-02   1.234823053835615E-02
   1.250165787898879E-02   1.265696987001473E-02   1.281418911457096E-02
   1.297333847291124E-02   1.313444106496854E-02   1.329752027293316E-02
   1.346259974384642E-02   1.362970339220956E-02   1.379885540260781E-02
   1.397008023234926E-02   1.414340261411825E-02   1.431884755864316E-02
   1.449644035737817E-02   1.467620658519877E-02   1.485817210311068E-02
   1.504236306097191E-02   1.522880590022751E-02   1.541752735665672E-02
   1.560855446313222E-02   1.580191455239088E-02   1.599763525981584E-02
   1.619574452622931E-02   1.639627060069572E-02   1.659924204333476E-02
   1.680468772814382E-02   1.701263684582925E-02   1.722311890664605E-02
   1.743616374324530E-02   1.765180151352888E-02   1.787006270351076E-02
   1.809097813018438E-02   1.831457894439534E-02   1.854089663371890E-02
   1.876996302534137E-02   1.900181028894491E-02   1.923647093959483E-02
   1.947397784062873E-02   1.971436420654657E-02   1.995766360590089E-02
   2.020390996418642E-02   2.045313756672797E-02   2.070538106156589E-02
   2.096067546233804E-02   2.121905615115732E-02   2.148055888148369E-02
   2.174521978098968E-02   2.201307535441830E-02   2.228416248643218E-02
   2.255851844445277E-02   2.283618088148848E-02   2.311718783895044E-02
   2.340157774945456E-02   2.368938943960873E-02   2.398066213278357E-02
   2.427543545186549E-02   2.457374942199054E-02   2.487564447325755E-02
   2.518116144341898E-02   2.549034158054797E-02   2.580322654567984E-02
   2.611985841542638E-02   2.644027968456126E-02   2.676453326857458E-02
   2.709266250619495E-02   2.742471116187685E-02   2.776072342825170E-02
   2.810074392854027E-02   2.844481771892450E-02   2.879299029087663E-02
   2.914530757344325E-02   2.950181593548219E-02   2.986256218784974E-02
   3.022759358553591E-02   3.059695782974520E-02   3.097070306992034E-02
   3.134887790570633E-02   3.173153138885224E-02   3.211871302504773E-02
   3.251047277569175E-02   3.290686105959026E-02   3.330792875458008E-02
   3.371372719907576E-02   3.412430819353622E-02   3.453972400184805E-02
   3.496002735262196E-02   3.538527144039910E-02   3.581550992676354E-02
   3.625079694135743E-02   3.669118708279508E-02   3.713673541947217E-02
   3.758749749026594E-02   3.804352930512282E-02   3.850488734552883E-02
   3.897162856485897E-02   3.944381038860085E-02   3.992149071444850E-02
   4.040472791226154E-02   4.089358082388502E-02   4.138810876282537E-02
   4.188837151377715E-02   4.239442933199602E-02   4.290634294251230E-02
   4.342417353918015E-02   4.394798278355681E-02   4.447783280360629E-02
   4.501378619222199E-02   4.555590600556216E-02   4.610425576119238E-02
   4.665889943602906E-02   4.721990146407730E-02   4.778732673395709E-02
   4.836124058621113E-02   4.894170881038740E-02   4.952879764188983E-02
   5.012257375858997E-02   5.072310427719223E-02   5.133045674934569E-02
   5.194469915749456E-02   5.256589991045987E-02   5.319412783874433E-02
   5.382945218955230E-02   5.447194262151667E-02   5.512166919912428E-02
   5.577870238683102E-02   5.644311304285800E-02   5.711497241265984E-02
   5.779435212205553E-02   5.848132417001291E-02   5.917596092107681E-02
   5.987833509743118E-02   6.058851977058519E-02   6.130658835267304E-02
   6.203261458735701E-02   6.276667254032313E-02   6.350883658935853E-02
   6.425918141399949E-02   6.501778198473844E-02   6.578471355177908E-02
   6.656005163332690E-02   6.734387200340390E-02   6.813625067917468E-02
   6.893726390777154E-02   6.974698815260591E-02   7.056550007915294E-02
   7.139287654019616E-02   7.222919456051848E-02   7.307453132102593E-02
   7.392896414229004E-02   7.479257046749459E-02   7.566542784477200E-02
   7.654761390891492E-02   7.743920636244758E-02   7.834028295604152E-02
   7.925092146826054E-02   8.017119968461825E-02   8.110119537593276E-02
   8.204098627596138E-02   8.299065005829931E-02   8.395026431252453E-02
   8.491990651957229E-02   8.589965402632116E-02   8.688958401937297E-02
   8.788977349800854E-02   8.890029924630058E-02   8.992123780436527E-02
   9.095266543873337E-02   9.199465811182163E-02   9.304729145048510E-02
   9.411064071363009E-02   9.518478075886812E-02   9.626978600819017E-02
   9.736573041264061E-02   9.847268741596994E-02   9.959072991724501E-02
   1.007199302323952E-01   1.018603600546727E-01   1.030120904140057E-01
   1.041751916352204E-01   1.053497332951108E-01   1.065357841783338E-01
   1.077334122321047E-01   1.089426845196710E-01   1.101636671725417E-01
   1.113964253414468E-01   1.126410231460036E-01   1.138975236230662E-01
   1.151659886737330E-01   1.164464790089879E-01   1.177390540939505E-01
   1.190437720907103E-01   1.203606897997193E-01   1.216898625997186E-01
   1.230313443861730E-01   1.243851875081873E-01   1.257514427038809E-01
   1.271301590341915E-01   1.285213838150859E-01   1.299251625481485E-01
   1.313415388495232E-01   1.327705543771835E-01   1.342122487565018E-01
   1.356666595040953E-01   1.371338219499202E-01   1.386137691575884E-01
   1.401065318428819E-01   1.416121382904383E-01   1.431306142685808E-01
   1.446619829422694E-01   1.462062647841453E-01   1.477634774836454E-01
   1.493336358541603E-01   1.509167517382121E-01   1.525128339106274E-01
   1.541218879796804E-01   1.557439162861844E-01   1.573789178005054E-01
   1.590268880174787E-01   1.606878188492013E-01   1.623616985156833E-01
   1.640485114333323E-01   1.657482381012535E-01   1.674608549853433E-01
   1.691863344001578E-01   1.709246443885373E-01   1.726757485989693E-01
   1.744396061606723E-01   1.762161715563848E-01   1.780053944928442E-01
   1.798072197689416E-01   1.816215871415390E-01   1.834484311889376E-01
   1.852876811719861E-01   1.871392608928197E-01   1.890030885512218E-01
   1.908790765986018E-01   1.927671315895834E-01   1.946671540312003E-01
   1.965790382296978E-01   1.985026721349381E-01   2.004379371824140E-01
   2.023847081328710E-01   2.043428529095465E-01   2.063122324330308E-01
   2.082927004537618E-01   2.102841033821637E-01   2.122862801164452E-01
   2.142990618680726E-01   2.163222719849382E-01   2.183557257722457E-01
   2.203992303111358E-01   2.224525842750822E-01   2.245155777440855E-01
   2.265879920167004E-01   2.286695994199327E-01   2.307601631170456E-01
   2.328594369133183E-01   2.349671650598056E-01   2.370830820551474E-01
   2.392069124454833E-01   2.413383706225306E-01   2.434771606198881E-01
   2.456229759076321E-01   2.477754991852757E-01   2.499344021731666E-01
   2.520993454024031E-01   2.542699780033534E-01   2.564459374928672E-01
   2.586268495602742E-01   2.608123278522692E-01   2.630019737567886E-01
   2.651953761859879E-01   2.673921113584380E-01   2.695917425806590E-01
   2.717938200281215E-01   2.739978805258472E-01   2.762034473287491E-01
   2.784100299018571E-01   2.806171237005803E-01   2.828242099511669E-01
   2.850307554315251E-01   2.872362122525792E-01   2.894400176403394E-01
   2.916415937188718E-01   2.938403472943648E-01   2.960356696404893E-01
   2.982269362852666E-01   3.004135067996562E-01   3.025947245880915E-01
   3.047699166811947E-01   3.069383935309113E-01   3.090994488083140E-01
   3.112523592043333E-01   3.133963842336796E-01   3.155307660422343E-01
   3.176547292181882E-01   3.197674806072247E-01   3.218682091320447E-01
   3.239560856165452E-01   3.260302626149704E-01   3.280898742463638E-01
   3.301340360346577E-01   3.321618447547487E-01   3.341723782849149E-01
   3.361646954659401E-01   3.381378359673207E-01   3.400908201609409E-01
   3.420226490026091E-01   3.439323039218605E-01   3.458187467204398E-01
   3.476809194798861E-01   3.495177444786533E-01   3.513281241192085E-01
   3.531109408655601E-01   3.548650571916766E-01   3.565893155412666E-01
   3.582825382994004E-01   3.599435277764619E-01   3.615710662049298E-01
   3.631639157494942E-01   3.647208185310251E-01   3.662404966649179E-01
   3.677216523143491E-01   3.691629677589829E-01   3.705631054796787E-01
   3.719207082597575E-01   3.732343993033918E-01   3.745027823716902E-01
   3.757244419370588E-01   3.768979433564220E-01   3.780218330638979E-01
   3.790946387835249E-01   3.801148697626441E-01   3.810810170265463E-01
   3.819915536549970E-01   3.828449350812579E-01   3.836395994142258E-01
   3.843739677843134E-01   3.850464447137004E-01   3.856554185115820E-01
   3.861992616950468E-01   3.866763314362143E-01   3.870849700362626E-01
   3.874235054269770E-01   3.876902517004455E-01   3.878835096675301E-01
   3.880015674457315E-01   3.880427010770685E-01   3.880051751765817E-01
   3.878872436120682E-01   3.876871502156441E-01   3.874031295277250E-01
   3.870334075740022E-01   3.865762026759833E-01   3.860297262956520E-01
   3.853921839147867E-01   3.846617759494662E-01   3.838366987002669E-01
   3.829151453386445E-01   3.818953069299670E-01   3.807753734936468E-01
   3.795535351007943E-01   3.782279830097903E-01   3.767969108401447E-01
   3.752585157849816E-01   3.736109998624565E-01   3.718525712063764E-01
   3.699814453962588E-01   3.679958468270242E-01   3.658940101184758E-01
   3.636741815646752E-01   3.613346206232750E-01   3.588736014448211E-01
   3.562894144419829E-01   3.535803678986139E-01   3.507447896184868E-01
   3.477810286134873E-01   3.446874568309813E-01   3.414624709200074E-01
   3.381044940358722E-01   3.346119776826523E-01   3.309834035930317E-01
   3.272172856448179E-01   3.233121718134042E-01   3.192666461593511E-01
   3.150793308501774E-01   3.107488882153552E-01   3.062740228334119E-01
   3.016534836499438E-01   2.968860661252480E-01   2.919706144101804E-01
   2.869060235487447E-01   2.816912417058142E-01   2.763252724182894E-01
   2.708071768678851E-01   2.651360761736467E-01   2.593111537021848E-01
   2.533316573935276E-01   2.471969021003866E-01   2.409062719385394E-01
   2.344592226459465E-01   2.278552839481296E-01   2.210940619272600E-01
   2.141752413923336E-01   2.070985882477382E-01   1.998639518574599E-01
   1.924712674021204E-01   1.849205582259946E-01   1.772119381711129E-01
   1.693456138955299E-01   1.613218871728087E-01   1.531411571697587E-01
   1.448039226994458E-01   1.363107844464868E-01   1.276624471616267E-01
   1.188597218225877E-01   1.099035277581587E-01   1.007948947324669E-01
   9.153496498632936E-02   8.212499523251847E-02   7.256635860168333E-02
   6.286054653554088E-02   5.300917062377813E-02   4.301396438087859E-02
   3.287678495879053E-02   2.259961479097805E-02   1.218456316292373E-02
   1.633867703564639E-03  -9.050104208577036E-03  -1.986485413168358E-02
  -3.080775134752382E-02  -4.187603175836517E-02  -5.306679690485528E-02
  -6.437701311758207E-02  -7.580351081708445E-02  -8.734298397946894E-02
  -9.899198978750155E-02  -1.107469484900877E-01  -1.226041434963923E-01
  -1.345597217344099E-01  -1.466096943074393E-01  -1.587499374854111E-01
  -1.709761940710344E-01  -1.832840751827680E-01  -1.956690624970269E-01
  -2.081265109899349E-01  -2.206516522132501E-01  -2.332395981285717E-01
  -2.458853455071987E-01  -2.585837808787160E-01  -2.713296859784349E-01
  -2.841177436017003E-01  -2.969425437222611E-01  -3.097985896743091E-01
  -3.226803041372188E-01  -3.355820346044192E-01  -3.484980579712706E-01
  -3.614225838509988E-01  -3.743497562328833E-01  -3.872736531421770E-01
  -4.001882840527639E-01  -4.130875849424764E-01  -4.259654110620190E-01
  -4.388155276992993E-01  -4.516315994430338E-01  -4.644071786593422E-01
  -4.771356940668278E-01  -4.898104404039125E-01  -5.024245702049990E-01
  -5.149710886244827E-01  -5.274428520657537E-01  -5.398325710965783E-01
  -5.521328177894751E-01  -5.643360372575452E-01  -5.764345628132498E-01
  -5.884206339093581E-01  -6.002864158649673E-01  -6.120240203512641E-01
  -6.236255257034021E-01  -6.350829963076824E-01  -6.463885005464443E-01
  -6.575341270247376E-01  -6.685119990187065E-01  -6.793142872540379E-01
  -6.899332212355490E-01  -7.003610994085636E-01  -7.105902984485123E-01
  -7.206132819593927E-01  -7.304226088263538E-01  -7.400109414227182E-01
  -7.493710538246035E-01  -7.584958401416654E-01  -7.673783230329817E-01
  -7.760116624438050E-01  -7.843891645719216E-01  -7.925042910512029E-01
  -8.003506683239516E-01  -8.079220971620362E-01  -8.152125622888627E-01
  -8.222162420493048E-01  -8.289275180722161E-01  -8.353409848696141E-01
  -8.414514593176029E-01  -8.472539899662597E-01  -8.527438661286912E-01
  -8.579166267030462E-01  -8.627680686851688E-01  -8.672942553336593E-01
  -8.714915239531777E-01  -8.753564932657959E-01  -8.788860703439828E-01
  -8.820774570823368E-01  -8.849281561884399E-01  -8.874359766761770E-01
  -8.895990388475549E-01  -8.914157787514833E-01  -8.928849521101566E-01
  -8.940056377056509E-01  -8.947772402211218E-01  -8.951994925326212E-01
  -8.952724574490351E-01  -8.949965288990359E-01  -8.943724325652401E-01
  -8.934012259669939E-01  -8.920842979943900E-01  -8.904233678972530E-01
  -8.884204837339326E-01  -8.860780202858128E-01  -8.833986764444925E-01
  -8.803854720796072E-01  -8.770417443962526E-01  -8.733711437919359E-01
  -8.693776292239025E-01  -8.650654630985896E-01  -8.604392056958017E-01
  -8.555037091410227E-01  -8.502641109400355E-01  -8.447258270907326E-01
  -8.388945447876536E-01  -8.327762147353841E-01  -8.263770430874732E-01
  -8.197034830280043E-01  -8.127622260133414E-01  -8.055601926919090E-01
  -7.981045235201208E-01  -7.904025690927579E-01  -7.824618802062174E-01
  -7.742901976731000E-01  -7.658954419065830E-01  -7.572857022929380E-01
  -7.484692263704084E-01  -7.394544088324442E-01  -7.302497803730371E-01
  -7.208639963915876E-01  -7.113058255743758E-01  -7.015841383693138E-01
  -6.917078953702381E-01  -6.816861356265455E-01  -6.715279648935463E-01
  -6.612425438383821E-01  -6.508390762174965E-01  -6.403267970344011E-01
  -6.297149606990792E-01  -6.190128291973975E-01  -6.082296602848686E-01
  -5.973746957177389E-01  -5.864571495342092E-01  -5.754861963986311E-01
  -5.644709600217271E-01  -5.534205016700970E-01  -5.423438087786554E-01
  -5.312497836801917E-01  -5.201472324669169E-01  -5.090448539996527E-01
  -4.979512290812543E-01  -4.868748098118765E-01  -4.758239091448278E-01
  -4.648066906629293E-01  -4.538311585965147E-01  -4.429051481054059E-01
  -4.320363158483663E-01  -4.212321308645869E-01  -4.104998657926912E-01
  -3.998465884534734E-01  -3.892791538230864E-01  -3.788041964236095E-01
  -3.684281231578278E-01  -3.581571066145939E-01  -3.479970788703112E-01
  -3.379537258108484E-01  -3.280324819965625E-01  -3.182385260910880E-01
  -3.085767768721419E-01  -2.990518898398546E-01  -2.896682544350619E-01
  -2.804299918766807E-01  -2.713409536237483E-01  -2.624047204640289E-01
  -2.536246022273240E-01  -2.450036381178416E-01  -2.365445976562431E-01
  -2.282499822183696E-01  -2.201220271541900E-01  -2.121627044672941E-01
  -2.043737260322828E-01  -1.967565473247879E-01  -1.893123716365055E-01
  -1.820421547456822E-01  -1.749466100120028E-01  -1.680262138635380E-01
  -1.612812116425860E-01  -1.547116237768944E-01  -1.483172522426087E-01
  -1.420976872855287E-01  -1.360523143678276E-01  -1.301803213082394E-01
  -1.244807055848195E-01  -1.189522817707165E-01  -1.135936890749183E-01
  -1.084033989616227E-01  -1.033797228237048E-01  -9.852081968766384E-02
  -9.382470392941934E-02  -8.928925298233201E-02  -8.491221502084353E-02
  -8.069121660510870E-02  -7.662377027391454E-02  -7.270728207501201E-02
  -6.893905902369550E-02  -6.531631648203300E-02  -6.183618545254664E-02
  -5.849571978135323E-02  -5.529190326677744E-02  -5.222165667023700E-02
  -4.928184462676027E-02  -4.646928245283139E-02  -4.378074284937084E-02
  -4.121296249755964E-02  -3.876264854491968E-02  -3.642648497859231E-02
  -3.420113888213955E-02  -3.208326657145708E-02  -3.006951960457003E-02
  -2.815655065921814E-02  -2.634101927126198E-02  -2.461959742609469E-02
  -2.298897499445755E-02  -2.144586500336692E-02  -1.998700873229108E-02
  -1.860918062429445E-02  -1.730919300161129E-02  -1.608390057503502E-02
  -1.493020473662163E-02  -1.384505762550745E-02  -1.282546595713100E-02
  -1.186849460681780E-02  -1.097126993952369E-02  -1.013098287852149E-02
  -9.344891706938800E-03  -8.610324597290395E-03  -7.924681865475819E-03
  -7.285437947107207E-03  -6.690143095471678E-03  -6.136424801893524E-03
  -5.621988940722030E-03  -5.144620642610324E-03  -4.702184901149806E-03
  -4.292626919266445E-03  -3.913972203053758E-03  -3.564326411899689E-03
  -3.241874974849664E-03  -2.944882484126782E-03  -2.671691877595701E-03
  -2.420723422704317E-03  -2.190473515064004E-03  -1.979513305333670E-03
  -1.786487168455824E-03  -1.610111029556027E-03  -1.449170560963898E-03
  -1.302519264848546E-03  -1.169076455889455E-03  -1.047825158231516E-03
  -9.378099307072160E-04  -8.381346339572242E-04  -7.479601526508722E-04
  -6.665020855082982E-04  -5.930284152648195E-04  -5.268571701037635E-04
  -4.673540874249547E-04  -4.139302901206001E-04  -3.660399848065224E-04
  -3.231781907123918E-04  -2.848785071772822E-04  -2.507109269336617E-04
  -2.202797016004841E-04  -1.932212650506752E-04  -1.692022195754501E-04
  -1.479173890438477E-04  -1.290879425526797E-04  -1.124595913880466E-04
  -9.780086147456941E-05  -8.490144287689197E-05  -7.357061734308896E-05
  -6.363576434255497E-05  -5.494094555342980E-05  -4.734556729780139E-05
  -4.072312000714669E-05  -3.495999342669045E-05  -2.995436593332909E-05
  -2.561516604999112E-05  -2.186110398602236E-05  -1.861977081813993E-05
  -1.582680274872137E-05  -1.342510773531252E-05  -1.136415167545164E-05
  -9.599301252228540E-06  -8.091220495801816E-06  -6.805318096179803E-06
  -5.711242477232216E-06  -4.782421976103355E-06  -3.995644439073802E-06
  -3.330692710017305E-06  -2.769949373212755E-06  -2.298204129715016E-06
  -1.902301935528474E-06  -1.570841678154288E-06  -1.293992946251730E-06
  -1.063312240814931E-06  -8.715649107845092E-07  -7.125672173546163E-07
  -5.810466102187477E-07  -4.725184289139077E-07  -3.831773672569851E-07
  -3.098021590153201E-07  -2.496720569534197E-07  -2.004937862094153E-07
  -1.603377417616455E-07  -1.275823587886201E-07  -1.008652337014856E-07
  -7.904206040803080E-08  -6.114311817194468E-08  -4.642866833744061E-08
  -3.382289793083209E-08   0.000000000000000E+00   0.000000000000000E+00
   0.000000000000000E+00   0.000000000000000E+00   0.000000000000000E+00
   0.000000000000000E+00   0.000000000000000E+00   0.000000000000000E+00
   0.000000000000000E+00   0.000000000000000E+00   0.000000000000000E+00
   0.000000000000000E+00   0.000000000000000E+00   0.000000000000000E+00
   0.000000000000000E+00   0.000000000000000E+00   0.000000000000000E+00
   0.000000000000000E+00   0.000000000000000E+00   0.000000000000000E+00
   0.000000000000000E+00   0.000000000000000E+00   0.000000000000000E+00
   0.000000000000000E+00   0.000000000000000E+00   0.000000000000000E+00
   0.000000000000000E+00   0.000000000000000E+00   0.000000000000000E+00
   0.000000000000000E+00   0.000000000000000E+00   0.000000000000000E+00
   0.000000000000000E+00   0.000000000000000E+00   0.000000000000000E+00
   0.000000000000000E+00   0.000000000000000E+00   0.000000000000000E+00
   0.000000000000000E+00   0.000000000000000E+00   0.000000000000000E+00
   0.000000000000000E+00   0.000000000000000E+00   0.000000000000000E+00
   0.000000000000000E+00   0.000000000000000E+00   0.000000000000000E+00
   0.000000000000000E+00   0.000000000000000E+00   0.000000000000000E+00
   0.000000000000000E+00   0.000000000000000E+00   0.000000000000000E+00
   0.000000000000000E+00   0.000000000000000E+00   0.000000000000000E+00
   0.000000000000000E+00   0.000000000000000E+00   0.000000000000000E+00
   0.000000000000000E+00   0.000000000000000E+00   0.000000000000000E+00
   0.000000000000000E+00   0.000000000000000E+00   0.000000000000000E+00
   0.000000000000000E+00   0.000000000000000E+00   0.000000000000000E+00
   0.000000000000000E+00   0.000000000000000E+00   0.000000000000000E+00
   0.000000000000000E+00   0.000000000000000E+00   0.000000000000000E+00
   0.000000000000000E+00   0.000000000000000E+00   0.000000000000000E+00
   0.000000000000000E+00   0.000000000000000E+00   0.000000000000000E+00
   0.000000000000000E+00   0.000000000000000E+00   0.000000000000000E+00
   0.000000000000000E+00   0.000000000000000E+00   0.000000000000000E+00
   0.000000000000000E+00   0.000000000000000E+00   0.000000000000000E+00
   0.000000000000000E+00   0.000000000000000E+00   0.000000000000000E+00
   0.000000000000000E+00   0.000000000000000E+00   0.000000000000000E+00
   0.000000000000000E+00   0.000000000000000E+00   0.000000000000000E+00
   0.000000000000000E+00   0.000000000000000E+00   0.000000000000000E+00
   0.000000000000000E+00   0.000000000000000E+00   0.000000000000000E+00
   0.000000000000000E+00   0.000000000000000E+00   0.000000000000000E+00
   0.000000000000000E+00   0.000000000000000E+00   0.000000000000000E+00
   0.000000000000000E+00   0.000000000000000E+00   0.000000000000000E+00
   0.000000000000000E+00   0.000000000000000E+00   0.000000000000000E+00
   0.000000000000000E+00   0.000000000000000E+00   0.000000000000000E+00
   0.000000000000000E+00   0.000000000000000E+00   0.000000000000000E+00
   0.000000000000000E+00   0.000000000000000E+00   0.000000000000000E+00
   0.000000000000000E+00   0.000000000000000E+00   0.000000000000000E+00
   0.000000000000000E+00   0.000000000000000E+00   0.000000000000000E+00
   0.000000000000000E+00   0.000000000000000E+00   0.000000000000000E+00
   0.000000000000000E+00   0.000000000000000E+00   0.000000000000000E+00
   0.000000000000000E+00   0.000000000000000E+00   0.000000000000000E+00
   0.000000000000000E+00   0.000000000000000E+00   0.000000000000000E+00
   0.000000000000000E+00   0.000000000000000E+00
    </PP_AEWFC.1>
    <PP_AEWFC.2 index="2" label="2S" l="0">
   9.596512227819131E-04   9.717062918962594E-04   9.839127959151855E-04
   9.962726371529869E-04   1.008787594161003E-03   1.021459301155554E-03
   1.034289801297610E-03   1.047281066508195E-03   1.060435109263079E-03
   1.073753967033337E-03   1.087239702698091E-03   1.100894404881405E-03
   1.114720188142782E-03   1.128719193160539E-03   1.142893587188337E-03
   1.157245565127996E-03   1.171777349319339E-03   1.186491189260742E-03
   1.201389362376838E-03   1.216474174497179E-03   1.231747960155369E-03
   1.247213082788051E-03   1.262871935277268E-03   1.278726940319525E-03
   1.294780550726143E-03   1.311035249808382E-03   1.327493551656675E-03
   1.344158001643784E-03   1.361031176810888E-03   1.378115686189360E-03
   1.395414171285651E-03   1.412929306399824E-03   1.430663799012883E-03
   1.448620390251557E-03   1.466801855311844E-03   1.485211003845330E-03
   1.503850680364801E-03   1.522723764718837E-03   1.541833172493575E-03
   1.561181855409420E-03   1.580772801833851E-03   1.600609037251652E-03
   1.620693624652186E-03   1.641029664974932E-03   1.661620297629760E-03
   1.682468700976682E-03   1.703578092757386E-03   1.724951730602991E-03
   1.746592912513651E-03   1.768504977353596E-03   1.790691305350515E-03
   1.813155318600127E-03   1.835900481574871E-03   1.858930301645733E-03
   1.882248329612919E-03   1.905858160220744E-03   1.929763432694584E-03
   1.953967831297834E-03   1.978475085869774E-03   2.003288972380772E-03
   2.028413313494342E-03   2.053851979127230E-03   2.079608887039282E-03
   2.105688003412599E-03   2.132093343424286E-03   2.158828971858318E-03
   2.185899003706822E-03   2.213307604771964E-03   2.241058992286856E-03
   2.269157435537709E-03   2.297607256494948E-03   2.326412830451365E-03
   2.355578586667741E-03   2.385109009025966E-03   2.415008636689721E-03
   2.445282064772822E-03   2.475933945015300E-03   2.506968986467295E-03
   2.538391956180852E-03   2.570207679909696E-03   2.602421042817077E-03
   2.635036990191766E-03   2.668060528172248E-03   2.701496724479232E-03
   2.735350709156174E-03   2.769627675321071E-03   2.804332879933811E-03
   2.839471644550744E-03   2.875049356079433E-03   2.911071467598960E-03
   2.947543499131441E-03   2.984471038422295E-03   3.021859741800762E-03
   3.059715334994181E-03   3.098043613932767E-03   3.136850445615962E-03
   3.176141768944204E-03   3.215923595554571E-03   3.256202010724610E-03
   3.296983174231215E-03   3.338273321243477E-03   3.380078763218886E-03
   3.422405888810554E-03   3.465261164784557E-03   3.508651136947452E-03
   3.552582431084070E-03   3.597061753905732E-03   3.642095894008944E-03
   3.687691722844678E-03   3.733856195698342E-03   3.780596352680533E-03
   3.827919319728655E-03   3.875832309619529E-03   3.924342622993066E-03
   3.973457649387117E-03   4.023184868283580E-03   4.073531850165895E-03
   4.124506257587990E-03   4.176115846254790E-03   4.228368466114407E-03
   4.281272062462069E-03   4.334834677055927E-03   4.389064449244822E-03
   4.443969617108098E-03   4.499558518607586E-03   4.555839592751839E-03
   4.612821380772724E-03   4.670512527314466E-03   4.728921781635251E-03
   4.788057998821468E-03   4.847930141014717E-03   4.908547278651644E-03
   4.969918591716732E-03   5.032053371008138E-03   5.094961019416653E-03
   5.158651053217902E-03   5.223133103377882E-03   5.288416916871912E-03
   5.354512358017114E-03   5.421429409818541E-03   5.489178175329045E-03
   5.557768879021899E-03   5.627211868183271E-03   5.697517614338833E-03
   5.768696714654072E-03   5.840759893288728E-03   5.913718002855162E-03
   5.987582025912054E-03   6.062363076526697E-03   6.138072401752497E-03
   6.214721382983526E-03   6.292321537541678E-03   6.370884520235730E-03
   6.450422124878926E-03   6.530946285860210E-03   6.612469079718444E-03
   6.695002726733464E-03   6.778559592532178E-03   6.863152189709905E-03
   6.948793179466920E-03   7.035495373260360E-03   7.123271734471505E-03
   7.212135380088517E-03   7.302099582404689E-03   7.393177770732262E-03
   7.485383533131845E-03   7.578730618157536E-03   7.673232936617717E-03
   7.768904563351641E-03   7.865759739021811E-03   7.963812871922183E-03
   8.063078539802267E-03   8.163571491707107E-03   8.265306649833203E-03
   8.368299111400379E-03   8.472564150539638E-03   8.578117220196973E-03
   8.684973954053207E-03   8.793150168459813E-03   8.902661864390751E-03
   9.013525229410289E-03   9.125756639656842E-03   9.239372661842752E-03
   9.354390055270067E-03   9.470825773862216E-03   9.588696968211612E-03
   9.708020987643116E-03   9.828815382293316E-03   9.951097905205592E-03
   1.007488651444090E-02   1.020019937520420E-02   1.032705486198649E-02
   1.045547156072234E-02   1.058546827096284E-02   1.071706400806393E-02
   1.085027800538990E-02   1.098512971653204E-02   1.112163881754237E-02
   1.125982520918209E-02   1.139970901918498E-02   1.154131060453523E-02
   1.168465055375984E-02   1.182974968923522E-02   1.197662906950799E-02
   1.212530999162959E-02   1.227581399350479E-02   1.242816285625353E-02
   1.258237860658621E-02   1.273848351919200E-02   1.289650011913999E-02
   1.305645118429290E-02   1.321835974773311E-02   1.338224910020073E-02
   1.354814279254337E-02   1.371606463817735E-02   1.388603871555995E-02
   1.405808937067252E-02   1.423224121951386E-02   1.440851915060369E-02
   1.458694832749574E-02   1.476755419130010E-02   1.495036246321430E-02
   1.513539914706281E-02   1.532269053184446E-02   1.551226319428720E-02
   1.570414400140989E-02   1.589836011309042E-02   1.609493898463972E-02
   1.629390836938112E-02   1.649529632123438E-02   1.669913119730383E-02
   1.690544166047010E-02   1.711425668198459E-02   1.732560554406614E-02
   1.753951784249920E-02   1.775602348923268E-02   1.797515271497887E-02
   1.819693607181146E-02   1.842140443576206E-02   1.864858900941424E-02
   1.887852132449427E-02   1.911123324445769E-02   1.934675696707069E-02
   1.958512502698554E-02   1.982637029830881E-02   2.007052599716162E-02
   2.031762568423064E-02   2.056770326730891E-02   2.082079300382534E-02
   2.107692950336148E-02   2.133614773015485E-02   2.159848300558700E-02
   2.186397101065553E-02   2.213264778842838E-02   2.240454974647929E-02
   2.267971365930281E-02   2.295817667070757E-02   2.323997629618627E-02
   2.352515042526072E-02   2.381373732380064E-02   2.410577563631418E-02
   2.440130438820890E-02   2.470036298802110E-02   2.500299122961193E-02
   2.530922929432847E-02   2.561911775312763E-02   2.593269756866123E-02
   2.625001009732001E-02   2.657109709123466E-02   2.689600070023164E-02
   2.722476347374163E-02   2.755742836265843E-02   2.789403872114584E-02
   2.823463830839034E-02   2.857927129029691E-02   2.892798224112561E-02
   2.928081614506634E-02   2.963781839774903E-02   2.999903480768656E-02
   3.036451159764767E-02   3.073429540595689E-02   3.110843328771852E-02
   3.148697271596175E-02   3.186996158270361E-02   3.225744819992665E-02
   3.264948130046803E-02   3.304611003881668E-02   3.344738399181492E-02
   3.385335315926118E-02   3.426406796440992E-02   3.467957925436529E-02
   3.509993830036438E-02   3.552519679794626E-02   3.595540686700280E-02
   3.639062105170705E-02   3.683089232031483E-02   3.727627406483541E-02
   3.772682010056642E-02   3.818258466548889E-02   3.864362241951719E-02
   3.910998844359938E-02   3.958173823866305E-02   4.005892772440126E-02
   4.054161323789375E-02   4.102985153205792E-02   4.152369977392405E-02
   4.202321554272948E-02   4.252845682782564E-02   4.303948202639245E-02
   4.355634994095379E-02   4.407911977668817E-02   4.460785113852810E-02
   4.514260402804192E-02   4.568343884009127E-02   4.623041635925790E-02
   4.678359775603236E-02   4.734304458275804E-02   4.790881876932306E-02
   4.848098261859273E-02   4.905959880157510E-02   4.964473035231176E-02
   5.023644066248613E-02   5.083479347574117E-02   5.143985288169823E-02
   5.205168330966863E-02   5.267034952204949E-02   5.329591660739485E-02
   5.392844997315320E-02   5.456801533806230E-02   5.521467872419186E-02
   5.586850644862448E-02   5.652956511476520E-02   5.719792160326963E-02
   5.787364306258047E-02   5.855679689906208E-02   5.924745076672241E-02
   5.994567255651170E-02   6.065153038518657E-02   6.136509258372852E-02
   6.208642768530537E-02   6.281560441276367E-02   6.355269166564040E-02
   6.429775850668172E-02   6.505087414785631E-02   6.581210793585068E-02
   6.658152933703365E-02   6.735920792187675E-02   6.814521334881715E-02
   6.893961534754982E-02   6.974248370173448E-02   7.055388823110378E-02
   7.137389877295806E-02   7.220258516303198E-02   7.304001721571837E-02
   7.388626470363401E-02   7.474139733651185E-02   7.560548473940432E-02
   7.647859643018130E-02   7.736080179630705E-02   7.825217007087920E-02
   7.915277030791344E-02   8.006267135685669E-02   8.098194183631141E-02
   8.191065010695375E-02   8.284886424362756E-02   8.379665200659621E-02
   8.475408081193388E-02   8.572121770103773E-02   8.669812930924199E-02
   8.768488183351500E-02   8.868154099921952E-02   8.968817202591681E-02
   9.070483959219458E-02   9.173160779949849E-02   9.276854013494670E-02
   9.381569943310700E-02   9.487314783671534E-02   9.594094675631455E-02
   9.701915682879204E-02   9.810783787479449E-02   9.920704885499772E-02
   1.003168478252098E-01   1.014372918902845E-01   1.025684371568233E-01
   1.037103386846424E-01   1.048630504369817E-01   1.060266252294336E-01
   1.072011146775672E-01   1.083865691432241E-01   1.095830376794637E-01
   1.107905679741321E-01   1.120092062920321E-01   1.132389974156692E-01
   1.144799845845501E-01   1.157322094330082E-01   1.169957119265332E-01
   1.182705302965785E-01   1.195567009738230E-01   1.208542585198624E-01
   1.221632355573045E-01   1.234836626982449E-01   1.248155684710978E-01
   1.261589792457568E-01   1.275139191570623E-01   1.288804100265491E-01
   1.302584712824519E-01   1.316481198779421E-01   1.330493702075734E-01
   1.344622340219114E-01   1.358867203403229E-01   1.373228353619024E-01
   1.387705823745114E-01   1.402299616619077E-01   1.417009704089422E-01
   1.431836026048003E-01   1.446778489442664E-01   1.461836967269888E-01
   1.477011297547257E-01   1.492301282265493E-01   1.507706686319902E-01
   1.523227236421008E-01   1.538862619984193E-01   1.554612483998174E-01
   1.570476433872111E-01   1.586454032261223E-01   1.602544797870701E-01
   1.618748204237823E-01   1.635063678492077E-01   1.651490600093205E-01
   1.668028299547022E-01   1.684676057098906E-01   1.701433101404864E-01
   1.718298608180094E-01   1.735271698824959E-01   1.752351439028321E-01
   1.769536837348196E-01   1.786826843769688E-01   1.804220348240206E-01
   1.821716179181955E-01   1.839313101981722E-01   1.857009817458014E-01
   1.874804960305579E-01   1.892697097517420E-01   1.910684726784370E-01
   1.928766274872381E-01   1.946940095977643E-01   1.965204470059725E-01
   1.983557601152910E-01   2.001997615655962E-01   2.020522560600553E-01
   2.039130401898636E-01   2.057819022569053E-01   2.076586220943727E-01
   2.095429708853781E-01   2.114347109795992E-01   2.133335957080008E-01
   2.152393691956778E-01   2.171517661728718E-01   2.190705117842113E-01
   2.209953213962368E-01   2.229259004032688E-01   2.248619440316868E-01
   2.268031371426861E-01   2.287491540335888E-01   2.306996582377870E-01
   2.326543023233988E-01   2.346127276907297E-01   2.365745643686261E-01
   2.385394308098245E-01   2.405069336853947E-01   2.424766676783890E-01
   2.444482152768070E-01   2.464211465660002E-01   2.483950190206375E-01
   2.503693772963645E-01   2.523437530212939E-01   2.543176645874696E-01
   2.562906169424549E-01   2.582621013812005E-01   2.602315953383562E-01
   2.621985621811949E-01   2.641624510033274E-01   2.661226964193903E-01
   2.680787183608994E-01   2.700299218734668E-01   2.719756969155891E-01
   2.739154181592193E-01   2.758484447923458E-01   2.777741203238083E-01
   2.796917723905883E-01   2.816007125678219E-01   2.835002361817902E-01
   2.853896221261493E-01   2.872681326816758E-01   2.891350133398059E-01
   2.909894926302619E-01   2.928307819530630E-01   2.946580754152330E-01
   2.964705496725193E-01   2.982673637764551E-01   3.000476590271008E-01
   3.018105588318125E-01   3.035551685703939E-01   3.052805754670023E-01
   3.069858484691820E-01   3.086700381344163E-01   3.103321765245935E-01
   3.119712771087962E-01   3.135863346748334E-01   3.151763252499415E-01
   3.167402060310967E-01   3.182769153253868E-01   3.197853725009038E-01
   3.212644779486274E-01   3.227131130557825E-01   3.241301401911600E-01
   3.255144027029077E-01   3.268647249293000E-01   3.281799122230133E-01
   3.294587509894398E-01   3.307000087395837E-01   3.319024341580957E-01
   3.330647571870100E-01   3.341856891257579E-01   3.352639227480451E-01
   3.362981324361843E-01   3.372869743334903E-01   3.382290865153493E-01
   3.391230891795864E-01   3.399675848567631E-01   3.407611586410450E-01
   3.415023784422896E-01   3.421897952600113E-01   3.428219434798894E-01
   3.433973411934912E-01   3.439144905418908E-01   3.443718780838699E-01
   3.447679751893947E-01   3.451012384590672E-01   3.453701101702539E-01
   3.455730187506044E-01   3.457083792796692E-01   3.457745940193376E-01
   3.457700529738121E-01   3.456931344798442E-01   3.455422058279541E-01
   3.453156239153587E-01   3.450117359313328E-01   3.446288800757265E-01
   3.441653863113593E-01   3.436195771510119E-01   3.429897684797265E-01
   3.422742704131264E-01   3.414713881924596E-01   3.405794231170564E-01
   3.395966735148929E-01   3.385214357519313E-01   3.373520052809039E-01
   3.360866777301891E-01   3.347237500334154E-01   3.332615216004122E-01
   3.316982955301052E-01   3.300323798659375E-01   3.282620888943718E-01
   3.263857444870050E-01   3.244016774868014E-01   3.223082291389188E-01
   3.201037525665729E-01   3.177866142923503E-01   3.153551958053428E-01
   3.128078951744391E-01   3.101431287080664E-01   3.073593326606301E-01
   3.044549649858523E-01   3.014285071371608E-01   2.982784659152242E-01
   2.950033753626755E-01   2.916017987060053E-01   2.880723303445437E-01
   2.844135978863851E-01   2.806242642310408E-01   2.767030296985349E-01
   2.726486342045821E-01   2.684598594814104E-01   2.641355313437135E-01
   2.596745219991335E-01   2.550757524025899E-01   2.503381946536878E-01
   2.454608744363464E-01   2.404428734997021E-01   2.352833321792486E-01
   2.299814519570860E-01   2.245364980600593E-01   2.189478020944755E-01
   2.132147647159991E-01   2.073368583332355E-01   2.013136298434259E-01
   1.951447033985922E-01   1.888297832003889E-01   1.823686563218393E-01
   1.757611955540623E-01   1.690073622760221E-01   1.621072093452705E-01
   1.550608840075897E-01   1.478686308233889E-01   1.405307946086531E-01
   1.330478233882018E-01   1.254202713589645E-01   1.176488018609429E-01
   1.097341903534876E-01   1.016773273944745E-01   9.347922161992221E-02
   8.514100272153616E-02   7.666392441960791E-02   6.804936742861530E-02
   5.929884241277589E-02   5.041399292868264E-02   4.139659835199496E-02
   3.224857678496429E-02   2.297198794132776E-02   1.356903600480038E-02
   4.042072457021211E-03  -5.606401129649444E-03  -1.537373033964137E-02
  -2.525710520782609E-02  -3.525355756594591E-02  -4.535995844941700E-02
  -5.557301557323951E-02  -6.588927088708586E-02  -7.630509822120304E-02
  -8.681670103658209E-02  -9.742011029494146E-02  -1.081111824664571E-01
  -1.188855976958574E-01  -1.297388581504754E-01  -1.406662865770670E-01
  -1.516630250975823E-01  -1.627240342774663E-01  -1.738440925032342E-01
  -1.850177957086649E-01  -1.962395574905096E-01  -2.075036096544584E-01
  -2.188040032294197E-01  -2.301346099819112E-01  -2.414891244513773E-01
  -2.528610665102610E-01  -2.642437844284951E-01  -2.756304583898271E-01
  -2.870141043667653E-01  -2.983875782126160E-01  -3.097435797751961E-01
  -3.210746567812420E-01  -3.323732081892314E-01  -3.436314866690957E-01
  -3.548415998493359E-01  -3.659955099847972E-01  -3.770850317499566E-01
  -3.881018279579737E-01  -3.990374031449263E-01  -4.098830951353743E-01
  -4.206300649068870E-01  -4.312692852788820E-01  -4.417915291424347E-01
  -4.521873580983102E-01  -4.624471124570821E-01  -4.725609035585826E-01
  -4.825186092760744E-01  -4.923098733821848E-01  -5.019241091811886E-01
  -5.113505074831538E-01  -5.205780486503043E-01  -5.295955181323606E-01
  -5.383915246708030E-01  -5.469545202244270E-01  -5.552728206621951E-01
  -5.633346263734320E-01  -5.711280421304614E-01  -5.786410957654264E-01
  -5.858617554519729E-01  -5.927779455825287E-01  -5.993775613843410E-01
  -6.056484825160535E-01  -6.115785859351691E-01  -6.171557583349638E-01
  -6.223679084292727E-01  -6.272029793264610E-01  -6.316489611891705E-01
  -6.356939043307744E-01  -6.393259328570804E-01  -6.425332589249158E-01
  -6.453041976586055E-01  -6.476271827409426E-01  -6.494907826765111E-01
  -6.508837177114085E-01  -6.517948773837385E-01  -6.522133386730000E-01
  -6.521283847130026E-01  -6.515295240316564E-01  -6.504065102814236E-01
  -6.487493624259552E-01  -6.465483853511360E-01  -6.437941908720959E-01
  -6.404777191114773E-01  -6.365902602281533E-01  -6.321234764794983E-01
  -6.270694246040861E-01  -6.214205785152275E-01  -6.151698522989884E-01
  -6.083106235132083E-01  -6.008367567865335E-01  -5.927426277185919E-01
  -5.840231470841679E-01  -5.746737853455908E-01  -5.646905974785532E-01
  -5.540702481172508E-01  -5.428100370250728E-01  -5.309079248971291E-01
  -5.183625595006470E-01  -5.051733021587438E-01  -4.913402545822727E-01
  -4.768642860533452E-01  -4.617470609627591E-01  -4.459910667018804E-01
  -4.295996419075490E-01  -4.125770050562591E-01  -3.949282834012143E-01
  -3.766595422428238E-01  -3.577778145197960E-01  -3.382911307041434E-01
  -3.182085489791440E-01  -2.975401856745475E-01  -2.762972459280792E-01
  -2.544920545365195E-01  -2.321380869533225E-01  -2.092500003828397E-01
  -1.858436649137180E-01  -1.619361946259209E-01  -1.375459785970552E-01
  -1.126927117242486E-01  -8.739742526771117E-02  -6.168251701129795E-02
  -3.557178092386886E-02  -9.090436193004026E-03   1.773484451032357E-02
   4.487590769119252E-02   7.230309278375689E-02   9.998520718240325E-02
   1.278895027513706E-01   1.559816540296042E-01   1.842257383646900E-01
   2.125842182273955E-01   2.410179259765793E-01   2.694860513629810E-01
   2.979461320796055E-01   3.263540476860142E-01   3.546640172537674E-01
   3.828286011004408E-01   4.107987069999921E-01   4.385236012776887E-01
   4.659509252182577E-01   4.930267172362598E-01   5.196954412778243E-01
   5.459000219427540E-01   5.715818868354610E-01   5.966810166720938E-01
   6.211360036895833E-01   6.448841189199614E-01   6.678613889099628E-01
   6.900026824816629E-01   7.112418081445027E-01   7.315116227822868E-01
   7.507441522504587E-01   7.688707245289196E-01   7.858221160835582E-01
   8.015287120951644E-01   8.159206812171007E-01   8.289281655225014E-01
   8.404814862972709E-01   8.505113663260668E-01   8.589491693039530E-01
   8.657271569855756E-01   8.707787646554263E-01   8.740388954658519E-01
   8.754442341425305E-01   8.749335804987123E-01   8.724482031279717E-01
   8.679322135588025E-01   8.613329610512799E-01   8.526014480943035E-01
   8.416927665196705E-01   8.285665539844435E-01   8.131874703838343E-01
   7.955256935412438E-01   7.755574332784183E-01   7.532654626952815E-01
   7.286396651844853E-01   7.016775953689307E-01   6.723850517806066E-01
   6.407766586956162E-01   6.068764541031508E-01   5.707184803158876E-01
   5.323473732268122E-01   4.918189456844390E-01   4.492007598970722E-01
   4.045726831902139E-01   3.580274208333875E-01   3.096710190282667E-01
   2.596233305145271E-01   2.080184346106266E-01   1.550050028713540E-01
   1.007466009210304E-01   4.542191642161524E-02  -1.077509743021668E-02
  -6.763517400113069E-02  -1.249337924954314E-01  -1.824313563674921E-01
  -2.398735031223238E-01  -2.969915579322424E-01  -3.535031435467781E-01
  -4.091129588738633E-01  -4.635137383425715E-01  -5.163874037002950E-01
  -5.674064192287599E-01  -6.162353604620391E-01  -6.625327053340430E-01
  -7.059528552514900E-01  -7.461483918603172E-01  -7.827725732290864E-01
  -8.154820707937287E-01  -8.439399456773210E-01  -8.678188599021802E-01
  -8.868045145379824E-01  -9.005993029710432E-01  -9.089261632328257E-01
  -9.115326086919452E-01  -9.081949114013744E-01  -8.987224070165848E-01
  -8.829618844849547E-01  -8.608020176859381E-01  -8.321777899207352E-01
  -7.970748556681796E-01  -7.555337774137272E-01  -7.076540687106988E-01
  -6.535979680554802E-01  -5.935938617790685E-01  -5.279392681253514E-01
  -4.570032891733491E-01  -3.812284324611755E-01  -3.011317003022150E-01
  -2.173048420909765E-01  -1.304136636418887E-01  -4.119628807440297E-02
   4.953973474437381E-02   1.409215683451499E-01   2.320165700210545E-01
   3.218391915283582E-01   4.093593664056073E-01   4.935124327342113E-01
   5.732106188053110E-01   6.473560936703142E-01   7.148555547660308E-01
   7.746362906292913E-01   8.256636181592634E-01   8.669595510792848E-01
   8.976225094701743E-01   9.168478299398731E-01   9.239487828006607E-01
   9.183777474043968E-01   8.997471406384668E-01   8.678496378706205E-01
   8.226771719847098E-01   7.644381464894794E-01   6.935722552098618E-01
   6.107622662575248E-01   5.169421045455368E-01   4.133005579902909E-01
   3.012799408122506E-01   1.825690761579286E-01   5.909001274210823E-02
  -6.702203067989759E-02  -1.934458907931582E-01  -3.177091130591145E-01
  -4.372301179610579E-01  -5.493677588186241E-01  -6.514779104602472E-01
  -7.409764576738164E-01  -8.154077546270943E-01  -8.725173069032267E-01
  -9.103270940975109E-01  -9.272116130294495E-01  -9.219723919012741E-01
  -8.939084189615907E-01  -8.428796625094406E-01  -7.693606515705749E-01
  -6.744809591176721E-01  -5.600494041474773E-01  -4.285588873238213E-01
  -2.831690184248316E-01  -1.276641014722145E-01   3.361536959498653E-02
   1.958687757475181E-01   3.539591017129410E-01   5.025632804323082E-01
   6.363467867914743E-01   7.501586619432529E-01   8.392416089978374E-01
   8.994502340011957E-01   9.274689907095899E-01   9.210200165969367E-01
   8.790499269027754E-01   8.018838793635937E-01   6.913349553500524E-01
   5.507572424959902E-01   3.850320582473546E-01   2.004786114248606E-01
   4.683116442009173E-03  -1.937560352181311E-01  -3.855650231350422E-01
  -5.612061071920312E-01  -7.113510758654376E-01  -8.274025034280681E-01
  -9.020392481465209E-01  -9.297209309397457E-01  -9.071431844805102E-01
  -8.336716886572555E-01  -7.116037364065154E-01  -5.462955634637773E-01
  -3.461001814632340E-01  -1.220988087599565E-01   1.123850637003703E-01
   3.424846940057280E-01   5.526807457538371E-01   7.278433793193303E-01
   8.543665788919803E-01   9.213179212576257E-01   9.215127277134688E-01
   8.524126762065745E-01   7.167475245068576E-01   5.227663862306330E-01
   2.840432671277107E-01   1.879076379726351E-02  -2.513246668473306E-01
  -5.028245519012366E-01  -7.124230676240483E-01  -8.592469235031236E-01
  -9.270751749845122E-01  -9.063683615870727E-01  -7.958403464342747E-01
  -6.033357307446034E-01  -3.458152522302486E-01  -4.832288292064275E-02
   2.580906401039936E-01   5.393889969784054E-01   7.622815672553518E-01
   8.982987826423507E-01   9.277378032198003E-01   8.429414605856478E-01
   6.503737189448151E-01   3.710330637255766E-01   3.890679947248320E-02
  -3.025922203568513E-01  -6.059701052782587E-01  -8.262256503543098E-01
  -9.278124967262377E-01  -8.909424034397956E-01  -7.161124099113150E-01
  -4.258486948807924E-01  -6.297047945074419E-02   3.148240909592334E-01
   6.436138336081790E-01   8.640385258805990E-01   9.325017822471178E-01
   8.307094293619049E-01   5.714351705650398E-01   1.988142104730099E-01
  -2.176825482365000E-01  -5.952351497021786E-01  -8.538974889891520E-01
  -9.340873438439825E-01  -8.115749918162403E-01  -5.061432191829687E-01
  -8.095646847746231E-02   3.685450475555914E-01   7.349749309865997E-01
   9.247092816776251E-01   8.830500930894578E-01   6.120497167940911E-01
   1.750676838206419E-01  -3.151273569612710E-01  -7.236714149601103E-01
  -9.305377977501053E-01  -8.673699912778448E-01  -5.428563572731752E-01
  -4.698836181899374E-02   4.702230586627785E-01   8.422205558673569E-01
   9.400361242834036E-01   7.198379560947725E-01   2.460267911474783E-01
  -3.220739392297459E-01  -7.802489850967873E-01  -9.523549646578630E-01
  -7.609879409132622E-01  -2.671836398023081E-01   3.416700885971106E-01
   8.181812468414894E-01   9.548962550728024E-01   6.786262973322859E-01
   9.566386955425869E-02  -5.402883806679484E-01  -9.336459204360976E-01
  -8.854580390289272E-01  -4.007741072547629E-01   2.945925637673623E-01
   8.501978997007479E-01   9.653850634775716E-01   5.579686967022189E-01
  -1.686209709118230E-01  -8.138892543279742E-01  -9.959745258207159E-01
  -5.833802061770220E-01   1.986439224968510E-01   8.743038142728916E-01
   1.000175917011410E+00   4.636765560712307E-01  -4.050117973367002E-01
  -1.016366323631659E+00  -9.164101632017416E-01  -1.362759544172875E-01
   7.760292839324302E-01   1.120407847322698E+00   5.837453368985491E-01
  -4.569163939350120E-01  -1.163701787842172E+00  -8.995620882373987E-01
   1.815878825246363E-01   1.165021541488931E+00   1.119048362337520E+00
  -1.468827485783071E-02  -1.227683670706512E+00  -1.291516587260982E+00
   1.797514821167908E-03   1.434754740190800E+00   1.434668604197227E+00
  -2.186055690712258E-01  -1.853013303719100E+00  -1.484035394097622E+00
   8.177390962522109E-01   2.502874398248618E+00   1.202832825894130E+00
  -2.049880368676819E+00  -3.222319979330189E+00  -2.756971282879044E-02
   4.158938261038565E+00   3.297211644002243E+00  -3.075473343895221E+00
  -6.846122585283456E+00  -7.319930706507585E-01   9.270988913166203E+00
   7.648263001415597E+00  -8.495484296790025E+00  -1.746534044368255E+01
   1.427597396355366E+00   2.865614261957743E+01   1.644532846986260E+01
  -3.674255242293346E+01  -5.118824143430684E+01   3.094130428583293E+01
   1.092514340843539E+02   1.227682976839001E+01  -1.921513822220313E+02
  -1.405439379675227E+02   2.796157352240544E+02   4.426820072613045E+02
  -2.832804355636462E+02  -1.064572842838887E+03  -6.941074790154973E+01
   2.185132737453373E+03   1.502197808183559E+03  -3.806912659657466E+03
  -5.735271581012360E+03   4.896649616184329E+03   1.636238512900522E+04
  -5.604578106557983E+02  -3.932099301000518E+04
    </PP_AEWFC.2>
    <PP_AEWFC.3 index="3" label="2P" l="1">
   2.565637027231132E-07   2.619619971557782E-07   2.674738757878932E-07
   2.731017285169570E-07   2.788561128784901E-07   2.847569105672462E-07
   2.908029465153225E-07   2.969983818054066E-07   3.033465927503179E-07
   3.098510542760394E-07   3.165153229040016E-07   3.233430384814544E-07
   3.303379419772809E-07   3.375038956456065E-07   3.448448633730988E-07
   3.523648178879257E-07   3.600678262991583E-07   3.679581261341834E-07
   3.760400687049207E-07   3.843181035314141E-07   3.927967894731720E-07
   4.014808161861534E-07   4.103749817224112E-07   4.194841963156217E-07
   4.288134934149044E-07   4.383680314316255E-07   4.481531086544758E-07
   4.581741493253462E-07   4.684367082078182E-07   4.789464818145002E-07
   4.897093004243651E-07   5.007311424707244E-07   5.120181393419028E-07
   5.235765717875002E-07   5.354128724466727E-07   5.475336342777185E-07
   5.599456162642640E-07   5.726557415348339E-07   5.856711058488624E-07
   5.989989869117193E-07   6.126468391803763E-07   6.266222964176906E-07
   6.409331849273138E-07   6.555875298240960E-07   6.705935521157029E-07
   6.859596732251128E-07   7.016945255941061E-07   7.178069545444587E-07
   7.343060246354712E-07   7.512010248939836E-07   7.685014743797234E-07
   7.862171279903745E-07   8.043579826385026E-07   8.229342826091753E-07
   8.419565248210815E-07   8.614354671747194E-07   8.813821346766468E-07
   9.018078241968857E-07   9.227241127506189E-07   9.441428643773762E-07
   9.660762372546442E-07   9.885366920313822E-07   1.011536997213291E-06
   1.035090237388113E-06   1.059209823084942E-06   1.083909496546579E-06
   1.109203340286876E-06   1.135105786525231E-06   1.161631625294461E-06
   1.188796013556600E-06   1.216614484314741E-06   1.245102955996157E-06
   1.274277742063591E-06   1.304155560868367E-06   1.334753545753523E-06
   1.366089255409410E-06   1.398180684489381E-06   1.431046274492595E-06
   1.464704924919966E-06   1.499176004710093E-06   1.534479363961054E-06
   1.570635345946595E-06   1.607664799438007E-06   1.645589091335404E-06
   1.684430119670049E-06   1.724210326532183E-06   1.764952710405272E-06
   1.806680842019699E-06   1.849418881354640E-06   1.893191586901562E-06
   1.938024334301719E-06   1.983943134151561E-06   2.030974640847743E-06
   2.079146169933669E-06   2.128485718395772E-06   2.179021977426048E-06
   2.230784352984684E-06   2.283802986163611E-06   2.338108766542634E-06
   2.393733353598601E-06   2.450709195144856E-06   2.509069547206728E-06
   2.568848494242509E-06   2.630080969870551E-06   2.692802778121696E-06
   2.757050615227228E-06   2.822862091949440E-06   2.890275756474206E-06
   2.959331117876831E-06   3.030068670176399E-06   3.102529916993152E-06
   3.176757396823987E-06   3.252794708951537E-06   3.330686540002656E-06
   3.410478691172546E-06   3.492218106131165E-06   3.575952899628955E-06
   3.661732386819376E-06   3.749607113316128E-06   3.839628886003439E-06
   3.931850804618211E-06   4.026327294123310E-06   4.123114137891733E-06
   4.222268511721930E-06   4.323849018704988E-06   4.427915724964977E-06
   4.534530196294227E-06   4.643755535705866E-06   4.755656421926515E-06
   4.870299148852581E-06   4.987751665994192E-06   5.108083619931399E-06
   5.231366396807879E-06   5.357673165888019E-06   5.487078924203872E-06
   5.619660542319134E-06   5.755496811238034E-06   5.894668490487791E-06
   6.037258357402725E-06   6.183351257635503E-06   6.333034156928578E-06
   6.486396194348899E-06   6.643528735879521E-06   6.804525426391580E-06
   6.969482250094984E-06   7.138497600665016E-06   7.311672337063896E-06
   7.489109839411871E-06   7.670916057269080E-06   7.857199579725628E-06
   8.048071724185742E-06   8.243646591382950E-06   8.444041131314787E-06
   8.649375219015262E-06   8.859771726045519E-06   9.075356595752674E-06
   9.296258920105783E-06   9.522611018461096E-06   9.754548518288907E-06
   9.992210437920407E-06   1.023573927135589E-05   1.048528107518886E-05
   1.074098555769779E-05   1.100300617015912E-05   1.127150020043682E-05
   1.154662886890471E-05   1.182855742675942E-05   1.211745525678314E-05
   1.241349597661675E-05   1.271685754460555E-05   1.302772236828114E-05
   1.334627741554477E-05   1.367271432861876E-05   1.400722954083465E-05
   1.435002439632803E-05   1.470130527271184E-05   1.506128370680188E-05
   1.543017652346963E-05   1.580820596769978E-05   1.619559983993152E-05
   1.659259163476444E-05   1.699942068311224E-05   1.741633229788907E-05
   1.784357792331561E-05   1.828141528793410E-05   1.873010856142363E-05
   1.918992851530935E-05   1.966115268766119E-05   2.014406555188051E-05
   2.063895868967512E-05   2.114613096832560E-05   2.166588872234848E-05
   2.219854593966418E-05   2.274442445238041E-05   2.330385413230446E-05
   2.387717309130016E-05   2.446472788660854E-05   2.506687373125393E-05
   2.568397470966000E-05   2.631640399860355E-05   2.696454409363659E-05
   2.762878704111091E-05   2.830953467594177E-05   2.900719886525155E-05
   2.972220175803680E-05   3.045497604100610E-05   3.120596520073941E-05
   3.197562379232308E-05   3.276441771461902E-05   3.357282449232930E-05
   3.440133356502237E-05   3.525044658329030E-05   3.612067771221074E-05
   3.701255394229166E-05   3.792661540808071E-05   3.886341571462589E-05
   3.982352227197821E-05   4.080751663793179E-05   4.181599486920158E-05
   4.284956788124330E-05   4.390886181692548E-05   4.499451842426805E-05
   4.610719544346725E-05   4.724756700343187E-05   4.841632402806084E-05
   4.961417465249803E-05   5.084184464960537E-05   5.210007786690121E-05
   5.338963667421663E-05   5.471130242232839E-05   5.606587591283326E-05
   5.745417787953461E-05   5.887704948161865E-05   6.033535280890401E-05
   6.182997139945527E-05   6.336181076985744E-05   6.493179895845578E-05
   6.654088708187200E-05   6.819004990511550E-05   6.988028642561554E-05
   7.161262047150766E-05   7.338810131451599E-05   7.520780429777993E-05
   7.707283147898316E-05   7.898431228914980E-05   8.094340420748220E-05
   8.295129345262235E-05   8.500919569072878E-05   8.711835676076899E-05
   8.928005341743695E-05   9.149559409211481E-05   9.376631967230718E-05
   9.609360429998640E-05   9.847885618929716E-05   1.009235184640790E-04
   1.034290700156756E-04   1.059970263815111E-04   1.086289406449228E-04
   1.113264043567535E-04   1.140910484792155E-04   1.169245443525506E-04
   1.198286046850238E-04   1.228049845667984E-04   1.258554825082527E-04
   1.289819415033139E-04   1.321862501183927E-04   1.354703436075203E-04
   1.388362050542999E-04   1.422858665412978E-04   1.458214103475171E-04
   1.494449701746057E-04   1.531587324024696E-04   1.569649373749752E-04
   1.608658807164378E-04   1.648639146796133E-04   1.689614495259203E-04
   1.731609549386409E-04   1.774649614698611E-04   1.818760620219299E-04
   1.863969133642341E-04   1.910302376860996E-04   1.957788241866528E-04
   2.006455307024889E-04   2.056332853740144E-04   2.107450883513507E-04
   2.159840135407012E-04   2.213532103921084E-04   2.268559057295431E-04
   2.324954056242899E-04   2.382750973126136E-04   2.441984511587116E-04
   2.502690226639776E-04   2.564904545236263E-04   2.628664787317471E-04
   2.694009187358805E-04   2.760976916422314E-04   2.829608104726579E-04
   2.899943864745969E-04   2.972026314851131E-04   3.045898603502805E-04
   3.121604934011323E-04   3.199190589874390E-04   3.278701960706003E-04
   3.360186568769634E-04   3.443693096129055E-04   3.529271412430465E-04
   3.616972603329844E-04   3.706848999579735E-04   3.798954206789962E-04
   3.893343135877026E-04   3.990072034217285E-04   4.089198517519248E-04
   4.190781602430673E-04   4.294881739896415E-04   4.401560849283320E-04
   4.510882353288739E-04   4.622911213649591E-04   4.737713967669195E-04
   4.855358765579424E-04   4.975915408756098E-04   5.099455388805814E-04
   5.226051927542792E-04   5.355780017874672E-04   5.488716465616486E-04
   5.624939932252434E-04   5.764530978665471E-04   5.907572109854981E-04
   6.054147820663289E-04   6.204344642532065E-04   6.358251191310065E-04
   6.515958216134035E-04   6.677558649404992E-04   6.843147657882474E-04
   7.012822694919725E-04   7.186683553863231E-04   7.364832422640333E-04
   7.547373939559131E-04   7.734415250345226E-04   7.926066066440310E-04
   8.122438724587972E-04   8.323648247732555E-04   8.529812407257251E-04
   8.741051786588089E-04   8.957489846190892E-04   9.179252989988627E-04
   9.406470633227114E-04   9.639275271817369E-04   9.877802553183363E-04
   1.012219134864435E-03   1.037258382736140E-03   1.062912553187815E-03
   1.089196545528625E-03   1.116125612004632E-03   1.143715365849593E-03
   1.171981789507605E-03   1.200941243030846E-03   1.230610472655640E-03
   1.261006619560178E-03   1.292147228807206E-03   1.324050258475096E-03
   1.356734088980698E-03   1.390217532597461E-03   1.424519843172312E-03
   1.459660726044854E-03   1.495660348172457E-03   1.532539348464876E-03
   1.570318848332046E-03   1.609020462448760E-03   1.648666309739972E-03
   1.689279024590476E-03   1.730881768282777E-03   1.773498240667000E-03
   1.817152692066683E-03   1.861869935424375E-03   1.907675358690961E-03
   1.954594937462661E-03   2.002655247869710E-03   2.051883479720699E-03
   2.102307449906632E-03   2.153955616068733E-03   2.206857090534092E-03
   2.261041654523220E-03   2.316539772633628E-03   2.373382607603543E-03
   2.431602035359887E-03   2.491230660354648E-03   2.552301831193786E-03
   2.614849656562809E-03   2.678909021453164E-03   2.744515603693562E-03
   2.811705890790379E-03   2.880517197081239E-03   2.950987681205876E-03
   3.023156363898359E-03   3.097063146104734E-03   3.172748827430113E-03
   3.250255124919209E-03   3.329624692174275E-03   3.410901138814362E-03
   3.494129050279786E-03   3.579354007985593E-03   3.666622609827823E-03
   3.755982491046246E-03   3.847482345447206E-03   3.941171946990131E-03
   4.037102171741189E-03   4.135325020197457E-03   4.235893639984910E-03
   4.338862348933385E-03   4.444286658531639E-03   4.552223297765411E-03
   4.662730237341334E-03   4.775866714299390E-03   4.891693257016458E-03
   5.010271710603324E-03   5.131665262697416E-03   5.255938469653285E-03
   5.383157283132738E-03   5.513389077096268E-03   5.646702675197279E-03
   5.783168378580342E-03   5.922857994084527E-03   6.065844862852591E-03
   6.212203889346544E-03   6.362011570769884E-03   6.515346026896469E-03
   6.672287030305744E-03   6.832916037023683E-03   6.997316217568540E-03
   7.165572488400134E-03   7.337771543771019E-03   7.514001887977594E-03
   7.694353868008733E-03   7.878919706589190E-03   8.067793535614558E-03
   8.261071429974164E-03   8.458851441757800E-03   8.661233634841736E-03
   8.868320119848921E-03   9.080215089477877E-03   9.297024854194069E-03
   9.518857878277182E-03   9.745824816217013E-03   9.978038549450157E-03
   1.021561422342901E-02   1.045866928501401E-02   1.070732352017928E-02
   1.096169909202131E-02   1.122192057905935E-02   1.148811501381571E-02
   1.176041192166319E-02   1.203894335992618E-02   1.232384395722113E-02
   1.261525095302109E-02   1.291330423742849E-02   1.321814639113905E-02
   1.352992272557890E-02   1.384878132319625E-02   1.417487307788750E-02
   1.450835173553712E-02   1.484937393464921E-02   1.519809924704785E-02
   1.555469021862190E-02   1.591931241008918E-02   1.629213443775329E-02
   1.667332801422552E-02   1.706306798908281E-02   1.746153238943143E-02
   1.786890246034494E-02   1.828536270514329E-02   1.871110092547884E-02
   1.914630826119343E-02   1.959117922990922E-02   2.004591176631469E-02
   2.051070726110523E-02   2.098577059953663E-02   2.147131019954791E-02
   2.196753804940817E-02   2.247466974484084E-02   2.299292452557654E-02
   2.352252531128417E-02   2.406369873682824E-02   2.461667518679814E-02
   2.518168882925372E-02   2.575897764862903E-02   2.634878347773473E-02
   2.695135202879715E-02   2.756693292347034E-02   2.819577972175499E-02
   2.883814994975644E-02   2.949430512621156E-02   3.016451078771202E-02
   3.084903651254963E-02   3.154815594310682E-02   3.226214680671324E-02
   3.299129093488703E-02   3.373587428087722E-02   3.449618693542091E-02
   3.527252314062692E-02   3.606518130189498E-02   3.687446399777693E-02
   3.770067798768432E-02   3.854413421734379E-02   3.940514782189958E-02
   4.028403812655967E-02   4.118112864467952E-02   4.209674707317498E-02
   4.303122528515328E-02   4.398489931964824E-02   4.495810936834348E-02
   4.595119975916486E-02   4.696451893662050E-02   4.799841943876425E-02
   4.905325787065620E-02   5.012939487419069E-02   5.122719509416016E-02
   5.234702714042054E-02   5.348926354602123E-02   5.465428072116037E-02
   5.584245890282361E-02   5.705418209996225E-02   5.828983803406414E-02
   5.954981807496845E-02   6.083451717177329E-02   6.214433377868291E-02
   6.347966977563903E-02   6.484093038357887E-02   6.622852407416072E-02
   6.764286247379565E-02   6.908436026182271E-02   7.055343506266283E-02
   7.205050733178579E-02   7.357600023532268E-02   7.513033952315556E-02
   7.671395339531464E-02   7.832727236151256E-02   7.997072909364518E-02
   8.164475827108666E-02   8.334979641860780E-02   8.508628173674537E-02
   8.685465392445110E-02   8.865535399384936E-02   9.048882407693293E-02
   9.235550722402797E-02   9.425584719385997E-02   9.619028823505479E-02
   9.815927485891039E-02   1.001632516032776E-01   1.022026627873908E-01
   1.042779522574934E-01   1.063895631231042E-01   1.085379374837793E-01
   1.107235161462230E-01   1.129467383316111E-01   1.152080413729929E-01
   1.175078604026441E-01   1.198466280292518E-01   1.222247740048164E-01
   1.246427248811657E-01   1.271009036559840E-01   1.295997294082673E-01
   1.321396169231255E-01   1.347209763058639E-01   1.373442125852847E-01
   1.400097253061634E-01   1.427179081108642E-01   1.454691483100750E-01
   1.482638264426517E-01   1.511023158245784E-01   1.539849820870653E-01
   1.569121827038182E-01   1.598842665075325E-01   1.629015731956799E-01
   1.659644328256714E-01   1.690731652995016E-01   1.722280798379906E-01
   1.754294744447651E-01   1.786776353601329E-01   1.819728365050259E-01
   1.853153389152054E-01   1.887053901659400E-01   1.921432237873875E-01
   1.956290586709271E-01   1.991630984667061E-01   2.027455309726850E-01
   2.063765275154764E-01   2.100562423232912E-01   2.137848118913176E-01
   2.175623543398724E-01   2.213889687656732E-01   2.252647345865910E-01
   2.291897108802498E-01   2.331639357168428E-01   2.371874254865434E-01
   2.412601742218847E-01   2.453821529154833E-01   2.495533088334810E-01
   2.537735648250691E-01   2.580428186284582E-01   2.623609421736421E-01
   2.667277808823010E-01   2.711431529651741E-01   2.756068487172244E-01
   2.801186298109100E-01   2.846782285878691E-01   2.892853473493239E-01
   2.939396576455105E-01   2.986407995644545E-01   3.033883810204287E-01
   3.081819770424638E-01   3.130211290633286E-01   3.179053442094639E-01
   3.228340945924403E-01   3.278068166026274E-01   3.328229102059078E-01
   3.378817382444536E-01   3.429826257428107E-01   3.481248592208144E-01
   3.533076860151945E-01   3.585303136121313E-01   3.637919089935049E-01
   3.690915980001433E-01   3.744284647160432E-01   3.798015508783213E-01
   3.852098553185603E-01   3.906523334422751E-01   3.961278967544444E-01
   4.016354124404621E-01   4.071737030134748E-01   4.127415460408986E-01
   4.183376739649775E-01   4.239607740345415E-01   4.296094883676468E-01
   4.352824141675011E-01   4.409781041169076E-01   4.466950669793155E-01
   4.524317684372344E-01   4.581866322009980E-01   4.639580414222727E-01
   4.697443404467744E-01   4.755438369387070E-01   4.813548044046325E-01
   4.871754851358007E-01   4.930040935742603E-01   4.988388200881483E-01
   5.046778351142880E-01   5.105192935908041E-01   5.163613395586811E-01
   5.222021107598142E-01   5.280397430023026E-01   5.338723740054766E-01
   5.396981463834224E-01   5.455152093845889E-01   5.513217189859640E-01
   5.571158359533500E-01   5.628957215334495E-01   5.686595305447842E-01
   5.744054017838639E-01   5.801314458549215E-01   5.858357307531443E-01
   5.915162657633201E-01   5.971709844540954E-01   6.027977277264392E-01
   6.083942279881366E-01   6.139580955527960E-01   6.194868082872262E-01
   6.249777053500519E-01   6.304279855846252E-01   6.358347107730657E-01
   6.411948135631432E-01   6.465051094948765E-01   6.517623122320918E-01
   6.569630508916157E-01   6.621038882870386E-01   6.671813389679195E-01
   6.721918861165497E-01   6.771319966221501E-01   6.819981339383812E-01
   6.867867686000199E-01   6.914943864965543E-01   6.961174951578474E-01
   7.006526283979988E-01   7.050963496966082E-01   7.094452546858674E-01
   7.136959730725425E-01   7.178451702695093E-01   7.218895489525055E-01
   7.258258507011549E-01   7.296508578331165E-01   7.333613954981517E-01
   7.369543340652448E-01   7.404265918100114E-01   7.437751378904812E-01
   7.469969955857920E-01   7.500892457633127E-01   7.530490305342745E-01
   7.558735570553300E-01   7.585601014329252E-01   7.611060126884180E-01
   7.635087167440781E-01   7.657657203930809E-01   7.678746152200986E-01
   7.698330814428158E-01   7.716388916485152E-01   7.732899144036011E-01
   7.747841177174699E-01   7.761195723454263E-01   7.772944549183115E-01
   7.783070508891564E-01   7.791557572894890E-01   7.798390852899062E-01
   7.803556625612142E-01   7.807042354338578E-01   7.808836708545291E-01
   7.808929581398266E-01   7.807312105276221E-01   7.803976665274565E-01
   7.798916910718249E-01   7.792127764706613E-01   7.783605431717263E-01
   7.773347403299304E-01   7.761352461889285E-01   7.747620682785953E-01
   7.732153434322502E-01   7.714953376277426E-01   7.696024456567533E-01
   7.675371906268913E-01   7.653002233013977E-01   7.628923212814814E-01
   7.603143880365276E-01   7.575674517876073E-01   7.546526642499172E-01
   7.515712992399313E-01   7.483247511532074E-01   7.449145333189056E-01
   7.413422762371842E-01   7.376097257057039E-01   7.337187408415079E-01
   7.296712920045526E-01   7.254694586291262E-01   7.211154269693201E-01
   7.166114877646061E-01   7.119600338314105E-01   7.071635575863793E-01
   7.022246485067830E-01   6.971459905332146E-01   6.919303594194032E-01
   6.865806200335812E-01   6.810997236154186E-01   6.754907049920739E-01
   6.697566797564056E-01   6.639008414098465E-01   6.579264584718590E-01
   6.518368715572886E-01   6.456354904222941E-01   6.393257909789055E-01
   6.329113122776138E-01   6.263956534567321E-01   6.197824706566400E-01
   6.130754738964215E-01   6.062784239098402E-01   5.993951289370572E-01
   5.924294414654977E-01   5.853852549279844E-01   5.782665003292683E-01
   5.710771428196114E-01   5.638211781993661E-01   5.565026293521265E-01
   5.491255426022026E-01   5.416939839926933E-01   5.342120354811529E-01
   5.266837910507719E-01   5.191133527361246E-01   5.115048265638578E-01
   5.038623184102172E-01   4.961899297790027E-01   4.884917535053784E-01
   4.807718693929346E-01   4.730343397934395E-01   4.652832051408064E-01
   4.575224794528880E-01   4.497561458167275E-01   4.419881518748131E-01
   4.342224053316323E-01   4.264627695013469E-01   4.187130589186780E-01
   4.109770350360413E-01   4.032584020305702E-01   3.955608027448916E-01
   3.878878147853375E-01   3.802429468006910E-01   3.726296349635727E-01
   3.650512396751754E-01   3.575110425122980E-01   3.500122434335096E-01
   3.425579582588683E-01   3.351512164349407E-01   3.277949590939894E-01
   3.204920374131638E-01   3.132452112763963E-01   3.060571482385391E-01
   2.989304227881101E-01   2.918675159019531E-01   2.848708148820982E-01
   2.779426134622732E-01   2.710851121690268E-01   2.643004189198714E-01
   2.575905498386946E-01   2.509574302669642E-01   2.444028959476078E-01
   2.379286943571559E-01   2.315364861608136E-01   2.252278467645066E-01
   2.190042679376430E-01   2.128671594803626E-01   2.068178509094017E-01
   2.008575931373832E-01   1.949875601213402E-01   1.892088504575926E-01
   1.835224889017124E-01   1.779294277942191E-01   1.724305483748214E-01
   1.670266619704605E-01   1.617185110450640E-01   1.565067701017852E-01
   1.513920464315166E-01   1.463748807046097E-01   1.414557474059449E-01
   1.366350551167250E-01   1.319131466495679E-01   1.272902990465698E-01
   1.227667234529658E-01   1.183425648817447E-01   1.140179018870452E-01
   1.097927461663030E-01   1.056670421129001E-01   1.016406663424411E-01
   9.771342721672591E-02   9.388506438998574E-02   9.015524840199274E-02
   8.652358034224772E-02   8.298959160861795E-02   7.955274378255688E-02
   7.621242864143364E-02   7.296796832657229E-02   6.981861568339955E-02
   6.676355478768073E-02   6.380190166924209E-02   6.093270524189014E-02
   5.815494844550192E-02   5.546754960352573E-02   5.286936399644879E-02
   5.035918564920201E-02   4.793574932801711E-02   4.559773273996395E-02
   4.334375892629869E-02   4.117239883886703E-02   3.908217408714475E-02
   3.707155984206795E-02   3.513898788161003E-02   3.328284976210062E-02
   3.150150009854693E-02   2.979325993670264E-02   2.815642019932003E-02
   2.658924518890675E-02   2.508997612937178E-02   2.365683472917202E-02
   2.228802674894345E-02   2.098174555710408E-02   1.973617565753151E-02
   1.854949617413203E-02   1.741988427791400E-02   1.634551854304187E-02
   1.532458221926492E-02   1.435526640907399E-02   1.343577313892830E-02
   1.256431831490264E-02   1.173913455412261E-02   1.095847388437391E-02
   1.022061030528319E-02   9.523842205465078E-03   8.866494631008156E-03
   8.246921401624460E-03   7.663507071710280E-03   7.114668734454609E-03
   6.598857667983793E-03   6.114560823342993E-03   5.660302154885205E-03
   5.234643794364778E-03   4.836187070713161E-03   4.463573378109128E-03
   4.115484895542878E-03   3.790645161614122E-03   3.487819508792051E-03
   3.205815361823224E-03   2.943482405345440E-03   2.699712626140304E-03
   2.473440235756525E-03   2.263641479487709E-03   2.069334337909342E-03
   1.889578127353338E-03   1.723473005829597E-03   1.570159390997298E-03
   1.428817296836865E-03   1.298665595708344E-03   1.178961212431842E-03
   1.068998257005948E-03   9.681071024914082E-04   8.756534144662239E-04
   7.910371383268467E-04   7.136914505475009E-04   6.430816798226077E-04
   5.787042038067273E-04   5.200853269565716E-04   4.667801446955570E-04
   4.183713985215401E-04   3.744683471914131E-04   3.347054044004625E-04
   2.987424445974014E-04   2.662583591332144E-04   2.369617156542328E-04
   2.105824176784216E-04   1.868651353081189E-04   1.655719935574048E-04
   1.464830667459549E-04   1.293953285349622E-04   1.141216355224015E-04
   1.004897452342965E-04   8.834136920853142E-05   7.753126163018566E-05
   6.792634374543357E-05   5.940486404655873E-05   5.185559398226352E-05
   4.517705870239156E-05   3.927680209290212E-05   3.407068508899945E-05
   2.948221596836808E-05   2.544191101529912E-05   2.188668359538985E-05
   1.875925932808238E-05   1.600761453636318E-05   1.358443146250486E-05
   1.144660921272616E-05   9.554532425202715E-06   7.878457085158595E-06
   6.352823512458148E-06   0.000000000000000E+00   0.000000000000000E+00
   0.000000000000000E+00   0.000000000000000E+00   0.000000000000000E+00
   0.000000000000000E+00   0.000000000000000E+00   0.000000000000000E+00
   0.000000000000000E+00   0.000000000000000E+00   0.000000000000000E+00
   0.000000000000000E+00   0.000000000000000E+00   0.000000000000000E+00
   0.000000000000000E+00   0.000000000000000E+00   0.000000000000000E+00
   0.000000000000000E+00   0.000000000000000E+00   0.000000000000000E+00
   0.000000000000000E+00   0.000000000000000E+00   0.000000000000000E+00
   0.000000000000000E+00   0.000000000000000E+00   0.000000000000000E+00
   0.000000000000000E+00   0.000000000000000E+00   0.000000000000000E+00
   0.000000000000000E+00   0.000000000000000E+00   0.000000000000000E+00
   0.000000000000000E+00   0.000000000000000E+00   0.000000000000000E+00
   0.000000000000000E+00   0.000000000000000E+00   0.000000000000000E+00
   0.000000000000000E+00   0.000000000000000E+00   0.000000000000000E+00
   0.000000000000000E+00   0.000000000000000E+00   0.000000000000000E+00
   0.000000000000000E+00   0.000000000000000E+00   0.000000000000000E+00
   0.000000000000000E+00   0.000000000000000E+00   0.000000000000000E+00
   0.000000000000000E+00   0.000000000000000E+00   0.000000000000000E+00
   0.000000000000000E+00   0.000000000000000E+00   0.000000000000000E+00
   0.000000000000000E+00   0.000000000000000E+00   0.000000000000000E+00
   0.000000000000000E+00   0.000000000000000E+00   0.000000000000000E+00
   0.000000000000000E+00   0.000000000000000E+00   0.000000000000000E+00
   0.000000000000000E+00   0.000000000000000E+00   0.000000000000000E+00
   0.000000000000000E+00   0.000000000000000E+00   0.000000000000000E+00
   0.000000000000000E+00   0.000000000000000E+00   0.000000000000000E+00
   0.000000000000000E+00   0.000000000000000E+00   0.000000000000000E+00
   0.000000000000000E+00   0.000000000000000E+00   0.000000000000000E+00
   0.000000000000000E+00   0.000000000000000E+00   0.000000000000000E+00
   0.000000000000000E+00   0.000000000000000E+00   0.000000000000000E+00
   0.000000000000000E+00   0.000000000000000E+00   0.000000000000000E+00
   0.000000000000000E+00   0.000000000000000E+00   0.000000000000000E+00
   0.000000000000000E+00   0.000000000000000E+00   0.000000000000000E+00
   0.000000000000000E+00   0.000000000000000E+00   0.000000000000000E+00
   0.000000000000000E+00   0.000000000000000E+00   0.000000000000000E+00
   0.000000000000000E+00   0.000000000000000E+00   0.000000000000000E+00
   0.000000000000000E+00   0.000000000000000E+00   0.000000000000000E+00
   0.000000000000000E+00   0.000000000000000E+00   0.000000000000000E+00
   0.000000000000000E+00   0.000000000000000E+00   0.000000000000000E+00
   0.000000000000000E+00   0.000000000000000E+00   0.000000000000000E+00
   0.000000000000000E+00   0.000000000000000E+00   0.000000000000000E+00
   0.000000000000000E+00   0.000000000000000E+00   0.000000000000000E+00
   0.000000000000000E+00   0.000000000000000E+00   0.000000000000000E+00
   0.000000000000000E+00   0.000000000000000E+00   0.000000000000000E+00
   0.000000000000000E+00   0.000000000000000E+00   0.000000000000000E+00
   0.000000000000000E+00   0.000000000000000E+00   0.000000000000000E+00
   0.000000000000000E+00   0.000000000000000E+00   0.000000000000000E+00
   0.000000000000000E+00   0.000000000000000E+00
    </PP_AEWFC.3>
    <PP_AEWFC.4 index="4" label="2P" l="1">
   1.947282130059352E-07   1.988254419475022E-07   2.030088796861432E-07
   2.072803401201777E-07   2.116478362840948E-07   2.161264581339925E-07
   2.207153138036745E-07   2.254175614990506E-07   2.302357637953557E-07
   2.351725581138297E-07   2.402306438055733E-07   2.454127834648778E-07
   2.507218164359592E-07   2.561606741168092E-07   2.617323650431292E-07
   2.674399044614802E-07   2.732863792522765E-07   2.792750056409232E-07
   2.854090862137264E-07   2.916919980956650E-07   2.981272013989025E-07
   3.047182555082904E-07   3.114688020798791E-07   3.183825679140821E-07
   3.254633733301705E-07   3.327151334920769E-07   3.401418697287015E-07
   3.477476989657433E-07   3.555368371931200E-07   3.635136079863389E-07
   3.716824364478010E-07   3.800478601270442E-07   3.886145326643870E-07
   3.973872210633530E-07   4.063708076096076E-07   4.155702962688844E-07
   4.249908170178981E-07   4.346376244171434E-07   4.445161040516496E-07
   4.546317796009422E-07   4.649903088966461E-07   4.755974858611598E-07
   4.864592505527432E-07   4.975816939246652E-07   5.089710556102162E-07
   5.206337273552249E-07   5.325762610659445E-07   5.448053702216861E-07
   5.573279347000923E-07   5.701510047466516E-07   5.832818051987207E-07
   5.967277398914943E-07   6.104963963462073E-07   6.245955498364996E-07
   6.390331673815366E-07   6.538174140821655E-07   6.689566577691401E-07
   6.844594726139337E-07   7.003346454144295E-07   7.165911808161319E-07
   7.332383067112996E-07   7.502854805639685E-07   7.677423934973068E-07
   7.856189765365051E-07   8.039254080918507E-07   8.226721183398789E-07
   8.418697957182792E-07   8.615293940865475E-07   8.816621388797520E-07
   9.022795340273051E-07   9.233933688687240E-07   9.450157252752959E-07
   9.671589849449158E-07   9.898358368804653E-07   1.013059285057956E-06
   1.036842656286286E-06   1.061199608264406E-06   1.086144137841223E-06
   1.111690589482810E-06   1.137853663952126E-06   1.164648427205696E-06
   1.192090319513740E-06   1.220195164812307E-06   1.248979180290246E-06
   1.278458986257794E-06   1.308651615958626E-06   1.339574524931383E-06
   1.371245603042405E-06   1.403683187389912E-06   1.436906069334895E-06
   1.470933508646707E-06   1.505785247017120E-06   1.541481514773587E-06
   1.578043044045038E-06   1.615491084166456E-06   1.653847411365490E-06
   1.693134344369194E-06   1.733374759859679E-06   1.774592102611249E-06
   1.816810401739662E-06   1.860054284697421E-06   1.904348992359004E-06
   1.949720394368305E-06   1.996195004870219E-06   2.043799998640946E-06
   2.092563227624746E-06   2.142513237882537E-06   2.193679286967035E-06
   2.246091361733022E-06   2.299780196594262E-06   2.354777292238107E-06
   2.411114934809258E-06   2.468826215574400E-06   2.527945051079723E-06
   2.588506203813661E-06   2.650545303387467E-06   2.714098868246574E-06
   2.779204327925980E-06   2.845900045863274E-06   2.914225342783213E-06
   2.984220520668135E-06   3.055926887328832E-06   3.129386781590877E-06
   3.204643599111775E-06   3.281741818844677E-06   3.360727030164799E-06
   3.441645960675084E-06   3.524546504708060E-06   3.609477752541252E-06
   3.696490020343962E-06   3.785634880873640E-06   3.876965194940562E-06
   3.970535143659962E-06   4.066400261511231E-06   4.164617470224339E-06
   4.265245113514043E-06   4.368342992683073E-06   4.473972403116035E-06
   4.582196171685354E-06   4.693078695088592E-06   4.806685979142235E-06
   4.923085679186079E-06   5.042347140758506E-06   5.164541439042477E-06
   5.289741424746729E-06   5.418021777330829E-06   5.549459047372948E-06
   5.684131698975230E-06   5.822120146409096E-06   5.963506807312577E-06
   6.108376170076122E-06   6.256814835598367E-06   6.408911567329633E-06
   6.564757348782111E-06   6.724445437790246E-06   6.888071423631084E-06
   7.055733285341647E-06   7.227531451500616E-06   7.403568861498813E-06
   7.583951028342850E-06   7.768786103023299E-06   7.958184940488822E-06
   8.152261167265449E-06   8.351131250761848E-06   8.554914570302345E-06
   8.763733489930579E-06   8.977713433027552E-06   9.196982958789015E-06
   9.421673840608249E-06   9.651921146411367E-06   9.887863320993408E-06
   1.012964227040481E-05   1.037740344843881E-05   1.063129594527186E-05
   1.089147257831014E-05   1.115808998529676E-05   1.143130871973543E-05
   1.171129334868777E-05   1.199821255300293E-05   1.229223923003948E-05
   1.259355059894109E-05   1.290232830852890E-05   1.321875854787516E-05
   1.354303215962418E-05   1.387534475612834E-05   1.421589683846837E-05
   1.456489391842904E-05   1.492254664350286E-05   1.528907092499644E-05
   1.566468806931569E-05   1.604962491250808E-05   1.644411395814202E-05
   1.684839351860524E-05   1.726270785990631E-05   1.768730735006513E-05
   1.812244861118055E-05   1.856839467526537E-05   1.902541514394093E-05
   1.949378635208608E-05   1.997379153553736E-05   2.046572100293944E-05
   2.096987231184779E-05   2.148655044918724E-05   2.201606801617320E-05
   2.255874541780466E-05   2.311491105704055E-05   2.368490153377405E-05
   2.426906184872187E-05   2.486774561234845E-05   2.548131525894805E-05
   2.611014226601029E-05   2.675460737899815E-05   2.741510084167000E-05
   2.809202263208084E-05   2.878578270440093E-05   2.949680123669325E-05
   3.022550888479471E-05   3.097234704244933E-05   3.173776810784543E-05
   3.252223575671192E-05   3.332622522213325E-05   3.415022358124554E-05
   3.499473004898084E-05   3.586025627903014E-05   3.674732667220001E-05
   3.765647869234137E-05   3.858826319003401E-05   3.954324473421362E-05
   4.052200195193370E-05   4.152512787645830E-05   4.255323030388660E-05
   4.360693215851508E-05   4.468687186714759E-05   4.579370374256873E-05
   4.692809837640113E-05   4.809074304157193E-05   4.928234210461962E-05
   5.050361744807718E-05   5.175530890317337E-05   5.303817469309964E-05
   5.435299188709551E-05   5.570055686561164E-05   5.708168579681528E-05
   5.849721512470959E-05   5.994800206914379E-05   6.143492513799824E-05
   6.295888465183463E-05   6.452080328130829E-05   6.612162659764649E-05
   6.776232363650360E-05   6.944388747551097E-05   7.116733582584671E-05
   7.293371163815831E-05   7.474408372317806E-05   7.659954738737940E-05
   7.850122508403028E-05   8.045026708000724E-05   8.244785213874305E-05
   8.449518821968800E-05   8.659351319467477E-05   8.874409558158461E-05
   9.094823529572223E-05   9.320726441931558E-05   9.552254798956613E-05
   9.789548480568497E-05   1.003275082553596E-04   1.028200871611062E-04
   1.053747266469725E-04   1.079929690260669E-04   1.106763947093995E-04
   1.134266231365314E-04   1.162453137285411E-04   1.191341668638259E-04
   1.220949248772690E-04   1.251293730833151E-04   1.282393408235073E-04
   1.314267025390518E-04   1.346933788689897E-04   1.380413377745658E-04
   1.414725956903993E-04   1.449892187030724E-04   1.485933237577692E-04
   1.522870798936059E-04   1.560727095083142E-04   1.599524896529458E-04
   1.639287533572879E-04   1.680038909866887E-04   1.721803516310110E-04
   1.764606445264424E-04   1.808473405109127E-04   1.853430735138779E-04
   1.899505420812510E-04   1.946725109362762E-04   1.995118125771544E-04
   2.044713489122535E-04   2.095540929337463E-04   2.147630904305405E-04
   2.201014617413832E-04   2.255724035490387E-04   2.311791907164580E-04
   2.369251781658774E-04   2.428138028018023E-04   2.488485854788515E-04
   2.550331330154580E-04   2.613711402544413E-04   2.678663921714880E-04
   2.745227660325965E-04   2.813442336015642E-04   2.883348633986166E-04
   2.954988230112990E-04   3.028403814587745E-04   3.103639116106929E-04
   3.180738926618200E-04   3.259749126636381E-04   3.340716711141528E-04
   3.423689816071651E-04   3.508717745422912E-04   3.595850998970373E-04
   3.685141300622622E-04   3.776641627423844E-04   3.870406239217168E-04
   3.966490708983362E-04   4.064951953869256E-04   4.165848266920463E-04
   4.269239349533310E-04   4.375186344641112E-04   4.483751870650224E-04
   4.595000056141570E-04   4.708996575353630E-04   4.825808684463160E-04
   4.945505258680185E-04   5.068156830174130E-04   5.193835626848199E-04
   5.322615611979453E-04   5.454572524742315E-04   5.589783921633511E-04
   5.728329218816807E-04   5.870289735406166E-04   6.015748737706261E-04
   6.164791484429635E-04   6.317505272910024E-04   6.473979486331770E-04
   6.634305641995504E-04   6.798577440640605E-04   6.966890816845285E-04
   7.139343990525437E-04   7.316037519553736E-04   7.497074353520780E-04
   7.682559888660394E-04   7.872602023961535E-04   8.067311218489558E-04
   8.266800549939967E-04   8.471185774448000E-04   8.680585387677849E-04
   8.895120687215533E-04   9.114915836289798E-04   9.340097928845776E-04
   9.570797055996362E-04   9.807146373876704E-04   1.004928217292738E-03
   1.029734394863229E-03   1.055147447373740E-03   1.081181987197709E-03
   1.107852969333475E-03   1.135175699086494E-03   1.163165839910449E-03
   1.191839421410029E-03   1.221212847508169E-03   1.251302904780602E-03
   1.282126770960540E-03   1.313702023616404E-03   1.346046649005473E-03
   1.379179051106406E-03   1.413118060833570E-03   1.447882945436155E-03
   1.483493418085070E-03   1.519969647650634E-03   1.557332268674085E-03
   1.595602391535965E-03   1.634801612824438E-03   1.674952025906626E-03
   1.716076231706044E-03   1.758197349689242E-03   1.801339029064755E-03
   1.845525460197489E-03   1.890781386241657E-03   1.937132114995381E-03
   1.984603530980101E-03   2.033222107747906E-03   2.083014920419898E-03
   2.134009658458710E-03   2.186234638678276E-03   2.239718818493943E-03
   2.294491809415997E-03   2.350583890789653E-03   2.408026023784557E-03
   2.466849865636789E-03   2.527087784146359E-03   2.588772872433131E-03
   2.651938963954093E-03   2.716620647784832E-03   2.782853284168052E-03
   2.850673020331877E-03   2.920116806580701E-03   2.991222412661206E-03
   3.064028444406161E-03   3.138574360658535E-03   3.214900490478353E-03
   3.293048050634685E-03   3.373059163385046E-03   3.454976874544397E-03
   3.538845171845831E-03   3.624709003594953E-03   3.712614297619801E-03
   3.802607980518084E-03   3.894737997203347E-03   3.989053330751576E-03
   4.085604022549565E-03   4.184441192746277E-03   4.285617061008210E-03
   4.389184967579660E-03   4.495199394648564E-03   4.603715988018438E-03
   4.714791579086724E-03   4.828484207129641E-03   4.944853141893437E-03
   5.063958906491716E-03   5.185863300608242E-03   5.310629424004409E-03
   5.438321700330283E-03   5.569005901237875E-03   5.702749170794965E-03
   5.839620050197573E-03   5.979688502778786E-03   6.123025939311394E-03
   6.269705243601379E-03   6.419800798369022E-03   6.573388511413952E-03
   6.730545842060147E-03   6.891351827876421E-03   7.055887111667618E-03
   7.224233968731174E-03   7.396476334373398E-03   7.572699831679235E-03
   7.752991799528897E-03   7.937441320854140E-03   8.126139251126565E-03
   8.319178247069665E-03   8.516652795585887E-03   8.718659242889297E-03
   8.925295823833959E-03   9.136662691427393E-03   9.352861946517943E-03
   9.573997667644156E-03   9.800175941033627E-03   1.003150489073805E-02
   1.026809470889048E-02   1.051005768607005E-02   1.075750824175866E-02
   1.101056295487325E-02   1.126934059435668E-02   1.153396214980893E-02
   1.180455086214009E-02   1.208123225422512E-02   1.236413416153983E-02
   1.265338676275632E-02   1.294912261027537E-02   1.325147666067201E-02
   1.356058630502972E-02   1.387659139913744E-02   1.419963429352257E-02
   1.452985986329202E-02   1.486741553775219E-02   1.521245132977764E-02
   1.556511986489687E-02   1.592557641006256E-02   1.629397890207218E-02
   1.667048797560382E-02   1.705526699083033E-02   1.744848206057410E-02
   1.785030207696287E-02   1.826089873754577E-02   1.868044657082751E-02
   1.910912296117670E-02   1.954710817306327E-02   1.999458537457803E-02
   2.045174066018614E-02   2.091876307266424E-02   2.139584462416992E-02
   2.188318031639004E-02   2.238096815971289E-02   2.288940919136764E-02
   2.340870749247240E-02   2.393907020393075E-02   2.448070754111474E-02
   2.503383280727021E-02   2.559866240557889E-02   2.617541584980954E-02
   2.676431577348846E-02   2.736558793751800E-02   2.797946123616944E-02
   2.860616770137481E-02   2.924594250524025E-02   2.989902396070130E-02
   3.056565352023853E-02   3.124607577257009E-02   3.194053843723527E-02
   3.264929235698137E-02   3.337259148786412E-02   3.411069288696941E-02
   3.486385669766239E-02   3.563234613226778E-02   3.641642745208274E-02
   3.721636994462216E-02   3.803244589799354E-02   3.886493057229678E-02
   3.971410216794217E-02   4.058024179077755E-02   4.146363341391362E-02
   4.236456383613451E-02   4.328332263677843E-02   4.422020212697125E-02
   4.517549729709412E-02   4.614950576036406E-02   4.714252769240472E-02
   4.815486576668244E-02   4.918682508568147E-02   5.023871310768972E-02
   5.131083956906558E-02   5.240351640185411E-02   5.351705764661985E-02
   5.465177936036173E-02   5.580799951937468E-02   5.698603791692079E-02
   5.818621605557240E-02   5.940885703408796E-02   6.065428542868097E-02
   6.192282716854172E-02   6.321480940547058E-02   6.453056037748178E-02
   6.587040926623593E-02   6.723468604815973E-02   6.862372133911161E-02
   7.003784623245231E-02   7.147739213037979E-02   7.294269056838946E-02
   7.443407303272088E-02   7.595187077065421E-02   7.749641459352108E-02
   7.906803467229633E-02   8.066706032563975E-02   8.229381980025918E-02
   8.394864004346943E-02   8.563184646782471E-02   8.734376270770609E-02
   8.908471036774938E-02   9.085500876300318E-02   9.265497465071212E-02
   9.448492195362523E-02   9.634516147473510E-02   9.823600060336016E-02
   1.001577430124886E-01   1.021106883473091E-01   1.040951319048633E-01
   1.061113643047592E-01   1.081596711508984E-01   1.102403326841726E-01
   1.123536234261025E-01   1.144998118133933E-01   1.166791598233993E-01
   1.188919225904961E-01   1.211383480133717E-01   1.234186763532608E-01
   1.257331398231569E-01   1.280819621680497E-01   1.304653582362492E-01
   1.328835335418697E-01   1.353366838185605E-01   1.378249945645823E-01
   1.403486405793450E-01   1.429077854915309E-01   1.455025812789442E-01
   1.481331677802394E-01   1.507996721986933E-01   1.535022085981977E-01
   1.562408773916607E-01   1.590157648220172E-01   1.618269424360550E-01
   1.646744665512779E-01   1.675583777160267E-01   1.704787001630942E-01
   1.734354412570686E-01   1.764285909356467E-01   1.794581211451598E-01
   1.825239852705547E-01   1.856261175600729E-01   1.887644325448659E-01
   1.919388244537838E-01   1.951491666235646E-01   1.983953109046488E-01
   2.016770870628348E-01   2.049943021769834E-01   2.083467400329710E-01
   2.117341605140882E-01   2.151562989880717E-01   2.186128656909590E-01
   2.221035451079564E-01   2.256279953515199E-01   2.291858475368635E-01
   2.327767051551350E-01   2.364001434445352E-01   2.400557087597086E-01
   2.437429179397992E-01   2.474612576756555E-01   2.512101838767806E-01
   2.549891210387613E-01   2.587974616120862E-01   2.626345653734732E-01
   2.664997588010792E-01   2.703923344552724E-01   2.743115503670084E-01
   2.782566294362805E-01   2.822267588436153E-01   2.862210894781755E-01
   2.902387353867181E-01   2.942787732484451E-01   2.983402418817094E-01
   3.024221417895868E-01   3.065234347525353E-01   3.106430434777294E-01
   3.147798513161977E-01   3.189327020606094E-01   3.231003998384277E-01
   3.272817091171733E-01   3.314753548406343E-01   3.356800227169691E-01
   3.398943596816038E-01   3.441169745594531E-01   3.483464389519800E-01
   3.525812883745980E-01   3.568200236683701E-01   3.610611127062775E-01
   3.653029924077253E-01   3.695440710646045E-01   3.737827309672206E-01
   3.780173312979356E-01   3.822462112338370E-01   3.864676931670411E-01
   3.906800859129351E-01   3.948816877344467E-01   3.990707889672643E-01
   4.032456739913506E-01   4.074046222640629E-01   4.115459081168450E-01
   4.156677990282473E-01   4.197685521275891E-01   4.238464087602685E-01
   4.278995870580821E-01   4.319262726016274E-01   4.359246074271959E-01
   4.398926778029796E-01   4.438285013608744E-01   4.477300143011608E-01
   4.515950594691641E-01   4.554213761198952E-01   4.592065921280101E-01
   4.629482192628128E-01   4.666436519374976E-01   4.702901695754376E-01
   4.738849424423031E-01   4.774250405077866E-01   4.809074446639695E-01
   4.843290594726112E-01   4.876867265609783E-01   4.909772378367900E-01
   4.941973478303122E-01   4.973437846649211E-01   5.004132593706448E-01
   5.034024734554775E-01   5.063081248130965E-01   5.091269121611267E-01
   5.118555382701304E-01   5.144907122666281E-01   5.170291512842411E-01
   5.194675817068878E-01   5.218027402069328E-01   5.240313747369950E-01
   5.261502455919065E-01   5.281561266200063E-01   5.300458066318030E-01
   5.318160910291900E-01   5.334638036593540E-01   5.349857888835045E-01
   5.363789138407086E-01   5.376400708806296E-01   5.387661801351356E-01
   5.397541921969642E-01   5.406010908734062E-01   5.413038959839117E-01
   5.418596661722933E-01   5.422655017065382E-01   5.425185472419234E-01
   5.426159945259873E-01   5.425550850268052E-01   5.423331124688285E-01
   5.419474252632258E-01   5.413954288221203E-01   5.406745877483553E-01
   5.397824278943890E-01   5.387165382856570E-01   5.374745729052173E-01
   5.360542523377596E-01   5.344533652721201E-01   5.326697698623247E-01
   5.307013949479162E-01   5.285462411349263E-01   5.262023817393547E-01
   5.236679635954375E-01   5.209412077313403E-01   5.180204099152179E-01
   5.149039410748496E-01   5.115902475943037E-01   5.080778514913002E-01
   5.043653504791579E-01   5.004514179173982E-01   4.963348026552756E-01
   4.920143287726763E-01   4.874888952230030E-01   4.827574753828225E-01
   4.778191165131988E-01   4.726729391377763E-01   4.673181363427893E-01
   4.617539730042772E-01   4.559797849478637E-01   4.499949780465066E-01
   4.437990272616598E-01   4.373914756332800E-01   4.307719332240815E-01
   4.239400760233787E-01   4.168956448157538E-01   4.096384440196578E-01
   4.021683405008843E-01   3.944852623656521E-01   3.865891977377995E-01
   3.784801935243234E-01   3.701583541731987E-01   3.616238404270877E-01
   3.528768680762013E-01   3.439177067132039E-01   3.347466784926748E-01
   3.253641568972533E-01   3.157705655122078E-01   3.059663768097896E-01
   2.959521109443799E-01   2.857283345591115E-01   2.752956596043737E-01
   2.646547421683947E-01   2.538062813199447E-01   2.427510179631498E-01
   2.314897337044700E-01   2.200232497320722E-01   2.083524257081428E-01
   1.964781586751774E-01   1.844013819779448E-01   1.721230642036461E-01
   1.596442081438643E-01   1.469658497831674E-01   1.340890573206773E-01
   1.210149302326096E-01   1.077445983856946E-01   9.427922121346349E-02
   8.061998696964290E-02   6.676811207529207E-02   5.272484057881172E-02
   3.849144375049753E-02   2.406921983585202E-02   9.459493994339889E-03
  -5.336381547397122E-03  -2.031702709673609E-02  -3.548103481773272E-02
  -5.082696774086112E-02  -6.635335842447165E-02  -8.205870723216438E-02
  -9.794148019044376E-02  -1.140001063918580E-01  -1.302329749103882E-01
  -1.466384311981733E-01  -1.632147729357610E-01  -1.799602453119745E-01
  -1.968730357141608E-01  -2.139512678150254E-01  -2.311929950484101E-01
  -2.485961934731792E-01  -2.661587540317792E-01  -2.838784742179418E-01
  -3.017530491763145E-01  -3.197800622654331E-01  -3.379569751242844E-01
  -3.562811172916328E-01  -3.747496754361950E-01  -3.933596822645113E-01
  -4.121080051818874E-01  -4.309913347899214E-01  -4.500061733117963E-01
  -4.691488230435459E-01  -4.884153749358868E-01  -5.078016974167557E-01
  -5.273034255690456E-01  -5.469159507815622E-01  -5.666344109937272E-01
  -5.864536816552530E-01  -6.063683675215661E-01  -6.263727954038874E-01
  -6.464610079891366E-01  -6.666267588395050E-01  -6.868635086743641E-01
  -7.071644230281777E-01  -7.275223713671950E-01  -7.479299277349695E-01
  -7.683793729821989E-01  -7.888626986201215E-01  -8.093716123188721E-01
  -8.298975450529984E-01  -8.504316598759997E-01  -8.709648622845794E-01
  -8.914878121116450E-01  -9.119909368653122E-01  -9.324644464097068E-01
  -9.528983488626239E-01  -9.732824675655487E-01  -9.936064589635945E-01
  -1.013859831216980E+00  -1.034031963352118E+00  -1.054112124749542E+00
  -1.074089494758001E+00  -1.093953182219299E+00  -1.113692244686914E+00
  -1.133295707123141E+00  -1.152752579864386E+00  -1.172051875652099E+00
  -1.191182625537527E+00  -1.210133893481622E+00  -1.228894789486751E+00
  -1.247454481113948E+00  -1.265802203257935E+00  -1.283927266071532E+00
  -1.301819060951101E+00  -1.319467064514827E+00  -1.336860840525628E+00
  -1.353990039729977E+00  -1.370844397602628E+00  -1.387413730004955E+00
  -1.403687926781123E+00  -1.419656943331526E+00  -1.435310790216726E+00
  -1.450639520857487E+00  -1.465633217407438E+00  -1.480281974884395E+00
  -1.494575883654562E+00  -1.508505010370770E+00  -1.522059377471643E+00
  -1.535228941353414E+00  -1.548003569329886E+00  -1.560373015499219E+00
  -1.572326895638648E+00  -1.583854661250265E+00  -1.594945572882620E+00
  -1.605588672854312E+00  -1.615772757507015E+00  -1.625486349116686E+00
  -1.634717667593036E+00  -1.643454602098930E+00  -1.651684682723141E+00
  -1.659395052342028E+00  -1.666572438808206E+00  -1.673203127607193E+00
  -1.679272935126443E+00  -1.684767182685071E+00  -1.689670671477010E+00
  -1.693967658585323E+00  -1.697641834230952E+00  -1.700676300425257E+00
  -1.703053551202402E+00  -1.704755454614837E+00  -1.705763236682917E+00
  -1.706057467497982E+00  -1.705618049687018E+00  -1.704424209456326E+00
  -1.702454490441325E+00  -1.699686750599770E+00  -1.696098162396167E+00
  -1.691665216536000E+00  -1.686363729519449E+00  -1.680168855295597E+00
  -1.673055101309808E+00  -1.664996349248197E+00  -1.655965880792256E+00
  -1.645936408712099E+00  -1.634880113640053E+00  -1.622768686865339E+00
  -1.609573379513779E+00  -1.595265058478998E+00  -1.579814269482707E+00
  -1.563191307649072E+00  -1.545366295985928E+00  -1.526309272170179E+00
  -1.505990284031973E+00  -1.484379494146209E+00  -1.461447293946240E+00
  -1.437164427738062E+00  -1.411502127026097E+00  -1.384432255532778E+00
  -1.355927465289396E+00  -1.325961364159121E+00  -1.294508695133894E+00
  -1.261545527722951E+00  -1.227049461721363E+00  -1.190999843614715E+00
  -1.153377995810452E+00  -1.114167459041499E+00  -1.073360272686289E+00
  -1.030970127109417E+00  -9.870063346918089E-01  -9.414469403154928E-01
  -8.942923127176000E-01  -8.455411405642418E-01  -7.951973954444045E-01
  -7.432697435048972E-01  -6.897719647936641E-01  -6.347233144218509E-01
  -5.781488901676197E-01  -5.200800082828371E-01  -4.605545857932466E-01
  -3.996175278184877E-01  -3.373211181728395E-01  -2.737254112704413E-01
  -2.088986230993984E-01  -1.429175187537927E-01  -7.586779372642373E-02
  -7.844445850539008E-03   6.104786554244546E-02   1.306944770236632E-01
   2.009703991550103E-01   2.717400197619625E-01   3.428568372675196E-01
   4.141632293524024E-01   4.854902626017146E-01   5.566575491966363E-01
   6.274731571074929E-01   6.977335806372856E-01   7.672237785472847E-01
   8.357172873626177E-01   9.029764177991760E-01   9.687525425659315E-01
   1.032786484070328E+00   1.094809010779200E+00   1.154541451153071E+00
   1.211696434166034E+00   1.265978765433940E+00   1.317086447886507E+00
   1.364711855719195E+00   1.408543070032379E+00   1.448265384091343E+00
   1.483562985503118E+00   1.514120821786248E+00   1.539626654787899E+00
   1.559773308159563E+00   1.574261110617385E+00   1.582800535966403E+00
   1.585115038839733E+00   1.580944082775514E+00   1.570046354608851E+00
   1.552203156177846E+00   1.527221961019421E+00   1.494940120052851E+00
   1.455228696211995E+00   1.407996403591374E+00   1.353193621923506E+00
   1.290816452119401E+00   1.220910773203989E+00   1.143576255296649E+00
   1.058970277368594E+00   9.673116924113455E-01   8.688843764459482E-01
   7.640404915790915E-01   6.532033871753316E-01   5.368700572884275E-01
   4.156130669236253E-01   2.900818546517850E-01   1.610033147524702E-01
   2.918155863551929E-02  -1.045032469898878E-01  -2.390970686109378E-01
  -3.735753236941011E-01  -5.068474276273912E-01  -6.377626646797814E-01
  -7.651174702439795E-01  -8.876642011425316E-01  -1.004121457082256E+00
  -1.113185999136066E+00  -1.213546290134619E+00  -1.303897656817874E+00
  -1.382959044332700E+00  -1.449491300036290E+00  -1.502316885528898E+00
  -1.540340873448941E+00  -1.562573038999050E+00  -1.568150805760766E+00
  -1.556362751596698E+00  -1.526672324025066E+00  -1.478741356293529E+00
  -1.412452916627253E+00  -1.327932965189076E+00  -1.225570237849045E+00
  -1.106033724880724E+00  -9.702870684299627E-01  -8.195991675611881E-01
  -6.555502566545773E-01  -4.800327149028288E-01  -2.952458748057954E-01
  -1.036841291502495E-01   9.188230773814272E-02   2.884345445112991E-01
   4.827405081682687E-01   6.713990871280596E-01   8.508930354572563E-01
   1.017650532079713E+00   1.168115032946263E+00   1.298822763383109E+00
   1.406486875060090E+00   1.488086941953754E+00   1.540962099139371E+00
   1.562905746348266E+00   1.552259356562794E+00   1.508002562655493E+00
   1.429836358954864E+00   1.318255968845214E+00   1.174609715486761E+00
   1.001140113633650E+00   8.010034005945976E-01   5.782638681130235E-01
   3.378596679323979E-01   8.553726337468667E-02  -1.722475951887210E-01
  -4.284635698898434E-01  -6.756721641230164E-01  -9.062295744889735E-01
  -1.112519102396147E+00  -1.287209539310715E+00  -1.423533100478197E+00
  -1.515574591651353E+00  -1.558561635449168E+00  -1.549144059584740E+00
  -1.485649075663658E+00  -1.368297785182354E+00  -1.199367978086137E+00
  -9.832882804445624E-01  -7.266495971258168E-01  -4.381216022065919E-01
  -1.282648454058248E-01   1.907670833444281E-01   5.056359631152763E-01
   8.023326546893222E-01   1.066784126436095E+00   1.285534516418212E+00
   1.446473450598858E+00   1.539577565992388E+00   1.557624688344832E+00
   1.496834999441749E+00   1.357390457269685E+00   1.143783365264520E+00
   8.649479389876926E-01   5.341354926012727E-01   1.685047831018267E-01
  -2.115858321621264E-01  -5.835787227138158E-01  -9.239817909095978E-01
  -1.209845304221205E+00  -1.420373287697485E+00  -1.538568439701634E+00
  -1.552789776081338E+00  -1.458088857711977E+00  -1.257186136282944E+00
  -9.609560547140169E-01  -5.883099124550111E-01
    </PP_AEWFC.4>
    <PP_PSWFC.1 size="1085" index="1" label="2S" l="0">
  -2.235325234564877E-04  -2.263442164006853E-04  -2.291912760856594E-04
  -2.320741473701427E-04  -2.349932807084987E-04  -2.379491322211048E-04
  -2.409421637656222E-04  -2.439728430091621E-04  -2.470416435013588E-04
  -2.501490447483643E-04  -2.532955322877693E-04  -2.564815977644711E-04
  -2.597077390074930E-04  -2.629744601077710E-04  -2.662822714969195E-04
  -2.696316900269857E-04  -2.730232390512093E-04  -2.764574485057970E-04
  -2.799348549927255E-04  -2.834560018635874E-04  -2.870214393044894E-04
  -2.906317244220200E-04  -2.942874213302983E-04  -2.979891012391175E-04
  -3.017373425431980E-04  -3.055327309125606E-04  -3.093758593840396E-04
  -3.132673284539451E-04  -3.172077461718915E-04  -3.211977282358058E-04
  -3.252378980881311E-04  -3.293288870132403E-04  -3.334713342360752E-04
  -3.376658870220257E-04  -3.419132007780665E-04  -3.462139391551647E-04
  -3.505687741519754E-04  -3.549783862198432E-04  -3.594434643691226E-04
  -3.639647062768381E-04  -3.685428183956946E-04  -3.731785160644630E-04
  -3.778725236197518E-04  -3.826255745091859E-04  -3.874384114060084E-04
  -3.923117863251230E-04  -3.972464607405979E-04  -4.022432057046464E-04
  -4.073028019681043E-04  -4.124260401024235E-04  -4.176137206231979E-04
  -4.228666541152456E-04  -4.281856613592632E-04  -4.335715734600722E-04
  -4.390252319764820E-04  -4.445474890527808E-04  -4.501392075518856E-04
  -4.558012611901646E-04  -4.615345346739546E-04  -4.673399238377991E-04
  -4.732183357844196E-04  -4.791706890264528E-04  -4.851979136299681E-04
  -4.913009513597891E-04  -4.974807558266474E-04  -5.037382926361813E-04
  -5.100745395398134E-04  -5.164904865875236E-04  -5.229871362825442E-04
  -5.295655037380026E-04  -5.362266168355295E-04  -5.429715163858678E-04
  -5.498012562914978E-04  -5.567169037113085E-04  -5.637195392273432E-04
  -5.708102570136364E-04  -5.779901650071809E-04  -5.852603850810400E-04
  -5.926220532196409E-04  -6.000763196962720E-04  -6.076243492528096E-04
  -6.152673212817100E-04  -6.230064300102876E-04  -6.308428846873115E-04
  -6.387779097719508E-04  -6.468127451250921E-04  -6.549486462030685E-04
  -6.631868842538223E-04  -6.715287465155339E-04  -6.799755364177550E-04
  -6.885285737850632E-04  -6.971891950432833E-04  -7.059587534283029E-04
  -7.148386191975109E-04  -7.238301798438999E-04  -7.329348403128568E-04
  -7.421540232216829E-04  -7.514891690818754E-04  -7.609417365242018E-04
  -7.705132025266116E-04  -7.802050626450044E-04  -7.900188312469103E-04
  -7.999560417481039E-04  -8.100182468521956E-04  -8.202070187932395E-04
  -8.305239495813853E-04  -8.409706512516269E-04  -8.515487561156771E-04
  -8.622599170170092E-04  -8.731058075891105E-04  -8.840881225169761E-04
  -8.952085778018990E-04  -9.064689110295883E-04  -9.178708816416574E-04
  -9.294162712105315E-04  -9.411068837178069E-04  -9.529445458361141E-04
  -9.649311072145281E-04  -9.770684407675641E-04  -9.893584429678129E-04
  -1.001803034142249E-03  -1.014404158772276E-03  -1.027163785797535E-03
  -1.040083908923540E-03  -1.053166546933187E-03  -1.066413744002167E-03
  -1.079827570018358E-03  -1.093410120905229E-03  -1.107163518949315E-03
  -1.121089913131806E-03  -1.135191479464308E-03  -1.149470421328826E-03
  -1.163928969822027E-03  -1.178569384103825E-03  -1.193393951750362E-03
  -1.208404989111412E-03  -1.223604841672292E-03  -1.238995884420321E-03
  -1.254580522215888E-03  -1.270361190168190E-03  -1.286340354015683E-03
  -1.302520510511331E-03  -1.318904187812698E-03  -1.335493945876938E-03
  -1.352292376860760E-03  -1.369302105525419E-03  -1.386525789646803E-03
  -1.403966120430671E-03  -1.421625822933122E-03  -1.439507656486347E-03
  -1.457614415129730E-03  -1.475948928046381E-03  -1.494514060005148E-03
  -1.513312711808193E-03  -1.532347820744202E-03  -1.551622361047277E-03
  -1.571139344361617E-03  -1.590901820212031E-03  -1.610912876480375E-03
  -1.631175639887971E-03  -1.651693276484102E-03  -1.672468992140642E-03
  -1.693506033052911E-03  -1.714807686246824E-03  -1.736377280092424E-03
  -1.758218184823854E-03  -1.780333813065900E-03  -1.802727620367116E-03
  -1.825403105739680E-03  -1.848363812206033E-03  -1.871613327352376E-03
  -1.895155283889152E-03  -1.918993360218549E-03  -1.943131281009154E-03
  -1.967572817777839E-03  -1.992321789478926E-03  -2.017382063100821E-03
  -2.042757554270083E-03  -2.068452227863137E-03  -2.094470098625658E-03
  -2.120815231799729E-03  -2.147491743758922E-03  -2.174503802651315E-03
  -2.201855629050634E-03  -2.229551496615563E-03  -2.257595732757324E-03
  -2.285992719315699E-03  -2.314746893243497E-03  -2.343862747299653E-03
  -2.373344830751046E-03  -2.403197750083106E-03  -2.433426169719405E-03
  -2.464034812750233E-03  -2.495028461670383E-03  -2.526411959126190E-03
  -2.558190208671939E-03  -2.590368175535828E-03  -2.622950887395509E-03
  -2.655943435163406E-03  -2.689350973781908E-03  -2.723178723028511E-03
  -2.757431968331153E-03  -2.792116061593719E-03  -2.827236422031975E-03
  -2.862798537019989E-03  -2.898807962947168E-03  -2.935270326086111E-03
  -2.972191323471320E-03  -3.009576723788984E-03  -3.047432368277939E-03
  -3.085764171641918E-03  -3.124578122973325E-03  -3.163880286688550E-03
  -3.203676803475072E-03  -3.243973891250472E-03  -3.284777846133437E-03
  -3.326095043427049E-03  -3.367931938614343E-03  -3.410295068366424E-03
  -3.453191051563239E-03  -3.496626590327137E-03  -3.540608471069477E-03
  -3.585143565550314E-03  -3.630238831951429E-03  -3.675901315962856E-03
  -3.722138151882985E-03  -3.768956563732576E-03  -3.816363866382677E-03
  -3.864367466696752E-03  -3.912974864687161E-03  -3.962193654686093E-03
  -4.012031526531313E-03  -4.062496266766679E-03  -4.113595759857806E-03
  -4.165337989422992E-03  -4.217731039479525E-03  -4.270783095705745E-03
  -4.324502446718843E-03  -4.378897485368760E-03  -4.433976710048331E-03
  -4.489748726019798E-03  -4.546222246758087E-03  -4.603406095310827E-03
  -4.661309205675509E-03  -4.719940624193904E-03  -4.779309510963952E-03
  -4.839425141269417E-03  -4.900296907027413E-03  -4.961934318254140E-03
  -5.024347004548987E-03  -5.087544716597234E-03  -5.151537327691629E-03
  -5.216334835273018E-03  -5.281947362490310E-03  -5.348385159780010E-03
  -5.415658606465529E-03  -5.483778212376569E-03  -5.552754619488791E-03
  -5.622598603584038E-03  -5.693321075931388E-03  -5.764933084989234E-03
  -5.837445818128731E-03  -5.910870603378806E-03  -5.985218911193053E-03
  -6.060502356238760E-03  -6.136732699208326E-03  -6.213921848653393E-03
  -6.292081862841914E-03  -6.371224951638509E-03  -6.451363478408348E-03
  -6.532509961944858E-03  -6.614677078421583E-03  -6.697877663368452E-03
  -6.782124713672784E-03  -6.867431389605350E-03  -6.953811016871750E-03
  -7.041277088689481E-03  -7.129843267890955E-03  -7.219523389052847E-03
  -7.310331460652057E-03  -7.402281667248599E-03  -7.495388371695827E-03
  -7.589666117378235E-03  -7.685129630477253E-03  -7.781793822265343E-03
  -7.879673791428735E-03  -7.978784826419210E-03  -8.079142407835204E-03
  -8.180762210832677E-03  -8.283660107566069E-03  -8.387852169659683E-03
  -8.493354670709987E-03  -8.600184088819018E-03  -8.708357109159487E-03
  -8.817890626571829E-03  -8.928801748193601E-03  -9.041107796121713E-03
  -9.154826310107786E-03  -9.269975050287106E-03  -9.386571999941589E-03
  -9.504635368297090E-03  -9.624183593355614E-03  -9.745235344762720E-03
  -9.867809526710599E-03  -9.991925280877329E-03  -1.011760198940258E-02
  -1.024485927790039E-02  -1.037371701850937E-02  -1.050419533298074E-02
  -1.063631459580485E-02  -1.077009543737635E-02  -1.090555874719880E-02
  -1.104272567712895E-02  -1.118161764466127E-02  -1.132225633625327E-02
  -1.146466371069192E-02  -1.160886200250190E-02  -1.175487372539594E-02
  -1.190272167576799E-02  -1.205242893622954E-02  -1.220401887918972E-02
  -1.235751517047961E-02  -1.251294177302141E-02  -1.267032295054293E-02
  -1.282968327133785E-02  -1.299104761207255E-02  -1.315444116163970E-02
  -1.331988942505955E-02  -1.348741822742917E-02  -1.365705371792036E-02
  -1.382882237382687E-02  -1.400275100466118E-02  -1.417886675630188E-02
  -1.435719711519196E-02  -1.453776991258852E-02  -1.472061332886492E-02
  -1.490575589786530E-02  -1.509322651131289E-02  -1.528305442327201E-02
  -1.547526925466488E-02  -1.566990099784357E-02  -1.586698002121786E-02
  -1.606653707393966E-02  -1.626860329064454E-02  -1.647321019625116E-02
  -1.668038971081916E-02  -1.689017415446611E-02  -1.710259625234439E-02
  -1.731768913967850E-02  -1.753548636686355E-02  -1.775602190462567E-02
  -1.797933014924479E-02  -1.820544592784087E-02  -1.843440450372395E-02
  -1.866624158180888E-02  -1.890099331409547E-02  -1.913869630521460E-02
  -1.937938761804124E-02  -1.962310477937501E-02  -1.986988578568888E-02
  -2.011976910894706E-02  -2.037279370249240E-02  -2.062899900700452E-02
  -2.088842495652901E-02  -2.115111198457866E-02  -2.141710103030754E-02
  -2.168643354475842E-02  -2.195915149718464E-02  -2.223529738144692E-02
  -2.251491422248604E-02  -2.279804558287220E-02  -2.308473556943154E-02
  -2.337502883995108E-02  -2.366897060996245E-02  -2.396660665960540E-02
  -2.426798334057190E-02  -2.457314758313145E-02  -2.488214690323853E-02
  -2.519502940972304E-02  -2.551184381156434E-02  -2.583263942524992E-02
  -2.615746618221911E-02  -2.648637463639315E-02  -2.681941597179203E-02
  -2.715664201023897E-02  -2.749810521915340E-02  -2.784385871943334E-02
  -2.819395629342750E-02  -2.854845239299856E-02  -2.890740214767790E-02
  -2.927086137291266E-02  -2.963888657840628E-02  -3.001153497655250E-02
  -3.038886449096448E-02  -3.077093376509921E-02  -3.115780217097808E-02
  -3.154952981800462E-02  -3.194617756187960E-02  -3.234780701361484E-02
  -3.275448054864594E-02  -3.316626131604496E-02  -3.358321324783373E-02
  -3.400540106839797E-02  -3.443289030400368E-02  -3.486574729241589E-02
  -3.530403919262046E-02  -3.574783399465002E-02  -3.619720052951370E-02
  -3.665220847923235E-02  -3.711292838697896E-02  -3.757943166732525E-02
  -3.805179061659491E-02  -3.853007842332358E-02  -3.901436917882677E-02
  -3.950473788787538E-02  -4.000126047947981E-02  -4.050401381778281E-02
  -4.101307571306122E-02  -4.152852493283732E-02  -4.205044121309973E-02
  -4.257890526963427E-02  -4.311399880946502E-02  -4.365580454240532E-02
  -4.420440619271941E-02  -4.475988851089445E-02  -4.532233728552287E-02
  -4.589183935529530E-02  -4.646848262110342E-02  -4.705235605825334E-02
  -4.764354972878876E-02  -4.824215479392360E-02  -4.884826352658441E-02
  -4.946196932406100E-02  -5.008336672076602E-02  -5.071255140110215E-02
  -5.134962021243648E-02  -5.199467117818162E-02  -5.264780351098191E-02
  -5.330911762600498E-02  -5.397871515433678E-02  -5.465669895647919E-02
  -5.534317313594953E-02  -5.603824305297940E-02  -5.674201533831302E-02
  -5.745459790710231E-02  -5.817609997289752E-02  -5.890663206173183E-02
  -5.964630602629706E-02  -6.039523506020968E-02  -6.115353371236405E-02
  -6.192131790137054E-02  -6.269870493007655E-02  -6.348581350016683E-02
  -6.428276372684115E-02  -6.508967715356578E-02  -6.590667676689518E-02
  -6.673388701136158E-02  -6.757143380442711E-02  -6.841944455149626E-02
  -6.927804816098364E-02  -7.014737505943273E-02  -7.102755720668175E-02
  -7.191872811107039E-02  -7.282102284468425E-02  -7.373457805862996E-02
  -7.465953199833604E-02  -7.559602451887393E-02  -7.654419710029173E-02
  -7.750419286295555E-02  -7.847615658289046E-02  -7.946023470711426E-02
  -8.045657536895660E-02  -8.146532840335469E-02  -8.248664536211829E-02
  -8.352067952915442E-02  -8.456758593564281E-02  -8.562752137515275E-02
  -8.670064441869035E-02  -8.778711542966683E-02  -8.888709657877576E-02
  -9.000075185876850E-02  -9.112824709911503E-02  -9.226974998053766E-02
  -9.342543004940500E-02  -9.459545873197156E-02  -9.578000934844891E-02
  -9.697925712689384E-02  -9.819337921689614E-02  -9.942255470305168E-02
  -1.006669646182023E-01  -1.019267919564248E-01  -1.032022216857508E-01
  -1.044934407605975E-01  -1.058006381338891E-01  -1.071240047688489E-01
  -1.084637336504374E-01  -1.098200197964171E-01  -1.111930602680161E-01
  -1.125830541801692E-01  -1.139902027113076E-01  -1.154147091126725E-01
  -1.168567787171231E-01  -1.183166189474099E-01  -1.197944393238833E-01
  -1.212904514716057E-01  -1.228048691268334E-01  -1.243379081428359E-01
  -1.258897864950140E-01  -1.274607242852826E-01  -1.290509437456777E-01
  -1.306606692411490E-01  -1.322901272714948E-01  -1.339395464723973E-01
  -1.356091576155131E-01  -1.372991936075721E-01  -1.390098894884355E-01
  -1.407414824280651E-01  -1.424942117223481E-01  -1.442683187877259E-01
  -1.460640471545701E-01  -1.478816424592457E-01  -1.497213524348039E-01
  -1.515834269002373E-01  -1.534681177482372E-01  -1.553756789313812E-01
  -1.573063664466832E-01  -1.592604383184337E-01  -1.612381545792506E-01
  -1.632397772492694E-01  -1.652655703133851E-01  -1.673157996964661E-01
  -1.693907332364519E-01  -1.714906406552431E-01  -1.736157935272939E-01
  -1.757664652458064E-01  -1.779429309864305E-01  -1.801454676683633E-01
  -1.823743539127421E-01  -1.846298699982200E-01  -1.869122978136098E-01
  -1.892219208074767E-01  -1.915590239345591E-01  -1.939238935988878E-01
  -1.963168175934756E-01  -1.987380850364407E-01  -2.011879863034226E-01
  -2.036668129561498E-01  -2.061748576670044E-01  -2.087124141394348E-01
  -2.112797770240550E-01  -2.138772418302651E-01  -2.165051048332271E-01
  -2.191636629760166E-01  -2.218532137667739E-01  -2.245740551706669E-01
  -2.273264854964745E-01  -2.301108032775934E-01  -2.329273071472633E-01
  -2.357762957078031E-01  -2.386580673936416E-01  -2.415729203279200E-01
  -2.445211521724398E-01  -2.475030599707166E-01  -2.505189399839050E-01
  -2.535690875193407E-01  -2.566537967514465E-01  -2.597733605347422E-01
  -2.629280702086850E-01  -2.661182153940694E-01  -2.693440837807002E-01
  -2.726059609060489E-01  -2.759041299245985E-01  -2.792388713675671E-01
  -2.826104628927048E-01  -2.860191790238386E-01  -2.894652908798446E-01
  -2.929490658927108E-01  -2.964707675143490E-01  -3.000306549118129E-01
  -3.036289826505633E-01  -3.072660003654216E-01  -3.109419524188441E-01
  -3.146570775461398E-01  -3.184116084872547E-01  -3.222057716047346E-01
  -3.260397864874732E-01  -3.299138655398505E-01  -3.338282135558536E-01
  -3.377830272777794E-01  -3.417784949391018E-01  -3.458147957910926E-01
  -3.498920996127744E-01  -3.540105662037857E-01  -3.581703448597376E-01
  -3.623715738296361E-01  -3.666143797549472E-01  -3.708988770898812E-01
  -3.752251675024743E-01  -3.795933392560498E-01  -3.840034665706433E-01
  -3.884556089639801E-01  -3.929498105716059E-01  -3.974860994457676E-01
  -4.020644868326670E-01  -4.066849664277037E-01  -4.113475136083518E-01
  -4.160520846443190E-01  -4.207986158846568E-01  -4.255870229215157E-01
  -4.304171997302491E-01  -4.352890177856049E-01  -4.402023251537646E-01
  -4.451569455600165E-01  -4.501526774318939E-01  -4.551892929176295E-01
  -4.602665368798302E-01  -4.653841258643115E-01  -4.705417470440775E-01
  -4.757390571384911E-01  -4.809756813077235E-01  -4.862512120226414E-01
  -4.915652079103486E-01  -4.969171925756690E-01  -5.023066533989384E-01
  -5.077330403105456E-01  -5.131957645427546E-01  -5.186941973594302E-01
  -5.242276687643853E-01  -5.297954661891824E-01  -5.353968331613235E-01
  -5.410309679538875E-01  -5.466970222178055E-01  -5.523940995980834E-01
  -5.581212543354483E-01  -5.638774898550236E-01  -5.696617573438081E-01
  -5.754729543189059E-01  -5.813099231886183E-01  -5.871714498087124E-01
  -5.930562620363629E-01  -5.989630282844747E-01  -6.048903560793140E-01
  -6.108367906245846E-01  -6.168008133753464E-01  -6.227808406253875E-01
  -6.287752221119360E-01  -6.347822396418631E-01  -6.408001057437763E-01
  -6.468269623507223E-01  -6.528608795184704E-01  -6.588998541846741E-01
  -6.649418089745099E-01  -6.709845910586862E-01  -6.770259710700692E-01
  -6.830636420854634E-01  -6.890952186794327E-01  -6.951182360573838E-01
  -7.011301492754369E-01  -7.071283325549891E-01  -7.131100787001485E-01
  -7.190725986265901E-01  -7.250130210106813E-01  -7.309283920680198E-01
  -7.368156754708577E-01  -7.426717524141209E-01  -7.484934218400242E-01
  -7.542774008315066E-01  -7.600203251848979E-01  -7.657187501724401E-01
  -7.713691515053713E-01  -7.769679265084007E-01  -7.825113955164347E-01
  -7.879958035043657E-01  -7.934173219606917E-01  -7.987720510155220E-01
  -8.040560218333134E-01  -8.092651992803450E-01  -8.143954848764634E-01
  -8.194427200401374E-01  -8.244026896351253E-01  -8.292711258262953E-01
  -8.340437122511647E-01  -8.387160885125867E-01  -8.432838549967632E-01
  -8.477425780192314E-01  -8.520877952998257E-01  -8.563150217656911E-01
  -8.604197556792843E-01  -8.643974850859280E-01  -8.682436945727973E-01
  -8.719538723283012E-01  -8.755235174875777E-01  -8.789481477462466E-01
  -8.822233072207074E-01  -8.853445745290085E-01  -8.883075710617307E-01
  -8.911079694073762E-01  -8.937415018913644E-01  -8.962039691820378E-01
  -8.984912489108983E-01  -9.005993042477659E-01  -9.025241923645995E-01
  -9.042620727143503E-01  -9.058092150435005E-01  -9.071620070487899E-01
  -9.083169615801829E-01  -9.092707232833032E-01  -9.100200745654747E-01
  -9.105619407601577E-01  -9.108933943550331E-01  -9.110116581393264E-01
  -9.109141071162535E-01  -9.105982690168150E-01  -9.100618232416618E-01
  -9.093025980485416E-01  -9.083185657940437E-01  -9.071078360301633E-01
  -9.056686462487882E-01  -9.039993500607626E-01  -9.020984025909733E-01
  -8.999643428671413E-01  -8.975957729780043E-01  -8.949913337766466E-01
  -8.921496769071904E-01  -8.890694329383131E-01  -8.857491753954443E-01
  -8.821873804954855E-01  -8.783823824039522E-01  -8.743323238549449E-01
  -8.700351019999871E-01  -8.654883093828400E-01  -8.606891699746455E-01
  -8.556344702476010E-01  -8.503204853164117E-01  -8.447429002356194E-01
  -8.388967266080224E-01  -8.327762147353841E-01  -8.263770430874732E-01
  -8.197034830280043E-01  -8.127622260133414E-01  -8.055601926919090E-01
  -7.981045235201208E-01  -7.904025690927579E-01  -7.824618802062174E-01
  -7.742901976731000E-01  -7.658954419065830E-01  -7.572857022929380E-01
  -7.484692263704084E-01  -7.394544088324442E-01  -7.302497803730371E-01
  -7.208639963915876E-01  -7.113058255743758E-01  -7.015841383693138E-01
  -6.917078953702381E-01  -6.816861356265455E-01  -6.715279648935463E-01
  -6.612425438383821E-01  -6.508390762174965E-01  -6.403267970344011E-01
  -6.297149606990792E-01  -6.190128291973975E-01  -6.082296602848686E-01
  -5.973746957177389E-01  -5.864571495342092E-01  -5.754861963986311E-01
  -5.644709600217271E-01  -5.534205016700970E-01  -5.423438087786554E-01
  -5.312497836801917E-01  -5.201472324669169E-01  -5.090448539996527E-01
  -4.979512290812543E-01  -4.868748098118765E-01  -4.758239091448278E-01
  -4.648066906629293E-01  -4.538311585965147E-01  -4.429051481054059E-01
  -4.320363158483663E-01  -4.212321308645869E-01  -4.104998657926912E-01
  -3.998465884534734E-01  -3.892791538230864E-01  -3.788041964236095E-01
  -3.684281231578278E-01  -3.581571066145939E-01  -3.479970788703112E-01
  -3.379537258108484E-01  -3.280324819965625E-01  -3.182385260910880E-01
  -3.085767768721419E-01  -2.990518898398546E-01  -2.896682544350619E-01
  -2.804299918766807E-01  -2.713409536237483E-01  -2.624047204640289E-01
  -2.536246022273240E-01  -2.450036381178416E-01  -2.365445976562431E-01
  -2.282499822183696E-01  -2.201220271541900E-01  -2.121627044672941E-01
  -2.043737260322828E-01  -1.967565473247879E-01  -1.893123716365055E-01
  -1.820421547456822E-01  -1.749466100120028E-01  -1.680262138635380E-01
  -1.612812116425860E-01  -1.547116237768944E-01  -1.483172522426087E-01
  -1.420976872855287E-01  -1.360523143678276E-01  -1.301803213082394E-01
  -1.244807055848195E-01  -1.189522817707165E-01  -1.135936890749183E-01
  -1.084033989616227E-01  -1.033797228237048E-01  -9.852081968766384E-02
  -9.382470392941934E-02  -8.928925298233201E-02  -8.491221502084353E-02
  -8.069121660510870E-02  -7.662377027391454E-02  -7.270728207501201E-02
  -6.893905902369550E-02  -6.531631648203300E-02  -6.183618545254664E-02
  -5.849571978135323E-02  -5.529190326677744E-02  -5.222165667023700E-02
  -4.928184462676027E-02  -4.646928245283139E-02  -4.378074284937084E-02
  -4.121296249755964E-02  -3.876264854491968E-02  -3.642648497859231E-02
  -3.420113888213955E-02  -3.208326657145708E-02  -3.006951960457003E-02
  -2.815655065921814E-02  -2.634101927126198E-02  -2.461959742609469E-02
  -2.298897499445755E-02  -2.144586500336692E-02  -1.998700873229108E-02
  -1.860918062429445E-02  -1.730919300161129E-02  -1.608390057503502E-02
  -1.493020473662163E-02  -1.384505762550745E-02  -1.282546595713100E-02
  -1.186849460681780E-02  -1.097126993952369E-02  -1.013098287852149E-02
  -9.344891706938800E-03  -8.610324597290395E-03  -7.924681865475819E-03
  -7.285437947107207E-03  -6.690143095471678E-03  -6.136424801893524E-03
  -5.621988940722030E-03  -5.144620642610324E-03  -4.702184901149806E-03
  -4.292626919266445E-03  -3.913972203053758E-03  -3.564326411899689E-03
  -3.241874974849664E-03  -2.944882484126782E-03  -2.671691877595701E-03
  -2.420723422704317E-03  -2.190473515064004E-03  -1.979513305333670E-03
  -1.786487168455824E-03  -1.610111029556027E-03  -1.449170560963898E-03
  -1.302519264848546E-03  -1.169076455889455E-03  -1.047825158231516E-03
  -9.378099307072160E-04  -8.381346339572242E-04  -7.479601526508722E-04
  -6.665020855082982E-04  -5.930284152648195E-04  -5.268571701037635E-04
  -4.673540874249547E-04  -4.139302901206001E-04  -3.660399848065224E-04
  -3.231781907123918E-04  -2.848785071772822E-04  -2.507109269336617E-04
  -2.202797016004841E-04  -1.932212650506752E-04  -1.692022195754501E-04
  -1.479173890438477E-04  -1.290879425526797E-04  -1.124595913880466E-04
  -9.780086147456941E-05  -8.490144287689197E-05  -7.357061734308896E-05
  -6.363576434255497E-05  -5.494094555342980E-05  -4.734556729780139E-05
  -4.072312000714669E-05  -3.495999342669045E-05  -2.995436593332909E-05
  -2.561516604999112E-05  -2.186110398602236E-05  -1.861977081813993E-05
  -1.582680274872137E-05  -1.342510773531252E-05  -1.136415167545164E-05
  -9.599301252228540E-06  -8.091220495801816E-06  -6.805318096179803E-06
  -5.711242477232216E-06  -4.782421976103355E-06  -3.995644439073802E-06
  -3.330692710017305E-06  -2.769949373212755E-06  -2.298204129715016E-06
  -1.902301935528474E-06  -1.570841678154288E-06  -1.293992946251730E-06
  -1.063312240814931E-06  -8.715649107845092E-07  -7.125672173546163E-07
  -5.810466102187477E-07  -4.725184289139077E-07  -3.831773672569851E-07
  -3.098021590153201E-07  -2.496720569534197E-07  -2.004937862094153E-07
  -1.603377417616455E-07  -1.275823587886201E-07  -1.008652337014856E-07
  -7.904206040803080E-08  -6.114311817194468E-08  -4.642866833744061E-08
  -3.382289793083209E-08   0.000000000000000E+00   0.000000000000000E+00
   0.000000000000000E+00   0.000000000000000E+00   0.000000000000000E+00
   0.000000000000000E+00   0.000000000000000E+00   0.000000000000000E+00
   0.000000000000000E+00   0.000000000000000E+00   0.000000000000000E+00
   0.000000000000000E+00   0.000000000000000E+00   0.000000000000000E+00
   0.000000000000000E+00   0.000000000000000E+00   0.000000000000000E+00
   0.000000000000000E+00   0.000000000000000E+00   0.000000000000000E+00
   0.000000000000000E+00   0.000000000000000E+00   0.000000000000000E+00
   0.000000000000000E+00   0.000000000000000E+00   0.000000000000000E+00
   0.000000000000000E+00   0.000000000000000E+00   0.000000000000000E+00
   0.000000000000000E+00   0.000000000000000E+00   0.000000000000000E+00
   0.000000000000000E+00   0.000000000000000E+00   0.000000000000000E+00
   0.000000000000000E+00   0.000000000000000E+00   0.000000000000000E+00
   0.000000000000000E+00   0.000000000000000E+00   0.000000000000000E+00
   0.000000000000000E+00   0.000000000000000E+00   0.000000000000000E+00
   0.000000000000000E+00   0.000000000000000E+00   0.000000000000000E+00
   0.000000000000000E+00   0.000000000000000E+00   0.000000000000000E+00
   0.000000000000000E+00   0.000000000000000E+00   0.000000000000000E+00
   0.000000000000000E+00   0.000000000000000E+00   0.000000000000000E+00
   0.000000000000000E+00   0.000000000000000E+00   0.000000000000000E+00
   0.000000000000000E+00   0.000000000000000E+00   0.000000000000000E+00
   0.000000000000000E+00   0.000000000000000E+00   0.000000000000000E+00
   0.000000000000000E+00   0.000000000000000E+00   0.000000000000000E+00
   0.000000000000000E+00   0.000000000000000E+00   0.000000000000000E+00
   0.000000000000000E+00   0.000000000000000E+00   0.000000000000000E+00
   0.000000000000000E+00   0.000000000000000E+00   0.000000000000000E+00
   0.000000000000000E+00   0.000000000000000E+00   0.000000000000000E+00
   0.000000000000000E+00   0.000000000000000E+00   0.000000000000000E+00
   0.000000000000000E+00   0.000000000000000E+00   0.000000000000000E+00
   0.000000000000000E+00   0.000000000000000E+00   0.000000000000000E+00
   0.000000000000000E+00   0.000000000000000E+00   0.000000000000000E+00
   0.000000000000000E+00   0.000000000000000E+00   0.000000000000000E+00
   0.000000000000000E+00   0.000000000000000E+00   0.000000000000000E+00
   0.000000000000000E+00   0.000000000000000E+00   0.000000000000000E+00
   0.000000000000000E+00   0.000000000000000E+00   0.000000000000000E+00
   0.000000000000000E+00   0.000000000000000E+00   0.000000000000000E+00
   0.000000000000000E+00   0.000000000000000E+00   0.000000000000000E+00
   0.000000000000000E+00   0.000000000000000E+00   0.000000000000000E+00
   0.000000000000000E+00   0.000000000000000E+00   0.000000000000000E+00
   0.000000000000000E+00   0.000000000000000E+00   0.000000000000000E+00
   0.000000000000000E+00   0.000000000000000E+00   0.000000000000000E+00
   0.000000000000000E+00   0.000000000000000E+00   0.000000000000000E+00
   0.000000000000000E+00   0.000000000000000E+00   0.000000000000000E+00
   0.000000000000000E+00   0.000000000000000E+00   0.000000000000000E+00
   0.000000000000000E+00   0.000000000000000E+00   0.000000000000000E+00
   0.000000000000000E+00   0.000000000000000E+00   0.000000000000000E+00
   0.000000000000000E+00   0.000000000000000E+00   0.000000000000000E+00
   0.000000000000000E+00   0.000000000000000E+00   0.000000000000000E+00
   0.000000000000000E+00   0.000000000000000E+00
    </PP_PSWFC.1>
    <PP_PSWFC.2 size="1085" index="2" label="2S" l="0">
  -2.217964319171247E-04  -2.245862874942732E-04  -2.274112351310273E-04
  -2.302717162310213E-04  -2.331681777500593E-04  -2.361010722659510E-04
  -2.390708580492288E-04  -2.420779991347532E-04  -2.451229653942179E-04
  -2.482062326095698E-04  -2.513282825473486E-04  -2.544896030339643E-04
  -2.576906880319211E-04  -2.609320377169985E-04  -2.642141585564065E-04
  -2.675375633879195E-04  -2.709027715000090E-04  -2.743103087129828E-04
  -2.777607074611452E-04  -2.812545068759909E-04  -2.847922528704437E-04
  -2.883744982241573E-04  -2.920018026698869E-04  -2.956747329809483E-04
  -2.993938630597778E-04  -3.031597740276032E-04  -3.069730543152460E-04
  -3.108342997550637E-04  -3.147441136740496E-04  -3.187031069881033E-04
  -3.227118982974858E-04  -3.267711139834779E-04  -3.308813883062516E-04
  -3.350433635039741E-04  -3.392576898931590E-04  -3.435250259702772E-04
  -3.478460385146484E-04  -3.522214026926255E-04  -3.566518021630901E-04
  -3.611379291842751E-04  -3.656804847219289E-04  -3.702801785588431E-04
  -3.749377294057562E-04  -3.796538650136518E-04  -3.844293222874715E-04
  -3.892648474012552E-04  -3.941611959147312E-04  -3.991191328913734E-04
  -4.041394330179421E-04  -4.092228807255302E-04  -4.143702703121284E-04
  -4.195824060667365E-04  -4.248601023950330E-04  -4.302041839466251E-04
  -4.356154857439027E-04  -4.410948533125072E-04  -4.466431428134481E-04
  -4.522612211768751E-04  -4.579499662375383E-04  -4.637102668719486E-04
  -4.695430231372639E-04  -4.754491464119230E-04  -4.814295595380489E-04
  -4.874851969656408E-04  -4.936170048985838E-04  -4.998259414424904E-04
  -5.061129767544045E-04  -5.124790931943883E-04  -5.189252854790145E-04
  -5.254525608367911E-04  -5.320619391655383E-04  -5.387544531917468E-04
  -5.455311486319419E-04  -5.523930843560720E-04  -5.593413325529602E-04
  -5.663769788978281E-04  -5.735011227219337E-04  -5.807148771843384E-04
  -5.880193694458372E-04  -5.954157408450773E-04  -6.029051470768865E-04
  -6.104887583728507E-04  -6.181677596841605E-04  -6.259433508667553E-04
  -6.338167468688012E-04  -6.417891779205205E-04  -6.498618897264141E-04
  -6.580361436598993E-04  -6.663132169603954E-04  -6.746944029328905E-04
  -6.831810111500149E-04  -6.917743676566578E-04  -7.004758151771582E-04
  -7.092867133251015E-04  -7.182084388157550E-04  -7.272423856811722E-04
  -7.363899654880078E-04  -7.456526075580675E-04  -7.550317591916348E-04
  -7.645288858936075E-04  -7.741454716024723E-04  -7.838830189221668E-04
  -7.937430493568528E-04  -8.037271035486448E-04  -8.138367415183286E-04
  -8.240735429091037E-04  -8.344391072333962E-04  -8.449350541227731E-04
  -8.555630235810003E-04  -8.663246762402850E-04  -8.772216936207371E-04
  -8.882557783930965E-04  -8.994286546447652E-04  -9.107420681491835E-04
  -9.221977866385966E-04  -9.337976000802472E-04  -9.455433209560457E-04
  -9.574367845457577E-04  -9.694798492137499E-04  -9.816743966993475E-04
  -9.940223324108358E-04  -1.006525585723166E-03  -1.019186110279405E-03
  -1.032005884295965E-03  -1.044986910871697E-03  -1.058131218300838E-03
  -1.071440860389922E-03  -1.084917916778661E-03  -1.098564493264871E-03
  -1.112382722133475E-03  -1.126374762489650E-03  -1.140542800596161E-03
  -1.154889050214940E-03  -1.169415752952954E-03  -1.184125178612437E-03
  -1.199019625545503E-03  -1.214101421013244E-03  -1.229372921549325E-03
  -1.244836513328162E-03  -1.260494612537726E-03  -1.276349665757032E-03
  -1.292404150338384E-03  -1.308660574794416E-03  -1.325121479190008E-03
  -1.341789435539132E-03  -1.358667048206675E-03  -1.375756954315329E-03
  -1.393061824157596E-03  -1.410584361612962E-03  -1.428327304570332E-03
  -1.446293425355769E-03  -1.464485531165606E-03  -1.482906464505019E-03
  -1.501559103632104E-03  -1.520446363007536E-03  -1.539571193749890E-03
  -1.558936584096683E-03  -1.578545559871210E-03  -1.598401184955256E-03
  -1.618506561767750E-03  -1.638864831749432E-03  -1.659479175853617E-03
  -1.680352815043137E-03  -1.701489010793513E-03  -1.722891065602480E-03
  -1.744562323505882E-03  -1.766506170600096E-03  -1.788726035570982E-03
  -1.811225390229512E-03  -1.834007750054128E-03  -1.857076674739901E-03
  -1.880435768754621E-03  -1.904088681901853E-03  -1.928039109891086E-03
  -1.952290794915054E-03  -1.976847526234284E-03  -2.001713140769042E-03
  -2.026891523698670E-03  -2.052386609068492E-03  -2.078202380404334E-03
  -2.104342871334763E-03  -2.130812166221171E-03  -2.157614400795744E-03
  -2.184753762807484E-03  -2.212234492676332E-03  -2.240060884155507E-03
  -2.268237285002193E-03  -2.296768097656636E-03  -2.325657779929775E-03
  -2.354910845699538E-03  -2.384531865615846E-03  -2.414525467814536E-03
  -2.444896338640192E-03  -2.475649223378111E-03  -2.506788926995449E-03
  -2.538320314891652E-03  -2.570248313658379E-03  -2.602577911848912E-03
  -2.635314160757266E-03  -2.668462175207099E-03  -2.702027134350480E-03
  -2.736014282476773E-03  -2.770428929831611E-03  -2.805276453446198E-03
  -2.840562297977033E-03  -2.876291976556141E-03  -2.912471071652048E-03
  -2.949105235941516E-03  -2.986200193192253E-03  -3.023761739156725E-03
  -3.061795742477142E-03  -3.100308145601888E-03  -3.139304965713391E-03
  -3.178792295667678E-03  -3.218776304945748E-03  -3.259263240616829E-03
  -3.300259428313817E-03  -3.341771273220889E-03  -3.383805261073559E-03
  -3.426367959171288E-03  -3.469466017402768E-03  -3.513106169284153E-03
  -3.557295233010244E-03  -3.602040112518916E-03  -3.647347798568922E-03
  -3.693225369831151E-03  -3.739679993993689E-03  -3.786718928880655E-03
  -3.834349523585130E-03  -3.882579219616307E-03  -3.931415552060982E-03
  -3.980866150759711E-03  -4.030938741497628E-03  -4.081641147210264E-03
  -4.132981289204499E-03  -4.184967188394759E-03  -4.237606966554831E-03
  -4.290908847585272E-03  -4.344881158796787E-03  -4.399532332209679E-03
  -4.454870905869562E-03  -4.510905525179650E-03  -4.567644944249665E-03
  -4.625098027261717E-03  -4.683273749853282E-03  -4.742181200517514E-03
  -4.801829582021135E-03  -4.862228212840047E-03  -4.923386528612989E-03
  -4.985314083613377E-03  -5.048020552239595E-03  -5.111515730523954E-03
  -5.175809537660557E-03  -5.240912017552297E-03  -5.306833340377246E-03
  -5.373583804174631E-03  -5.441173836450708E-03  -5.509613995804697E-03
  -5.578914973575110E-03  -5.649087595506677E-03  -5.720142823438110E-03
  -5.792091757011034E-03  -5.864945635400254E-03  -5.938715839065693E-03
  -6.013413891526259E-03  -6.089051461155863E-03  -6.165640363001931E-03
  -6.243192560626627E-03  -6.321720167971112E-03  -6.401235451243115E-03
  -6.481750830828054E-03  -6.563278883224099E-03  -6.645832343001348E-03
  -6.729424104785513E-03  -6.814067225266398E-03  -6.899774925231400E-03
  -6.986560591624455E-03  -7.074437779630649E-03  -7.163420214786857E-03
  -7.253521795118735E-03  -7.344756593304329E-03  -7.437138858864715E-03
  -7.530683020381917E-03  -7.625403687744509E-03  -7.721315654421187E-03
  -7.818433899762658E-03  -7.916773591332259E-03  -8.016350087265534E-03
  -8.117178938659245E-03  -8.219275891990110E-03  -8.322656891563623E-03
  -8.427338081993386E-03  -8.533335810711211E-03  -8.640666630508515E-03
  -8.749347302109266E-03  -8.859394796774871E-03  -8.970826298941526E-03
  -9.083659208890196E-03  -9.197911145449858E-03  -9.313599948734232E-03
  -9.430743682912463E-03  -9.549360639014215E-03  -9.669469337769498E-03
  -9.791088532483722E-03  -9.914237211948363E-03  -1.003893460338764E-02
  -1.016520017544176E-02  -1.029305364118698E-02  -1.042251496119306E-02
  -1.055360434661857E-02  -1.068634226234435E-02  -1.082074943014580E-02
  -1.095684683190420E-02  -1.109465571285778E-02  -1.123419758489285E-02
  -1.137549422987544E-02  -1.151856770302413E-02  -1.166344033632431E-02
  -1.181013474198450E-02  -1.195867381593519E-02  -1.210908074137072E-02
  -1.226137899233466E-02  -1.241559233734922E-02  -1.257174484308920E-02
  -1.272986087810101E-02  -1.288996511656735E-02  -1.305208254211780E-02
  -1.321623845168628E-02  -1.338245845941557E-02  -1.355076850060956E-02
  -1.372119483573385E-02  -1.389376405446504E-02  -1.406850307978954E-02
  -1.424543917215222E-02  -1.442459993365565E-02  -1.460601331231039E-02
  -1.478970760633687E-02  -1.497571146851962E-02  -1.516405391061425E-02
  -1.535476430780788E-02  -1.554787240323358E-02  -1.574340831253938E-02
  -1.594140252851246E-02  -1.614188592575935E-02  -1.634488976544228E-02
  -1.655044570007285E-02  -1.675858577836316E-02  -1.696934245013533E-02
  -1.718274857129001E-02  -1.739883740883422E-02  -1.761764264596976E-02
  -1.783919838724202E-02  -1.806353916375058E-02  -1.829069993842184E-02
  -1.852071611134441E-02  -1.875362352516798E-02  -1.898945847056620E-02
  -1.922825769176440E-02  -1.947005839213266E-02  -1.971489823984499E-02
  -1.996281537360534E-02  -2.021384840844076E-02  -2.046803644156299E-02
  -2.072541905829857E-02  -2.098603633808849E-02  -2.124992886055798E-02
  -2.151713771165699E-02  -2.178770448987223E-02  -2.206167131251134E-02
  -2.233908082205985E-02  -2.261997619261179E-02  -2.290440113637424E-02
  -2.319239991024695E-02  -2.348401732247746E-02  -2.377929873939235E-02
  -2.407829009220554E-02  -2.438103788390392E-02  -2.468758919621143E-02
  -2.499799169663189E-02  -2.531229364557141E-02  -2.563054390354113E-02
  -2.595279193844049E-02  -2.627908783292243E-02  -2.660948229184037E-02
  -2.694402664977820E-02  -2.728277287866351E-02  -2.762577359546500E-02
  -2.797308206997428E-02  -2.832475223267313E-02  -2.868083868268647E-02
  -2.904139669582165E-02  -2.940648223269492E-02  -2.977615194694509E-02
  -3.015046319353552E-02  -3.052947403714457E-02  -3.091324326064506E-02
  -3.130183037367359E-02  -3.169529562128950E-02  -3.209369999272463E-02
  -3.249710523022403E-02  -3.290557383797787E-02  -3.331916909114525E-02
  -3.373795504497006E-02  -3.416199654398929E-02  -3.459135923133423E-02
  -3.502610955812461E-02  -3.546631479295627E-02  -3.591204303148209E-02
  -3.636336320608696E-02  -3.682034509565656E-02  -3.728305933544011E-02
  -3.775157742700742E-02  -3.822597174829990E-02  -3.870631556377585E-02
  -3.919268303464991E-02  -3.968514922922641E-02  -4.018379013332683E-02
  -4.068868266081069E-02  -4.119990466419009E-02  -4.171753494533727E-02
  -4.224165326628505E-02  -4.277234036011969E-02  -4.330967794196531E-02
  -4.385374872005987E-02  -4.440463640692178E-02  -4.496242573060635E-02
  -4.552720244605162E-02  -4.609905334651210E-02  -4.667806627508021E-02
  -4.726433013629384E-02  -4.785793490782894E-02  -4.845897165227637E-02
  -4.906753252900073E-02  -4.968371080608076E-02  -5.030760087232908E-02
  -5.093929824938961E-02  -5.157889960391152E-02  -5.222650275979653E-02
  -5.288220671051886E-02  -5.354611163151470E-02  -5.421831889263921E-02
  -5.489893107068849E-02  -5.558805196198373E-02  -5.628578659501490E-02
  -5.699224124314090E-02  -5.770752343734284E-02  -5.843174197902766E-02
  -5.916500695287735E-02  -5.990742973974134E-02  -6.065912302956737E-02
  -6.142020083436643E-02  -6.219077850120828E-02  -6.297097272524152E-02
  -6.376090156273458E-02  -6.456068444413179E-02  -6.537044218711918E-02
  -6.619029700969438E-02  -6.702037254323433E-02  -6.786079384555502E-02
  -6.871168741395611E-02  -6.957318119824366E-02  -7.044540461372391E-02
  -7.132848855415973E-02  -7.222256540468258E-02  -7.312776905465104E-02
  -7.404423491044719E-02  -7.497209990820183E-02  -7.591150252643825E-02
  -7.686258279862532E-02  -7.782548232562857E-02  -7.880034428804872E-02
  -7.978731345843590E-02  -8.078653621336694E-02  -8.179816054537413E-02
  -8.282233607471141E-02  -8.385921406094458E-02  -8.490894741435115E-02
  -8.597169070711413E-02  -8.704760018429526E-02  -8.813683377457018E-02
  -8.923955110070909E-02  -9.035591348978489E-02  -9.148608398308991E-02
  -9.263022734574251E-02  -9.378851007596256E-02  -9.496110041399522E-02
  -9.614816835066138E-02  -9.734988563551025E-02  -9.856642578455274E-02
  -9.979796408754853E-02  -1.010446776148222E-01  -1.023067452235815E-01
  -1.035843475637084E-01  -1.048776670829957E-01  -1.061868880317973E-01
  -1.075121964670605E-01  -1.088537802557090E-01  -1.102118290773401E-01
  -1.115865344262017E-01  -1.129780896124126E-01  -1.143866897623857E-01
  -1.158125318184165E-01  -1.172558145373921E-01  -1.187167384885804E-01
  -1.201955060504526E-01  -1.216923214064926E-01  -1.232073905399447E-01
  -1.247409212274490E-01  -1.262931230315120E-01  -1.278642072917574E-01
  -1.294543871149012E-01  -1.310638773633915E-01  -1.326928946426512E-01
  -1.343416572868624E-01  -1.360103853432232E-01  -1.376993005546114E-01
  -1.394086263405834E-01  -1.411385877766312E-01  -1.428894115716267E-01
  -1.446613260433689E-01  -1.464545610921537E-01  -1.482693481722812E-01
  -1.501059202614096E-01  -1.519645118276663E-01  -1.538453587944191E-01
  -1.557486985026082E-01  -1.576747696705386E-01  -1.596238123510229E-01
  -1.615960678857682E-01  -1.635917788568897E-01  -1.656111890354338E-01
  -1.676545433267885E-01  -1.697220877128520E-01  -1.718140691908301E-01
  -1.739307357085239E-01  -1.760723360959679E-01  -1.782391199932717E-01
  -1.804313377745126E-01  -1.826492404675240E-01  -1.848930796694164E-01
  -1.871631074576626E-01  -1.894595762965741E-01  -1.917827389389872E-01
  -1.941328483229744E-01  -1.965101574633877E-01  -1.989149193380346E-01
  -2.013473867682812E-01  -2.038078122938698E-01  -2.062964480417294E-01
  -2.088135455885552E-01  -2.113593558169180E-01  -2.139341287646645E-01
  -2.165381134673544E-01  -2.191715577934790E-01  -2.218347082721911E-01
  -2.245278099132720E-01  -2.272511060190511E-01  -2.300048379879814E-01
  -2.327892451095726E-01  -2.356045643503653E-01  -2.384510301306254E-01
  -2.413288740914279E-01  -2.442383248517837E-01  -2.471796077554617E-01
  -2.501529446071394E-01  -2.531585533975079E-01  -2.561966480169492E-01
  -2.592674379573836E-01  -2.623711280018859E-01  -2.655079179016459E-01
  -2.686780020398438E-01  -2.718815690819980E-01  -2.751188016123261E-01
  -2.783898757556562E-01  -2.816949607844034E-01  -2.850342187101221E-01
  -2.884078038591265E-01  -2.918158624316579E-01  -2.952585320440743E-01
  -2.987359412535091E-01  -3.022482090644472E-01  -3.057954444166464E-01
  -3.093777456538146E-01  -3.129951999724555E-01  -3.166478828502634E-01
  -3.203358574534489E-01  -3.240591740223598E-01  -3.278178692347445E-01
  -3.316119655460011E-01  -3.354414705057384E-01  -3.393063760499616E-01
  -3.432066577681890E-01  -3.471422741447883E-01  -3.511131657738199E-01
  -3.551192545466538E-01  -3.591604428116251E-01  -3.632366125049828E-01
  -3.673476242523737E-01  -3.714933164401048E-01  -3.756735042554144E-01
  -3.798879786949790E-01  -3.841365055408837E-01  -3.884188243032696E-01
  -3.927346471288881E-01  -3.970836576747749E-01  -4.014655099462707E-01
  -4.058798270986130E-01  -4.103262002013312E-01  -4.148041869646875E-01
  -4.193133104274127E-01  -4.238530576049994E-01  -4.284228780978355E-01
  -4.330221826584685E-01  -4.376503417173276E-01  -4.423066838662409E-01
  -4.469904942991227E-01  -4.517010132092334E-01  -4.564374341424521E-01
  -4.611989023060463E-01  -4.659845128324572E-01  -4.707933089976850E-01
  -4.756242803938995E-01  -4.804763610559680E-01  -4.853484275416634E-01
  -4.902392969653798E-01  -4.951477249852684E-01  -5.000724037437919E-01
  -5.050119597617839E-01  -5.099649517862140E-01  -5.149298685919532E-01
  -5.199051267379662E-01  -5.248890682784750E-01  -5.298799584297802E-01
  -5.348759831935708E-01  -5.398752469377142E-01  -5.448757699356789E-01
  -5.498754858659324E-01  -5.548722392728331E-01  -5.598637829907591E-01
  -5.648477755334129E-01  -5.698217784504850E-01  -5.747832536540985E-01
  -5.797295607177101E-01  -5.846579541504320E-01  -5.895655806500045E-01
  -5.944494763379734E-01  -5.993065639809420E-01  -6.041336502020911E-01
  -6.089274226875460E-01  -6.136844473924999E-01  -6.184011657524329E-01
  -6.230738919051522E-01  -6.276988099298056E-01  -6.322719711094815E-01
  -6.367892912244546E-01  -6.412465478836291E-01  -6.456393779022460E-01
  -6.499632747344080E-01  -6.542135859695662E-01  -6.583855109026210E-01
  -6.624740981879038E-01  -6.664742435878953E-01  -6.703806878281290E-01
  -6.741880145703931E-01  -6.778906485169592E-01  -6.814828536592500E-01
  -6.849587316850279E-01  -6.883122205588655E-01  -6.915370932913871E-01
  -6.946269569134473E-01  -6.975752516721623E-01  -7.003752504664233E-01
  -7.030200585402518E-01  -7.055026134530997E-01  -7.078156853469233E-01
  -7.099518775305957E-01  -7.119036274029604E-01  -7.136632077365250E-01
  -7.152227283445320E-01  -7.165741381548186E-01  -7.177092277145678E-01
  -7.186196321507097E-01  -7.192968346113664E-01  -7.197321702143491E-01
  -7.199168305292929E-01  -7.198418686205611E-01  -7.194982046785714E-01
  -7.188766322676653E-01  -7.179678252190732E-01  -7.167623451979281E-01
  -7.152506499736263E-01  -7.134231024231273E-01  -7.112699802970601E-01
  -7.087814867787001E-01  -7.059477618660626E-01  -7.027588946074858E-01
  -6.992049362211668E-01  -6.952759141291849E-01  -6.909618469365705E-01
  -6.862527603860180E-01  -6.811387043188436E-01  -6.756097706728077E-01
  -6.696561125474868E-01  -6.632679643679255E-01  -6.564356631774723E-01
  -6.491496710908939E-01  -6.414005989391759E-01  -6.331792311378965E-01
  -6.244765518116140E-01  -6.152837722075500E-01  -6.055923594328447E-01
  -5.953940665509188E-01  -5.846809640741102E-01  -5.734454728915892E-01
  -5.616803986739101E-01  -5.493789677982289E-01  -5.365348648413512E-01
  -5.231422716914867E-01  -5.091959083336667E-01  -4.946910753685707E-01
  -4.796236983297454E-01  -4.639903738700321E-01  -4.477884178945281E-01
  -4.310159157242512E-01  -4.136717743823004E-01  -3.957557771021480E-01
  -3.772686401660140E-01  -3.582120721898913E-01  -3.385888359802851E-01
  -3.184028130963764E-01  -2.976590712593820E-01  -2.763639347583385E-01
  -2.545250580080833E-01  -2.321515024199963E-01  -2.092538167491988E-01
  -1.858441210821771E-01  -1.619361946259209E-01  -1.375459785970552E-01
  -1.126927117242486E-01  -8.739742526771117E-02  -6.168251701129795E-02
  -3.557178092386886E-02  -9.090436193004026E-03   1.773484451032357E-02
   4.487590769119252E-02   7.230309278375689E-02   9.998520718240325E-02
   1.278895027513706E-01   1.559816540296042E-01   1.842257383646900E-01
   2.125842182273955E-01   2.410179259765793E-01   2.694860513629810E-01
   2.979461320796055E-01   3.263540476860142E-01   3.546640172537674E-01
   3.828286011004408E-01   4.107987069999921E-01   4.385236012776887E-01
   4.659509252182577E-01   4.930267172362598E-01   5.196954412778243E-01
   5.459000219427540E-01   5.715818868354610E-01   5.966810166720938E-01
   6.211360036895833E-01   6.448841189199614E-01   6.678613889099628E-01
   6.900026824816629E-01   7.112418081445027E-01   7.315116227822868E-01
   7.507441522504587E-01   7.688707245289196E-01   7.858221160835582E-01
   8.015287120951644E-01   8.159206812171007E-01   8.289281655225014E-01
   8.404814862972709E-01   8.505113663260668E-01   8.589491693039530E-01
   8.657271569855756E-01   8.707787646554263E-01   8.740388954658519E-01
   8.754442341425305E-01   8.749335804987123E-01   8.724482031279717E-01
   8.679322135588025E-01   8.613329610512799E-01   8.526014480943035E-01
   8.416927665196705E-01   8.285665539844435E-01   8.131874703838343E-01
   7.955256935412438E-01   7.755574332784183E-01   7.532654626952815E-01
   7.286396651844853E-01   7.016775953689307E-01   6.723850517806066E-01
   6.407766586956162E-01   6.068764541031508E-01   5.707184803158876E-01
   5.323473732268122E-01   4.918189456844390E-01   4.492007598970722E-01
   4.045726831902139E-01   3.580274208333875E-01   3.096710190282667E-01
   2.596233305145271E-01   2.080184346106266E-01   1.550050028713540E-01
   1.007466009210304E-01   4.542191642161524E-02  -1.077509743021668E-02
  -6.763517400113069E-02  -1.249337924954314E-01  -1.824313563674921E-01
  -2.398735031223238E-01  -2.969915579322424E-01  -3.535031435467781E-01
  -4.091129588738633E-01  -4.635137383425715E-01  -5.163874037002950E-01
  -5.674064192287599E-01  -6.162353604620391E-01  -6.625327053340430E-01
  -7.059528552514900E-01  -7.461483918603172E-01  -7.827725732290864E-01
  -8.154820707937287E-01  -8.439399456773210E-01  -8.678188599021802E-01
  -8.868045145379824E-01  -9.005993029710432E-01  -9.089261632328257E-01
  -9.115326086919452E-01  -9.081949114013744E-01  -8.987224070165848E-01
  -8.829618844849547E-01  -8.608020176859381E-01  -8.321777899207352E-01
  -7.970748556681796E-01  -7.555337774137272E-01  -7.076540687106988E-01
  -6.535979680554802E-01  -5.935938617790685E-01  -5.279392681253514E-01
  -4.570032891733491E-01  -3.812284324611755E-01  -3.011317003022150E-01
  -2.173048420909765E-01  -1.304136636418887E-01  -4.119628807440297E-02
   4.953973474437381E-02   1.409215683451499E-01   2.320165700210545E-01
   3.218391915283582E-01   4.093593664056073E-01   4.935124327342113E-01
   5.732106188053110E-01   6.473560936703142E-01   7.148555547660308E-01
   7.746362906292913E-01   8.256636181592634E-01   8.669595510792848E-01
   8.976225094701743E-01   9.168478299398731E-01   9.239487828006607E-01
   9.183777474043968E-01   8.997471406384668E-01   8.678496378706205E-01
   8.226771719847098E-01   7.644381464894794E-01   6.935722552098618E-01
   6.107622662575248E-01   5.169421045455368E-01   4.133005579902909E-01
   3.012799408122506E-01   1.825690761579286E-01   5.909001274210823E-02
  -6.702203067989759E-02  -1.934458907931582E-01  -3.177091130591145E-01
  -4.372301179610579E-01  -5.493677588186241E-01  -6.514779104602472E-01
  -7.409764576738164E-01  -8.154077546270943E-01  -8.725173069032267E-01
  -9.103270940975109E-01  -9.272116130294495E-01  -9.219723919012741E-01
  -8.939084189615907E-01  -8.428796625094406E-01  -7.693606515705749E-01
  -6.744809591176721E-01  -5.600494041474773E-01  -4.285588873238213E-01
  -2.831690184248316E-01  -1.276641014722145E-01   3.361536959498653E-02
   1.958687757475181E-01   3.539591017129410E-01   5.025632804323082E-01
   6.363467867914743E-01   7.501586619432529E-01   8.392416089978374E-01
   8.994502340011957E-01   9.274689907095899E-01   9.210200165969367E-01
   8.790499269027754E-01   8.018838793635937E-01   6.913349553500524E-01
   5.507572424959902E-01   3.850320582473546E-01   2.004786114248606E-01
   4.683116442009173E-03  -1.937560352181311E-01  -3.855650231350422E-01
  -5.612061071920312E-01  -7.113510758654376E-01  -8.274025034280681E-01
  -9.020392481465209E-01  -9.297209309397457E-01  -9.071431844805102E-01
  -8.336716886572555E-01  -7.116037364065154E-01  -5.462955634637773E-01
  -3.461001814632340E-01  -1.220988087599565E-01   1.123850637003703E-01
   3.424846940057280E-01   5.526807457538371E-01   7.278433793193303E-01
   8.543665788919803E-01   9.213179212576257E-01   9.215127277134688E-01
   8.524126762065745E-01   7.167475245068576E-01   5.227663862306330E-01
   2.840432671277107E-01   1.879076379726351E-02  -2.513246668473306E-01
  -5.028245519012366E-01  -7.124230676240483E-01  -8.592469235031236E-01
  -9.270751749845122E-01  -9.063683615870727E-01  -7.958403464342747E-01
  -6.033357307446034E-01  -3.458152522302486E-01  -4.832288292064275E-02
   2.580906401039936E-01   5.393889969784054E-01   7.622815672553518E-01
   8.982987826423507E-01   9.277378032198003E-01   8.429414605856478E-01
   6.503737189448151E-01   3.710330637255766E-01   3.890679947248320E-02
  -3.025922203568513E-01  -6.059701052782587E-01  -8.262256503543098E-01
  -9.278124967262377E-01  -8.909424034397956E-01  -7.161124099113150E-01
  -4.258486948807924E-01  -6.297047945074419E-02   3.148240909592334E-01
   6.436138336081790E-01   8.640385258805990E-01   9.325017822471178E-01
   8.307094293619049E-01   5.714351705650398E-01   1.988142104730099E-01
  -2.176825482365000E-01  -5.952351497021786E-01  -8.538974889891520E-01
  -9.340873438439825E-01  -8.115749918162403E-01  -5.061432191829687E-01
  -8.095646847746231E-02   3.685450475555914E-01   7.349749309865997E-01
   9.247092816776251E-01   8.830500930894578E-01   6.120497167940911E-01
   1.750676838206419E-01  -3.151273569612710E-01  -7.236714149601103E-01
  -9.305377977501053E-01  -8.673699912778448E-01  -5.428563572731752E-01
  -4.698836181899374E-02   4.702230586627785E-01   8.422205558673569E-01
   9.400361242834036E-01   7.198379560947725E-01   2.460267911474783E-01
  -3.220739392297459E-01  -7.802489850967873E-01  -9.523549646578630E-01
  -7.609879409132622E-01  -2.671836398023081E-01   3.416700885971106E-01
   8.181812468414894E-01   9.548962550728024E-01   6.786262973322859E-01
   9.566386955425869E-02  -5.402883806679484E-01  -9.336459204360976E-01
  -8.854580390289272E-01  -4.007741072547629E-01   2.945925637673623E-01
   8.501978997007479E-01   9.653850634775716E-01   5.579686967022189E-01
  -1.686209709118230E-01  -8.138892543279742E-01  -9.959745258207159E-01
  -5.833802061770220E-01   1.986439224968510E-01   8.743038142728916E-01
   1.000175917011410E+00   4.636765560712307E-01  -4.050117973367002E-01
  -1.016366323631659E+00  -9.164101632017416E-01  -1.362759544172875E-01
   7.760292839324302E-01   1.120407847322698E+00   5.837453368985491E-01
  -4.569163939350120E-01  -1.163701787842172E+00  -8.995620882373987E-01
   1.815878825246363E-01   1.165021541488931E+00   1.119048362337520E+00
  -1.468827485783071E-02  -1.227683670706512E+00  -1.291516587260982E+00
   1.797514821167908E-03   1.434754740190800E+00   1.434668604197227E+00
  -2.186055690712258E-01  -1.853013303719100E+00  -1.484035394097622E+00
   8.177390962522109E-01   2.502874398248618E+00   1.202832825894130E+00
  -2.049880368676819E+00  -3.222319979330189E+00  -2.756971282879044E-02
   4.158938261038565E+00   3.297211644002243E+00  -3.075473343895221E+00
  -6.846122585283456E+00  -7.319930706507585E-01   9.270988913166203E+00
   7.648263001415597E+00  -8.495484296790025E+00  -1.746534044368255E+01
   1.427597396355366E+00   2.865614261957743E+01   1.644532846986260E+01
  -3.674255242293346E+01  -5.118824143430684E+01   3.094130428583293E+01
   1.092514340843539E+02   1.227682976839001E+01  -1.921513822220313E+02
  -1.405439379675227E+02   2.796157352240544E+02   4.426820072613045E+02
  -2.832804355636462E+02  -1.064572842838887E+03  -6.941074790154973E+01
   2.185132737453373E+03   1.502197808183559E+03  -3.806912659657466E+03
  -5.735271581012360E+03   4.896649616184329E+03   1.636238512900522E+04
  -5.604578106557983E+02  -3.932099301000518E+04
    </PP_PSWFC.2>
    <PP_PSWFC.3 size="1085" index="3" label="2P" l="1">
   3.925949071661936E-08   4.025334943556694E-08   4.127236780672961E-08
   4.231718274968215E-08   4.338844730769271E-08   4.448683105589532E-08
   4.561302051979631E-08   4.676771960437478E-08   4.795165003404572E-08
   4.916555180376152E-08   5.041018364153204E-08   5.168632348265423E-08
   5.299476895594689E-08   5.433633788229405E-08   5.571186878580986E-08
   5.712222141794233E-08   5.856827729484622E-08   6.005094024835875E-08
   6.157113699092335E-08   6.312981769481523E-08   6.472795658602892E-08
   6.636655255320103E-08   6.804662977194773E-08   6.976923834500720E-08
   7.153545495858787E-08   7.334638355533115E-08   7.520315602431141E-08
   7.710693290850273E-08   7.905890413015523E-08   8.106028973453505E-08
   8.311234065249087E-08   8.521633948232623E-08   8.737360129146415E-08
   8.958547443840619E-08   9.185334141550012E-08   9.417861971304079E-08
   9.656276270524724E-08   9.900726055866794E-08   1.015136411635819E-07
   1.040834710889796E-07   1.067183565617171E-07   1.094199444704599E-07
   1.121899233950401E-07   1.150300246618725E-07   1.179420234260893E-07
   1.209277397810666E-07   1.239890398960420E-07   1.271278371825284E-07
   1.303460934902573E-07   1.336458203333971E-07   1.370290801478118E-07
   1.404979875801498E-07   1.440547108095639E-07   1.477014729028914E-07
   1.514405532041424E-07   1.552742887591593E-07   1.592050757763453E-07
   1.632353711243692E-07   1.673676938677857E-07   1.716046268415301E-07
   1.759488182652697E-07   1.804029833986251E-07   1.849699062382915E-07
   1.896524412581236E-07   1.944535151932717E-07   1.993761288694810E-07
   2.044233590787011E-07   2.095983605021774E-07   2.149043676822237E-07
   2.203446970439129E-07   2.259227489679431E-07   2.316420099159822E-07
   2.375060546098136E-07   2.435185482656468E-07   2.496832488849925E-07
   2.560040096035260E-07   2.624847810994170E-07   2.691296140626240E-07
   2.759426617266994E-07   2.829281824646886E-07   2.900905424507401E-07
   2.974342183890998E-07   3.049638003121857E-07   3.126839944494974E-07
   3.205996261691539E-07   3.287156429938915E-07   3.370371176934162E-07
   3.455692514550375E-07   3.543173771345655E-07   3.632869625895081E-07
   3.724836140966422E-07   3.819130798561055E-07   3.915812535841929E-07
   4.014941781971024E-07   4.116580495879407E-07   4.220792204993340E-07
   4.327642044940833E-07   4.437196800263305E-07   4.549524946157881E-07
   4.664696691276427E-07   4.782784021607936E-07   4.903860745471916E-07
   5.028002539650710E-07   5.155286996689652E-07   5.285793673394698E-07
   5.419604140557636E-07   5.556802033940210E-07   5.697473106548843E-07
   5.841705282232684E-07   5.989588710638552E-07   6.141215823556928E-07
   6.296681392694470E-07   6.456082588908960E-07   6.619519042943795E-07
   6.787092907699980E-07   6.958908922084480E-07   7.135074476474917E-07
   7.315699679841515E-07   7.500897428568163E-07   7.690783477015765E-07
   7.885476509871770E-07   8.085098216331313E-07   8.289773366156202E-07
   8.499629887659300E-07   8.714798947663153E-07   8.935415033482594E-07
   9.161616036982878E-07   9.393543340765633E-07   9.631341906536630E-07
   9.875160365710556E-07   1.012515111230938E-06   1.038147039821245E-06
   1.064427843081787E-06   1.091373947317597E-06   1.119002194665794E-06
   1.147329853622309E-06   1.176374629835123E-06   1.206154677170718E-06
   1.236688609060672E-06   1.267995510135500E-06   1.300094948152980E-06
   1.333006986228458E-06   1.366752195374755E-06   1.401351667359506E-06
   1.436827027887998E-06   1.473200450119695E-06   1.510494668526959E-06
   1.548732993104578E-06   1.587939323939005E-06   1.628138166146422E-06
   1.669354645188930E-06   1.711614522578481E-06   1.754944211978339E-06
   1.799370795712133E-06   1.844922041690850E-06   1.891626420768287E-06
   1.939513124535878E-06   1.988612083567979E-06   2.038953986129001E-06
   2.090570297354136E-06   2.143493278915590E-06   2.197756009186678E-06
   2.253392403916358E-06   2.310437237427106E-06   2.368926164349436E-06
   2.428895741906538E-06   2.490383452763147E-06   2.553427728452686E-06
   2.618067973397538E-06   2.684344589537343E-06   2.752299001580691E-06
   2.821973682896137E-06   2.893412182058507E-06   2.966659150067281E-06
   3.041760368253961E-06   3.118762776895820E-06   3.197714504554109E-06
   3.278664898154781E-06   3.361664553830772E-06   3.446765348544994E-06
   3.534020472513771E-06   3.623484462451146E-06   3.715213235654592E-06
   3.809264124953656E-06   3.905695914543254E-06   4.004568876723966E-06
   4.105944809572504E-06   4.209887075565596E-06   4.316460641181656E-06
   4.425732117504944E-06   4.537769801857396E-06   4.652643720484537E-06
   4.770425672321668E-06   4.891189273868073E-06   5.015010005197125E-06
   5.141965257130915E-06   5.272134379609253E-06   5.405598731282787E-06
   5.542441730361633E-06   5.682748906751125E-06   5.826607955507118E-06
   5.974108791644651E-06   6.125343606333708E-06   6.280406924517615E-06
   6.439395663989891E-06   6.602409195966344E-06   6.769549407190650E-06
   6.940920763611723E-06   7.116630375673063E-06   7.296788065254730E-06
   7.481506434309605E-06   7.670900935237254E-06   7.865089943038840E-06
   8.064194829298561E-06   8.268340038037737E-06   8.477653163488682E-06
   8.692265029837534E-06   8.912309772985135E-06   9.137924924377631E-06
   9.369251496958985E-06   9.606434073298782E-06   9.849620895951095E-06
   1.009896396010006E-05   1.035461910855058E-05   1.061674612912347E-05
   1.088550885451539E-05   1.116107526468678E-05   1.144361759184094E-05
   1.173331242806030E-05   1.203034083566724E-05   1.233488846037764E-05
   1.264714564731913E-05   1.296730755998501E-05   1.329557430219943E-05
   1.363215104316935E-05   1.397724814570123E-05   1.433108129766345E-05
   1.469387164677533E-05   1.506584593880794E-05   1.544723665928271E-05
   1.583828217875577E-05   1.623922690178014E-05   1.665032141963708E-05
   1.707182266693338E-05   1.750399408216176E-05   1.794710577232463E-05
   1.840143468172437E-05   1.886726476502508E-05   1.934488716469432E-05
   1.983460039293539E-05   2.033671051822373E-05   2.085153135656422E-05
   2.137938466758831E-05   2.192060035561394E-05   2.247551667579359E-05
   2.304448044547893E-05   2.362784726093457E-05   2.422598171953559E-05
   2.483925764758816E-05   2.546805833391522E-05   2.611277676935276E-05
   2.677381589230695E-05   2.745158884052451E-05   2.814651920923434E-05
   2.885904131582099E-05   2.958960047119522E-05   3.033865325803147E-05
   3.110666781604530E-05   3.189412413448928E-05   3.270151435204993E-05
   3.352934306433228E-05   3.437812763912489E-05   3.524839853964104E-05
   3.614069965593862E-05   3.705558864472528E-05   3.799363727776039E-05
   3.895543179907217E-05   3.994157329121175E-05   4.095267805077357E-05
   4.198937797341607E-05   4.305232094862241E-05   4.414217126444843E-05
   4.525961002250934E-05   4.640533556346467E-05   4.758006390326656E-05
   4.878452918044335E-05   5.001948411469790E-05   5.128570047710595E-05
   5.258396957220821E-05   5.391510273229687E-05   5.527993182420398E-05
   5.667930976890874E-05   5.811411107428641E-05   5.958523238133209E-05
   6.109359302419935E-05   6.264013560440217E-05   6.422582657953942E-05
   6.585165686690732E-05   6.751864246237708E-05   6.922782507492317E-05
   7.098027277719649E-05   7.277708067254968E-05   7.461937157892831E-05
   7.650829673005477E-05   7.844503649434198E-05   8.043080111198316E-05
   8.246683145067896E-05   8.455439978046987E-05   8.669481056815868E-05
   8.888940129181630E-05   9.113954327587777E-05   9.344664254734957E-05
   9.581214071365924E-05   9.823751586269527E-05   1.007242834855967E-04
   1.032739974228652E-04   1.058882508343918E-04   1.085686771939963E-04
   1.113169513091030E-04   1.141347903661845E-04   1.170239550026222E-04
   1.199862504056536E-04   1.230235274390851E-04   1.261376837984748E-04
   1.293306651954999E-04   1.326044665722466E-04   1.359611333461749E-04
   1.394027626865341E-04   1.429315048230202E-04   1.465495643874869E-04
   1.502592017895462E-04   1.540627346269084E-04   1.579625391313405E-04
   1.619610516511381E-04   1.660607701710312E-04   1.702642558704675E-04
   1.745741347212359E-04   1.789930991254269E-04   1.835239095947396E-04
   1.881693964721797E-04   1.929324616972138E-04   1.978160806154725E-04
   2.028233038341265E-04   2.079572591240809E-04   2.132211533701678E-04
   2.186182745705442E-04   2.241519938865285E-04   2.298257677441502E-04
   2.356431399887067E-04   2.416077440936626E-04   2.477233054252571E-04
   2.539936435642132E-04   2.604226746859927E-04   2.670144140010585E-04
   2.737729782566543E-04   2.807025883016497E-04   2.878075717160129E-04
   2.950923655065396E-04   3.025615188707154E-04   3.102196960296205E-04
   3.180716791330560E-04   3.261223712371090E-04   3.343767993571408E-04
   3.428401175974637E-04   3.515176103598971E-04   3.604146956329792E-04
   3.695369283641653E-04   3.788900039169004E-04   3.884797616143403E-04
   3.983121883727233E-04   4.083934224257468E-04   4.187297571428641E-04
   4.293276449434664E-04   4.401937013097237E-04   4.513347088998297E-04
   4.627576217652004E-04   4.744695696733378E-04   4.864778625392284E-04
   4.987899949682078E-04   5.114136509132758E-04   5.243567084485040E-04
   5.376272446631629E-04   5.512335406781581E-04   5.651840867885031E-04
   5.794875877349904E-04   5.941529681078093E-04   6.091893778858207E-04
   6.246061981148463E-04   6.404130467280303E-04   6.566197845122190E-04
   6.732365212237287E-04   6.902736218574253E-04   7.077417130727657E-04
   7.256516897804329E-04   7.440147218942134E-04   7.628422612514110E-04
   7.821460487067627E-04   8.019381214032614E-04   8.222308202249977E-04
   8.430367974362472E-04   8.643690245111988E-04   8.862408001593107E-04
   9.086657585509368E-04   9.316578777482361E-04   9.552314883462421E-04
   9.794012823296507E-04   1.004182322150119E-03   1.029590050029492E-03
   1.055640297495568E-03   1.082349295154105E-03   1.109733682704706E-03
   1.137810519205619E-03   1.166597293593724E-03   1.196111935465787E-03
   1.226372826127633E-03   1.257398809917464E-03   1.289209205810397E-03
   1.321823819309792E-03   1.355262954635451E-03   1.389547427210404E-03
   1.424698576460923E-03   1.460738278928830E-03   1.497688961711775E-03
   1.535573616233670E-03   1.574415812355087E-03   1.614239712833780E-03
   1.655070088139331E-03   1.696932331634269E-03   1.739852475129361E-03
   1.783857204822095E-03   1.828973877624449E-03   1.875230537895903E-03
   1.922655934584357E-03   1.971279538789056E-03   2.021131561753168E-03
   2.072242973298494E-03   2.124645520709100E-03   2.178371748079835E-03
   2.233455016134688E-03   2.289929522529944E-03   2.347830322652978E-03
   2.407193350927235E-03   2.468055442634703E-03   2.530454356270731E-03
   2.594428796440670E-03   2.660018437310927E-03   2.727263946630692E-03
   2.796207010332602E-03   2.866890357729013E-03   2.939357787317034E-03
   3.013654193203958E-03   3.089825592172251E-03   3.167919151391054E-03
   3.247983216796553E-03   3.330067342151845E-03   3.414222318801559E-03
   3.500500206139712E-03   3.588954362802383E-03   3.679639478606627E-03
   3.772611607247202E-03   3.867928199770468E-03   3.965648138842190E-03
   4.065831773826903E-03   4.168540956693936E-03   4.273839078773102E-03
   4.381791108372897E-03   4.492463629284068E-03   4.605924880183248E-03
   4.722244794960735E-03   4.841495043987527E-03   4.963749076344011E-03
   5.089082163029167E-03   5.217571441170818E-03   5.349295959258312E-03
   5.484336723417282E-03   5.622776744749257E-03   5.764701087755791E-03
   5.910196919870855E-03   6.059353562121482E-03   6.212262540939963E-03
   6.369017641152603E-03   6.529714960160572E-03   6.694452963344963E-03
   6.863332540712946E-03   7.036457064809491E-03   7.213932449920983E-03
   7.395867212591315E-03   7.582372533475728E-03   7.773562320556470E-03
   7.969553273745189E-03   8.170464950892476E-03   8.376419835236968E-03
   8.587543404307030E-03   8.803964200311622E-03   9.025813902033573E-03
   9.253227398259768E-03   9.486342862762735E-03   9.725301830866865E-03
   9.970249277615877E-03   1.022133369757083E-02   1.047870718625882E-02
   1.074252552329686E-02   1.101294825721535E-02   1.129013879200061E-02
   1.157426447538187E-02   1.186549668888239E-02   1.216401093965641E-02
   1.246998695413365E-02   1.278360877348754E-02   1.310506485095280E-02
   1.343454815100131E-02   1.377225625040373E-02   1.411839144118414E-02
   1.447316083548873E-02   1.483677647237979E-02   1.520945542656849E-02
   1.559141991909516E-02   1.598289742997049E-02   1.638412081278238E-02
   1.679532841127578E-02   1.721676417790637E-02   1.764867779437689E-02
   1.809132479414760E-02   1.854496668692176E-02   1.900987108510264E-02
   1.948631183220806E-02   1.997456913323659E-02   2.047492968696684E-02
   2.098768682017348E-02   2.151314062373866E-02   2.205159809063177E-02
   2.260337325572765E-02   2.316878733743117E-02   2.374816888106511E-02
   2.434185390398267E-02   2.495018604234966E-02   2.557351669954526E-02
   2.621220519612045E-02   2.686661892124256E-02   2.753713348555635E-02
   2.822413287538134E-02   2.892800960815060E-02   2.964916488900091E-02
   3.038800876840663E-02   3.114496030074289E-02   3.192044770365667E-02
   3.271490851811185E-02   3.352878976896484E-02   3.436254812591678E-02
   3.521665006467600E-02   3.609157202815404E-02   3.698780058750219E-02
   3.790583260278715E-02   3.884617538308573E-02   3.980934684576398E-02
   4.079587567469599E-02   4.180630147715343E-02   4.284117493908560E-02
   4.390105797848795E-02   4.498652389654167E-02   4.609815752618278E-02
   4.723655537774425E-02   4.840232578128504E-02   4.959608902520565E-02
   5.081847749071973E-02   5.207013578172898E-02   5.335172084962377E-02
   5.466390211249955E-02   5.600736156825898E-02   5.738279390103255E-02
   5.879090658032299E-02   6.023241995224614E-02   6.170806732220982E-02
   6.321859502832960E-02   6.476476250485697E-02   6.634734233484198E-02
   6.796712029122798E-02   6.962489536552471E-02   7.132147978316897E-02
   7.305769900463779E-02   7.483439171132877E-02   7.665240977518537E-02
   7.851261821098235E-02   8.041589511015074E-02   8.236313155495528E-02
   8.435523151179758E-02   8.639311170235062E-02   8.847770145118031E-02
   9.060994250844928E-02   9.279078884623697E-02   9.502120642694695E-02
   9.730217294221370E-02   9.963467752064567E-02   1.020197204026894E-01
   1.044583125808145E-01   1.069514754031658E-01   1.095002401387446E-01
   1.121056475021175E-01   1.147687471355753E-01   1.174905970465920E-01
   1.202722629983520E-01   1.231148178510550E-01   1.260193408516090E-01
   1.289869168692686E-01   1.320186355746858E-01   1.351155905597694E-01
   1.382788783956788E-01   1.415095976261926E-01   1.448088476936400E-01
   1.481777277944892E-01   1.516173356616412E-01   1.551287662703972E-01
   1.587131104650116E-01   1.623714535026894E-01   1.661048735118262E-01
   1.699144398612446E-01   1.738012114371449E-01   1.777662348244399E-01
   1.818105423891372E-01   1.859351502583934E-01   1.901410561948712E-01
   1.944292373620325E-01   1.988006479770055E-01   2.032562168477067E-01
   2.077968447909330E-01   2.124234019282040E-01   2.171367248562106E-01
   2.219376136888222E-01   2.268268289677302E-01   2.318050884389413E-01
   2.368730636925028E-01   2.420313766630440E-01   2.472805959889268E-01
   2.526212332280744E-01   2.580537389288239E-01   2.635784985544795E-01
   2.691958282606112E-01   2.749059705245554E-01   2.807090896270216E-01
   2.866052669862215E-01   2.925944963454831E-01   2.986766788159282E-01
   3.048516177764455E-01   3.111190136339465E-01   3.174784584476463E-01
   3.239294304220033E-01   3.304712882738769E-01   3.371032654804492E-01
   3.438244644155786E-01   3.506338503833876E-01   3.575302455591532E-01
   3.645123228489268E-01   3.715785996806982E-01   3.787274317415064E-01
   3.859570066764607E-01   3.932653377674040E-01   4.006502576107611E-01
   4.081094118160142E-01   4.156402527483221E-01   4.232400333408808E-01
   4.309058010048833E-01   4.386343916672708E-01   4.464224239688555E-01
   4.542662936579809E-01   4.621621682174240E-01   4.701059817649848E-01
   4.780934302709596E-01   4.861199671384901E-01   4.941807991957130E-01
   5.022708831514865E-01   5.103849225694410E-01   5.185173654180334E-01
   5.266624022571494E-01   5.348139651247212E-01   5.429657271895511E-01
   5.511111032392266E-01   5.592432510745583E-01   5.673550738842321E-01
   5.754392236755573E-01   5.834881058389122E-01   5.914938849250083E-01
   5.994484917151515E-01   6.073436316652181E-01   6.151707948041769E-01
   6.229212671673294E-01   6.305861438431861E-01   6.381563437107847E-01
   6.456226259412118E-01   6.529756083331173E-01   6.602057875468047E-01
   6.673035612951238E-01   6.742592525416243E-01   6.810631357471300E-01
   6.877054651950372E-01   6.941765054129163E-01   7.004665636934132E-01
   7.065660247007833E-01   7.124653871304727E-01   7.181553023679612E-01
   7.236266150692913E-01   7.288704055593542E-01   7.338780339148548E-01
   7.386411855668209E-01   7.431519182225587E-01   7.474027098688549E-01
   7.513865075770633E-01   7.550967767864092E-01   7.585275506943759E-01
   7.616734793325763E-01   7.645298778530045E-01   7.670927734933310E-01
   7.693589506310786E-01   7.713259932754327E-01   7.729923242825281E-01
   7.743572405157654E-01   7.754209431076673E-01   7.761845619147244E-01
   7.766501731924328E-01   7.768208094553166E-01   7.767004604273058E-01
   7.762940639327308E-01   7.756074855289182E-01   7.746474856396064E-01
   7.734216729160653E-01   7.719384425319941E-01   7.702068981112952E-01
   7.682367559972327E-01   7.660382305999978E-01   7.636218996102693E-01
   7.609985479421580E-01   7.581789893731844E-01   7.551738649852258E-01
   7.519934176821758E-01   7.486472422710712E-01   7.451440108473177E-01
   7.414911735249671E-01   7.376946349032349E-01   7.337584070638737E-01
   7.296842403533969E-01   7.254712337220377E-01   7.211154269693200E-01
   7.166114877646061E-01   7.119600338314105E-01   7.071635575863793E-01
   7.022246485067830E-01   6.971459905332146E-01   6.919303594194032E-01
   6.865806200335812E-01   6.810997236154186E-01   6.754907049920739E-01
   6.697566797564056E-01   6.639008414098465E-01   6.579264584718590E-01
   6.518368715572886E-01   6.456354904222941E-01   6.393257909789055E-01
   6.329113122776138E-01   6.263956534567321E-01   6.197824706566400E-01
   6.130754738964215E-01   6.062784239098402E-01   5.993951289370572E-01
   5.924294414654977E-01   5.853852549279844E-01   5.782665003292683E-01
   5.710771428196114E-01   5.638211781993661E-01   5.565026293521265E-01
   5.491255426022026E-01   5.416939839926933E-01   5.342120354811529E-01
   5.266837910507719E-01   5.191133527361246E-01   5.115048265638578E-01
   5.038623184102172E-01   4.961899297790027E-01   4.884917535053784E-01
   4.807718693929346E-01   4.730343397934395E-01   4.652832051408064E-01
   4.575224794528880E-01   4.497561458167275E-01   4.419881518748131E-01
   4.342224053316323E-01   4.264627695013469E-01   4.187130589186780E-01
   4.109770350360413E-01   4.032584020305702E-01   3.955608027448916E-01
   3.878878147853375E-01   3.802429468006910E-01   3.726296349635727E-01
   3.650512396751754E-01   3.575110425122980E-01   3.500122434335096E-01
   3.425579582588683E-01   3.351512164349407E-01   3.277949590939894E-01
   3.204920374131638E-01   3.132452112763963E-01   3.060571482385391E-01
   2.989304227881101E-01   2.918675159019531E-01   2.848708148820982E-01
   2.779426134622732E-01   2.710851121690268E-01   2.643004189198714E-01
   2.575905498386946E-01   2.509574302669642E-01   2.444028959476078E-01
   2.379286943571559E-01   2.315364861608136E-01   2.252278467645066E-01
   2.190042679376430E-01   2.128671594803626E-01   2.068178509094017E-01
   2.008575931373832E-01   1.949875601213402E-01   1.892088504575926E-01
   1.835224889017124E-01   1.779294277942191E-01   1.724305483748214E-01
   1.670266619704605E-01   1.617185110450640E-01   1.565067701017852E-01
   1.513920464315166E-01   1.463748807046097E-01   1.414557474059449E-01
   1.366350551167250E-01   1.319131466495679E-01   1.272902990465698E-01
   1.227667234529658E-01   1.183425648817447E-01   1.140179018870452E-01
   1.097927461663030E-01   1.056670421129001E-01   1.016406663424411E-01
   9.771342721672591E-02   9.388506438998574E-02   9.015524840199274E-02
   8.652358034224772E-02   8.298959160861795E-02   7.955274378255688E-02
   7.621242864143364E-02   7.296796832657229E-02   6.981861568339955E-02
   6.676355478768073E-02   6.380190166924209E-02   6.093270524189014E-02
   5.815494844550192E-02   5.546754960352573E-02   5.286936399644879E-02
   5.035918564920201E-02   4.793574932801711E-02   4.559773273996395E-02
   4.334375892629869E-02   4.117239883886703E-02   3.908217408714475E-02
   3.707155984206795E-02   3.513898788161003E-02   3.328284976210062E-02
   3.150150009854693E-02   2.979325993670264E-02   2.815642019932003E-02
   2.658924518890675E-02   2.508997612937178E-02   2.365683472917202E-02
   2.228802674894345E-02   2.098174555710408E-02   1.973617565753151E-02
   1.854949617413203E-02   1.741988427791400E-02   1.634551854304187E-02
   1.532458221926492E-02   1.435526640907399E-02   1.343577313892830E-02
   1.256431831490264E-02   1.173913455412261E-02   1.095847388437391E-02
   1.022061030528319E-02   9.523842205465078E-03   8.866494631008156E-03
   8.246921401624460E-03   7.663507071710280E-03   7.114668734454609E-03
   6.598857667983793E-03   6.114560823342993E-03   5.660302154885205E-03
   5.234643794364778E-03   4.836187070713161E-03   4.463573378109128E-03
   4.115484895542878E-03   3.790645161614122E-03   3.487819508792051E-03
   3.205815361823224E-03   2.943482405345440E-03   2.699712626140304E-03
   2.473440235756525E-03   2.263641479487709E-03   2.069334337909342E-03
   1.889578127353338E-03   1.723473005829597E-03   1.570159390997298E-03
   1.428817296836865E-03   1.298665595708344E-03   1.178961212431842E-03
   1.068998257005948E-03   9.681071024914082E-04   8.756534144662239E-04
   7.910371383268467E-04   7.136914505475009E-04   6.430816798226077E-04
   5.787042038067273E-04   5.200853269565716E-04   4.667801446955570E-04
   4.183713985215401E-04   3.744683471914131E-04   3.347054044004625E-04
   2.987424445974014E-04   2.662583591332144E-04   2.369617156542328E-04
   2.105824176784216E-04   1.868651353081189E-04   1.655719935574048E-04
   1.464830667459549E-04   1.293953285349622E-04   1.141216355224015E-04
   1.004897452342965E-04   8.834136920853142E-05   7.753126163018566E-05
   6.792634374543357E-05   5.940486404655873E-05   5.185559398226352E-05
   4.517705870239156E-05   3.927680209290212E-05   3.407068508899945E-05
   2.948221596836808E-05   2.544191101529912E-05   2.188668359538985E-05
   1.875925932808238E-05   1.600761453636318E-05   1.358443146250486E-05
   1.144660921272616E-05   9.554532425202715E-06   7.878457085158595E-06
   6.352823512458148E-06   0.000000000000000E+00   0.000000000000000E+00
   0.000000000000000E+00   0.000000000000000E+00   0.000000000000000E+00
   0.000000000000000E+00   0.000000000000000E+00   0.000000000000000E+00
   0.000000000000000E+00   0.000000000000000E+00   0.000000000000000E+00
   0.000000000000000E+00   0.000000000000000E+00   0.000000000000000E+00
   0.000000000000000E+00   0.000000000000000E+00   0.000000000000000E+00
   0.000000000000000E+00   0.000000000000000E+00   0.000000000000000E+00
   0.000000000000000E+00   0.000000000000000E+00   0.000000000000000E+00
   0.000000000000000E+00   0.000000000000000E+00   0.000000000000000E+00
   0.000000000000000E+00   0.000000000000000E+00   0.000000000000000E+00
   0.000000000000000E+00   0.000000000000000E+00   0.000000000000000E+00
   0.000000000000000E+00   0.000000000000000E+00   0.000000000000000E+00
   0.000000000000000E+00   0.000000000000000E+00   0.000000000000000E+00
   0.000000000000000E+00   0.000000000000000E+00   0.000000000000000E+00
   0.000000000000000E+00   0.000000000000000E+00   0.000000000000000E+00
   0.000000000000000E+00   0.000000000000000E+00   0.000000000000000E+00
   0.000000000000000E+00   0.000000000000000E+00   0.000000000000000E+00
   0.000000000000000E+00   0.000000000000000E+00   0.000000000000000E+00
   0.000000000000000E+00   0.000000000000000E+00   0.000000000000000E+00
   0.000000000000000E+00   0.000000000000000E+00   0.000000000000000E+00
   0.000000000000000E+00   0.000000000000000E+00   0.000000000000000E+00
   0.000000000000000E+00   0.000000000000000E+00   0.000000000000000E+00
   0.000000000000000E+00   0.000000000000000E+00   0.000000000000000E+00
   0.000000000000000E+00   0.000000000000000E+00   0.000000000000000E+00
   0.000000000000000E+00   0.000000000000000E+00   0.000000000000000E+00
   0.000000000000000E+00   0.000000000000000E+00   0.000000000000000E+00
   0.000000000000000E+00   0.000000000000000E+00   0.000000000000000E+00
   0.000000000000000E+00   0.000000000000000E+00   0.000000000000000E+00
   0.000000000000000E+00   0.000000000000000E+00   0.000000000000000E+00
   0.000000000000000E+00   0.000000000000000E+00   0.000000000000000E+00
   0.000000000000000E+00   0.000000000000000E+00   0.000000000000000E+00
   0.000000000000000E+00   0.000000000000000E+00   0.000000000000000E+00
   0.000000000000000E+00   0.000000000000000E+00   0.000000000000000E+00
   0.000000000000000E+00   0.000000000000000E+00   0.000000000000000E+00
   0.000000000000000E+00   0.000000000000000E+00   0.000000000000000E+00
   0.000000000000000E+00   0.000000000000000E+00   0.000000000000000E+00
   0.000000000000000E+00   0.000000000000000E+00   0.000000000000000E+00
   0.000000000000000E+00   0.000000000000000E+00   0.000000000000000E+00
   0.000000000000000E+00   0.000000000000000E+00   0.000000000000000E+00
   0.000000000000000E+00   0.000000000000000E+00   0.000000000000000E+00
   0.000000000000000E+00   0.000000000000000E+00   0.000000000000000E+00
   0.000000000000000E+00   0.000000000000000E+00   0.000000000000000E+00
   0.000000000000000E+00   0.000000000000000E+00   0.000000000000000E+00
   0.000000000000000E+00   0.000000000000000E+00   0.000000000000000E+00
   0.000000000000000E+00   0.000000000000000E+00   0.000000000000000E+00
   0.000000000000000E+00   0.000000000000000E+00   0.000000000000000E+00
   0.000000000000000E+00   0.000000000000000E+00
    </PP_PSWFC.3>
    <PP_PSWFC.4 size="1085" index="4" label="2P" l="1">
   2.922649309098778E-08   2.996636527019346E-08   3.072496740197323E-08
   3.150277363729210E-08   3.230027013030188E-08   3.311795534220292E-08
   3.395634035279864E-08   3.481594917993678E-08   3.569731910703735E-08
   3.660100101891237E-08   3.752755974608619E-08   3.847757441783295E-08
   3.945163882415097E-08   4.045036178690052E-08   4.147436754033738E-08
   4.252429612127867E-08   4.360080376914702E-08   4.470456333614095E-08
   4.583626470778904E-08   4.699661523415096E-08   4.818634017193331E-08
   4.940618313779880E-08   5.065690657315018E-08   5.193929222068070E-08
   5.325414161298844E-08   5.460227657355948E-08   5.598453973043414E-08
   5.740179504287636E-08   5.885492834137579E-08   6.034484788132046E-08
   6.187248491068485E-08   6.343879425209008E-08   6.504475489959819E-08
   6.669137063061475E-08   6.837967063328199E-08   7.011071014975362E-08
   7.188557113575510E-08   7.370536293684038E-08   7.557122298176793E-08
   7.748431749343041E-08   7.944584221778013E-08   8.145702317120889E-08
   8.351911740684685E-08   8.563341380026045E-08   8.780123385504109E-08
   9.002393252878573E-08   9.230289907998882E-08   9.463955793637270E-08
   9.703536958519971E-08   9.949183148612331E-08   1.020104790071468E-07
   1.045928863842771E-07   1.072406677054720E-07   1.099554779194951E-07
   1.127390138703123E-07   1.155930153576706E-07   1.185192662245289E-07
   1.215195954720152E-07   1.245958784026093E-07   1.277500377922664E-07
   1.309840450922111E-07   1.342999216611563E-07   1.376997400287155E-07
   1.411856251907980E-07   1.447597559377982E-07   1.484243662164060E-07
   1.521817465258939E-07   1.560342453497493E-07   1.599842706235493E-07
   1.640342912399961E-07   1.681868385920489E-07   1.724445081551244E-07
   1.768099611093480E-07   1.812859260028724E-07   1.858752004573065E-07
   1.905806529163112E-07   1.954052244384664E-07   2.003519305355220E-07
   2.054238630571844E-07   2.106241921236179E-07   2.159561681068638E-07
   2.214231236624230E-07   2.270284758122668E-07   2.327757280805769E-07
   2.386684726835569E-07   2.447103927746719E-07   2.509052647467323E-07
   2.572569605922515E-07   2.637694503235568E-07   2.704468044541671E-07
   2.772931965429823E-07   2.843129058028836E-07   2.915103197753670E-07
   2.988899370728868E-07   3.064563701906222E-07   3.142143483894191E-07
   3.221687206517198E-07   3.303244587123167E-07   3.386866601658320E-07
   3.472605516528641E-07   3.560514921267857E-07   3.650649762032473E-07
   3.743066375944685E-07   3.837822526304701E-07   3.934977438694474E-07
   4.034591837995338E-07   4.136727986342808E-07   4.241449722042171E-07
   4.348822499469212E-07   4.458913429981069E-07   4.571791323862660E-07
   4.687526733335048E-07   4.806191996652535E-07   4.927861283316060E-07
   5.052610640431184E-07   5.180518040239586E-07   5.311663428853848E-07
   5.446128776225940E-07   5.583998127380630E-07   5.725357654945909E-07
   5.870295713013133E-07   6.018902892360693E-07   6.171272077075629E-07
   6.327498502608615E-07   6.487679815298615E-07   6.651916133404317E-07
   6.820310109680650E-07   6.992966995539356E-07   7.169994706833797E-07
   7.351503891309084E-07   7.537607997759640E-07   7.728423346937537E-07
   7.924069204255800E-07   8.124667854332188E-07   8.330344677420096E-07
   8.541228227774114E-07   8.757450313999536E-07   8.979146081435837E-07
   9.206454096625612E-07   9.439516433921947E-07   9.678478764287993E-07
   9.923490446344694E-07   1.017470461972322E-06   1.043227830078058E-06
   1.069637248073836E-06   1.096715222630554E-06   1.124478678284879E-06
   1.152944968017435E-06   1.182131884098769E-06   1.212057669209887E-06
   1.242741027844289E-06   1.274201137998650E-06   1.306457663159432E-06
   1.339530764592944E-06   1.373441113946512E-06   1.408209906168625E-06
   1.443858872756168E-06   1.480410295336991E-06   1.517887019596298E-06
   1.556312469555606E-06   1.595710662213117E-06   1.636106222554748E-06
   1.677524398945117E-06   1.719991078908157E-06   1.763532805307219E-06
   1.808176792934694E-06   1.853950945521692E-06   1.900883873178202E-06
   1.949004910274792E-06   1.998344133776971E-06   2.048932382043606E-06
   2.100801274101297E-06   2.153983229406569E-06   2.208511488108379E-06
   2.264420131823544E-06   2.321744104938018E-06   2.380519236447490E-06
   2.440782262350738E-06   2.502570848609915E-06   2.565923614692038E-06
   2.630880157706340E-06   2.697481077152736E-06   2.765768000296639E-06
   2.835783608186195E-06   2.907571662328076E-06   2.981177032038485E-06
   3.056645722486615E-06   3.134024903447876E-06   3.213362938785008E-06
   3.294709416675501E-06   3.378115180604053E-06   3.463632361139711E-06
   3.551314408517225E-06   3.641216126043253E-06   3.733393704348163E-06
   3.827904756504767E-06   3.924808354036160E-06   4.024165063834878E-06
   4.126036986016679E-06   4.230487792732506E-06   4.337582767962779E-06
   4.447388848319181E-06   4.559974664879050E-06   4.675410586078822E-06
   4.793768761693211E-06   4.915123167927508E-06   5.039549653651443E-06
   5.167125987803159E-06   5.297931907993189E-06   5.432049170338723E-06
   5.569561600559133E-06   5.710555146365065E-06   5.855117931173377E-06
   6.003340309181817E-06   6.155314921837762E-06   6.311136755736116E-06
   6.470903201982956E-06   6.634714117061494E-06   6.802671885238801E-06
   6.974881482552137E-06   7.151450542414673E-06   7.332489422882062E-06
   7.518111275621306E-06   7.708432116625435E-06   7.903570898718106E-06
   8.103649585893049E-06   8.308793229535507E-06   8.519130046572512E-06
   8.734791499601322E-06   8.955912379046037E-06   9.182630887393284E-06
   9.415088725560353E-06   9.653431181448855E-06   9.897807220739947E-06
   1.014836957998749E-05   1.040527486206712E-05   1.066868363404149E-05
   1.093876052750200E-05   1.121567434145021E-05   1.149959814778328E-05
   1.179070939944859E-05   1.208919004133627E-05   1.239522662397763E-05
   1.270901042012141E-05   1.303073754426035E-05   1.336060907518253E-05
   1.369883118162442E-05   1.404561525110365E-05   1.440117802201239E-05
   1.476574171905359E-05   1.513953419210451E-05   1.552278905859469E-05
   1.591574584948672E-05   1.631865015895149E-05   1.673175379783092E-05
   1.715531495098427E-05   1.758959833861623E-05   1.803487538168729E-05
   1.849142437151000E-05   1.895953064363678E-05   1.943948675614776E-05
   1.993159267245022E-05   2.043615594870350E-05   2.095349192598638E-05
   2.148392392732718E-05   2.202778345971897E-05   2.258541042124673E-05
   2.315715331345497E-05   2.374336945908896E-05   2.434442522534519E-05
   2.496069625277013E-05   2.559256768995091E-05   2.624043443414322E-05
   2.690470137798770E-05   2.758578366246816E-05   2.828410693626925E-05
   2.900010762169624E-05   2.973423318732169E-05   3.048694242753007E-05
   3.125870574913428E-05   3.205000546524254E-05   3.286133609655980E-05
   3.369320468031057E-05   3.454613108697677E-05   3.542064834504747E-05
   3.631730297398319E-05   3.723665532560286E-05   3.817927993410534E-05
   3.914576587494474E-05   4.013671713278277E-05   4.115275297874728E-05
   4.219450835723298E-05   4.326263428248422E-05   4.435779824520840E-05
   4.548068462947242E-05   4.663199514014205E-05   4.781244924113146E-05
   4.902278460473459E-05   5.026375757231963E-05   5.153614362667296E-05
   5.284073787628652E-05   5.417835555189113E-05   5.554983251554432E-05
   5.695602578258970E-05   5.839781405681388E-05   5.987609827913227E-05
   6.139180219014785E-05   6.294587290693070E-05   6.453928151437901E-05
   6.617302367152922E-05   6.784812023319179E-05   6.956561788730105E-05
   7.132658980837394E-05   7.313213632748544E-05   7.498338561917732E-05
   7.688149440572624E-05   7.882764867921154E-05   8.082306444182892E-05
   8.286898846491260E-05   8.496669906713708E-05   8.711750691238112E-05
   8.932275582775203E-05   9.158382364227631E-05   9.390212304677955E-05
   9.627910247548837E-05   9.871624700990376E-05   1.012150793055042E-04
   1.037771605418575E-04   1.064040913967288E-04   1.090975130447901E-04
   1.118591081815520E-04   1.146906020731499E-04   1.175937636326409E-04
   1.205704065234746E-04   1.236223902908243E-04   1.267516215214798E-04
   1.299600550330192E-04   1.332496950930004E-04   1.366225966689226E-04
   1.400808667097376E-04   1.436266654597007E-04   1.472622078053752E-04
   1.509897646566264E-04   1.548116643624590E-04   1.587302941625716E-04
   1.627481016755310E-04   1.668675964244805E-04   1.710913514013318E-04
   1.754220046704023E-04   1.798622610124921E-04   1.844148936104148E-04
   1.890827457770214E-04   1.938687327267883E-04   1.987758433920398E-04
   2.038071422850682E-04   2.089657714068378E-04   2.142549522043489E-04
   2.196779875767000E-04   2.252382639321613E-04   2.309392532968259E-04
   2.367845154763194E-04   2.427777002723047E-04   2.489225497542391E-04
   2.552229005888483E-04   2.616826864278531E-04   2.683059403560629E-04
   2.750967974009139E-04   2.820594971052143E-04   2.891983861645400E-04
   2.965179211310927E-04   3.040226711853836E-04   3.117173209778706E-04
   3.196066735416093E-04   3.276956532786050E-04   3.359893090209630E-04
   3.444928171688049E-04   3.532114849073095E-04   3.621507535044997E-04
   3.713162016914732E-04   3.807135491281768E-04   3.903486599554806E-04
   4.002275464368214E-04   4.103563726910976E-04   4.207414585192110E-04
   4.313892833263821E-04   4.423064901432233E-04   4.534998897471681E-04
   4.649764648874881E-04   4.767433746158792E-04   4.888079587258458E-04
   5.011777423029322E-04   5.138604403890784E-04   5.268639627635810E-04
   5.401964188436601E-04   5.538661227076924E-04   5.678815982438649E-04
   5.822515844277318E-04   5.969850407314617E-04   6.120911526682174E-04
   6.275793374751115E-04   6.434592499377838E-04   6.597407883605492E-04
   6.764341006851686E-04   6.935495907625750E-04   7.110979247804143E-04
   7.290900378511453E-04   7.475371407638198E-04   7.664507269045605E-04
   7.858425793478485E-04   8.057247781264000E-04   8.261097076792561E-04
   8.470100644870093E-04   8.684388648947457E-04   8.904094531315784E-04
   9.129355095263796E-04   9.360310589294448E-04   9.597104793417090E-04
   9.839885107579007E-04   1.008880264228754E-03   1.034401231147924E-03
   1.060567292767184E-03   1.087394729947886E-03   1.114900233152877E-03
   1.143100912684959E-03   1.172014309178355E-03   1.201658404347617E-03
   1.232051632002191E-03   1.263212889332358E-03   1.295161548471221E-03
   1.327917468342554E-03   1.361501006798544E-03   1.395933033055641E-03
   1.431234940434806E-03   1.467428659414676E-03   1.504536671003600E-03
   1.542582020438977E-03   1.581588331220267E-03   1.621579819486043E-03
   1.662581308740258E-03   1.704618244937954E-03   1.747716711937764E-03
   1.791903447329872E-03   1.837205858648710E-03   1.883652039978222E-03
   1.931270788960345E-03   1.980091624213839E-03   2.030144803175441E-03
   2.081461340370341E-03   2.134073026124025E-03   2.188012445724188E-03
   2.243312999043846E-03   2.300008920634472E-03   2.358135300302456E-03
   2.417728104176652E-03   2.478824196280427E-03   2.541461360618336E-03
   2.605678323789070E-03   2.671514778135725E-03   2.739011405447027E-03
   2.808209901219553E-03   2.879152999494352E-03   2.951884498280006E-03
   3.026449285575565E-03   3.102893366005039E-03   3.181263888077434E-03
   3.261609172086483E-03   3.343978738661259E-03   3.428423337983726E-03
   3.514994979686147E-03   3.603746963442998E-03   3.694733910270857E-03
   3.788011794552498E-03   3.883637976797848E-03   3.981671237159456E-03
   4.082171809714575E-03   4.185201417532111E-03   4.290823308538682E-03
   4.399102292198417E-03   4.510104777025273E-03   4.623898808940492E-03
   4.740554110495552E-03   4.860142120971765E-03   4.982736037378917E-03
   5.108410856364433E-03   5.237243417053124E-03   5.369312444833060E-03
   5.504698596105674E-03   5.643484504014183E-03   5.785754825172565E-03
   5.931596287406820E-03   6.081097738529264E-03   6.234350196162648E-03
   6.391446898629019E-03   6.552483356923659E-03   6.717557407789227E-03
   6.886769267907360E-03   7.060221589225482E-03   7.238019515434652E-03
   7.420270739615623E-03   7.607085563069585E-03   7.798576955349454E-03
   7.994860615508328E-03   8.196055034579260E-03   8.402281559302458E-03
   8.613664457117037E-03   8.830330982425562E-03   9.052411444152956E-03
   9.280039274606796E-03   9.513351099655449E-03   9.752486810234245E-03
   9.997589635191730E-03   1.024880621548628E-02   1.050628667974298E-02
   1.077018472117802E-02   1.104065767590015E-02   1.131786660259519E-02
   1.160197636359633E-02   1.189315570734824E-02   1.219157735226373E-02
   1.249741807197682E-02   1.281085878198816E-02   1.313208462770534E-02
   1.346128507386695E-02   1.379865399535151E-02   1.414438976935513E-02
   1.449869536893466E-02   1.486177845789584E-02   1.523385148701565E-02
   1.561513179157718E-02   1.600584169019684E-02   1.640620858491799E-02
   1.681646506254319E-02   1.723684899717182E-02   1.766760365391002E-02
   1.810897779371011E-02   1.856122577929721E-02   1.902460768213463E-02
   1.949938939037207E-02   1.998584271772235E-02   2.048424551319764E-02
   2.099488177164057E-02   2.151804174497069E-02   2.205402205406599E-02
   2.260312580119049E-02   2.316566268287209E-02   2.374194910312732E-02
   2.433230828692205E-02   2.493707039374726E-02   2.555657263118491E-02
   2.619115936832246E-02   2.684118224887144E-02   2.750700030383350E-02
   2.818898006354242E-02   2.888749566890803E-02   2.960292898166496E-02
   3.033566969342896E-02   3.108611543333942E-02   3.185467187406083E-02
   3.264175283589777E-02   3.344778038876387E-02   3.427318495173069E-02
   3.511840538986364E-02   3.598388910803686E-02   3.687009214140079E-02
   3.777747924215547E-02   3.870652396226584E-02   3.965770873173194E-02
   4.063152493200767E-02   4.162847296413825E-02   4.264906231116199E-02
   4.369381159430166E-02   4.476324862244051E-02   4.585791043435369E-02
   4.697834333314053E-02   4.812510291227069E-02   4.929875407262775E-02
   5.049987102990951E-02   5.172903731170051E-02   5.298684574351043E-02
   5.427389842303067E-02   5.559080668182802E-02   5.693819103365692E-02
   5.831668110853406E-02   5.972691557167784E-02   6.116954202637835E-02
   6.264521689981466E-02   6.415460531080071E-02   6.569838091838984E-02
   6.727722575022574E-02   6.889183000947782E-02   7.054289185915366E-02
   7.223111718252850E-02   7.395721931837990E-02   7.572191876966880E-02
   7.752594288424970E-02   7.937002550613936E-02   8.125490659582260E-02
   8.318133181800977E-02   8.515005209521176E-02   8.716182312543699E-02
   8.921740486225388E-02   9.131756095541244E-02   9.346305815014892E-02
   9.565466564324973E-02   9.789315439388309E-02   1.001792963871558E-01
   1.025138638482902E-01   1.048976284052610E-01   1.073313601976803E-01
   1.098158269296568E-01   1.123517928643140E-01   1.149400177575925E-01
   1.175812557289203E-01   1.202762540662927E-01   1.230257519632578E-01
   1.258304791852720E-01   1.286911546628612E-01   1.316084850089906E-01
   1.345831629580362E-01   1.376158657237329E-01   1.407072532734729E-01
   1.438579665163323E-01   1.470686254022143E-01   1.503398269295320E-01
   1.536721430588779E-01   1.570661185301864E-01   1.605222685809562E-01
   1.640410765631710E-01   1.676229914566705E-01   1.712684252768151E-01
   1.749777503744384E-01   1.787512966262292E-01   1.825893485138597E-01
   1.864921420903884E-01   1.904598618326845E-01   1.944926373788849E-01
   1.985905401501871E-01   2.027535798565855E-01   2.069817008865419E-01
   2.112747785809457E-01   2.156326153921740E-01   2.200549369295278E-01
   2.245413878928335E-01   2.290915278965868E-01   2.337048271876036E-01
   2.383806622598312E-01   2.431183113706954E-01   2.479169499641183E-01
   2.527756460062140E-01   2.576933552405394E-01   2.626689163707595E-01
   2.677010461796300E-01   2.727883345942673E-01   2.779292397088950E-01
   2.831220827774575E-01   2.883650431898366E-01   2.936561534468016E-01
   2.989932941502627E-01   3.043741890269889E-01   3.097964000055221E-01
   3.152573223677447E-01   3.207541799983201E-01   3.262840207570345E-01
   3.318437120010111E-01   3.374299362856873E-01   3.430391872754917E-01
   3.486677658972219E-01   3.543117767712056E-01   3.599671249575055E-01
   3.656295130565420E-01   3.712944387056938E-01   3.769571925155869E-01
   3.826128564918725E-01   3.882563029904105E-01   3.938821942557290E-01
   3.994849825945555E-01   4.050589112379916E-01   4.105980159474855E-01
   4.160961274212154E-01   4.215468745586439E-01   4.269436886419291E-01
   4.322798084934656E-01   4.375482866690034E-01   4.427419967456141E-01
   4.478536417630123E-01   4.528757638755013E-01   4.578007552699107E-01
   4.626208704022837E-01   4.673282396027457E-01   4.719148840937203E-01
   4.763727324615292E-01   4.806936386152111E-01   4.848694012590690E-01
   4.888917848969436E-01   4.927525423763468E-01   4.964434389693451E-01
   4.999562779743270E-01   5.032829278084069E-01   5.064153505441922E-01
   5.093456318267762E-01   5.120660120871542E-01   5.145689189466329E-01
   5.168470006831922E-01   5.188931606051584E-01   5.207005921498471E-01
   5.222628144951391E-01   5.235737084402100E-01   5.246275522779442E-01
   5.254190573460246E-01   5.259434029064128E-01   5.261962699641655E-01
   5.261738735964381E-01   5.258729933215091E-01   5.252910009960068E-01
   5.244258856867553E-01   5.232762749222858E-01   5.218414516887231E-01
   5.201213664962026E-01   5.181166438060185E-01   5.158285820763407E-01
   5.132591466566165E-01   5.104109547389214E-01   5.072872515598993E-01
   5.038918770409606E-01   5.002292220587853E-01   4.963041735545832E-01
   4.921220477209259E-01   4.876885105512936E-01   4.830094851018382E-01
   4.780910448995787E-01   4.729392930384574E-01   4.675602266368465E-01
   4.619595864894938E-01   4.561426919357785E-01   4.501142611868192E-01
   4.438782176083749E-01   4.374374827464681E-01   4.307937572097492E-01
   4.239472908877914E-01   4.168966443884254E-01   4.096384440196578E-01
   4.021683405008843E-01   3.944852623656521E-01   3.865891977377995E-01
   3.784801935243234E-01   3.701583541731987E-01   3.616238404270877E-01
   3.528768680762013E-01   3.439177067132039E-01   3.347466784926748E-01
   3.253641568972533E-01   3.157705655122078E-01   3.059663768097896E-01
   2.959521109443799E-01   2.857283345591115E-01   2.752956596043737E-01
   2.646547421683947E-01   2.538062813199447E-01   2.427510179631498E-01
   2.314897337044700E-01   2.200232497320722E-01   2.083524257081428E-01
   1.964781586751774E-01   1.844013819779448E-01   1.721230642036461E-01
   1.596442081438643E-01   1.469658497831674E-01   1.340890573206773E-01
   1.210149302326096E-01   1.077445983856946E-01   9.427922121346349E-02
   8.061998696964290E-02   6.676811207529207E-02   5.272484057881172E-02
   3.849144375049753E-02   2.406921983585202E-02   9.459493994339889E-03
  -5.336381547397122E-03  -2.031702709673609E-02  -3.548103481773272E-02
  -5.082696774086112E-02  -6.635335842447165E-02  -8.205870723216438E-02
  -9.794148019044376E-02  -1.140001063918580E-01  -1.302329749103882E-01
  -1.466384311981733E-01  -1.632147729357610E-01  -1.799602453119745E-01
  -1.968730357141608E-01  -2.139512678150254E-01  -2.311929950484101E-01
  -2.485961934731792E-01  -2.661587540317792E-01  -2.838784742179418E-01
  -3.017530491763145E-01  -3.197800622654331E-01  -3.379569751242844E-01
  -3.562811172916328E-01  -3.747496754361950E-01  -3.933596822645113E-01
  -4.121080051818874E-01  -4.309913347899214E-01  -4.500061733117963E-01
  -4.691488230435459E-01  -4.884153749358868E-01  -5.078016974167557E-01
  -5.273034255690456E-01  -5.469159507815622E-01  -5.666344109937272E-01
  -5.864536816552530E-01  -6.063683675215661E-01  -6.263727954038874E-01
  -6.464610079891366E-01  -6.666267588395050E-01  -6.868635086743641E-01
  -7.071644230281777E-01  -7.275223713671950E-01  -7.479299277349695E-01
  -7.683793729821989E-01  -7.888626986201215E-01  -8.093716123188721E-01
  -8.298975450529984E-01  -8.504316598759997E-01  -8.709648622845794E-01
  -8.914878121116450E-01  -9.119909368653122E-01  -9.324644464097068E-01
  -9.528983488626239E-01  -9.732824675655487E-01  -9.936064589635945E-01
  -1.013859831216980E+00  -1.034031963352118E+00  -1.054112124749542E+00
  -1.074089494758001E+00  -1.093953182219299E+00  -1.113692244686914E+00
  -1.133295707123141E+00  -1.152752579864386E+00  -1.172051875652099E+00
  -1.191182625537527E+00  -1.210133893481622E+00  -1.228894789486751E+00
  -1.247454481113948E+00  -1.265802203257935E+00  -1.283927266071532E+00
  -1.301819060951101E+00  -1.319467064514827E+00  -1.336860840525628E+00
  -1.353990039729977E+00  -1.370844397602628E+00  -1.387413730004955E+00
  -1.403687926781123E+00  -1.419656943331526E+00  -1.435310790216726E+00
  -1.450639520857487E+00  -1.465633217407438E+00  -1.480281974884395E+00
  -1.494575883654562E+00  -1.508505010370770E+00  -1.522059377471643E+00
  -1.535228941353414E+00  -1.548003569329886E+00  -1.560373015499219E+00
  -1.572326895638648E+00  -1.583854661250265E+00  -1.594945572882620E+00
  -1.605588672854312E+00  -1.615772757507015E+00  -1.625486349116686E+00
  -1.634717667593036E+00  -1.643454602098930E+00  -1.651684682723141E+00
  -1.659395052342028E+00  -1.666572438808206E+00  -1.673203127607193E+00
  -1.679272935126443E+00  -1.684767182685071E+00  -1.689670671477010E+00
  -1.693967658585323E+00  -1.697641834230952E+00  -1.700676300425257E+00
  -1.703053551202402E+00  -1.704755454614837E+00  -1.705763236682917E+00
  -1.706057467497982E+00  -1.705618049687018E+00  -1.704424209456326E+00
  -1.702454490441325E+00  -1.699686750599770E+00  -1.696098162396167E+00
  -1.691665216536000E+00  -1.686363729519449E+00  -1.680168855295597E+00
  -1.673055101309808E+00  -1.664996349248197E+00  -1.655965880792256E+00
  -1.645936408712099E+00  -1.634880113640053E+00  -1.622768686865339E+00
  -1.609573379513779E+00  -1.595265058478998E+00  -1.579814269482707E+00
  -1.563191307649072E+00  -1.545366295985928E+00  -1.526309272170179E+00
  -1.505990284031973E+00  -1.484379494146209E+00  -1.461447293946240E+00
  -1.437164427738062E+00  -1.411502127026097E+00  -1.384432255532778E+00
  -1.355927465289396E+00  -1.325961364159121E+00  -1.294508695133894E+00
  -1.261545527722951E+00  -1.227049461721363E+00  -1.190999843614715E+00
  -1.153377995810452E+00  -1.114167459041499E+00  -1.073360272686289E+00
  -1.030970127109417E+00  -9.870063346918089E-01  -9.414469403154928E-01
  -8.942923127176000E-01  -8.455411405642418E-01  -7.951973954444045E-01
  -7.432697435048972E-01  -6.897719647936641E-01  -6.347233144218509E-01
  -5.781488901676197E-01  -5.200800082828371E-01  -4.605545857932466E-01
  -3.996175278184877E-01  -3.373211181728395E-01  -2.737254112704413E-01
  -2.088986230993984E-01  -1.429175187537927E-01  -7.586779372642373E-02
  -7.844445850539008E-03   6.104786554244546E-02   1.306944770236632E-01
   2.009703991550103E-01   2.717400197619625E-01   3.428568372675196E-01
   4.141632293524024E-01   4.854902626017146E-01   5.566575491966363E-01
   6.274731571074929E-01   6.977335806372856E-01   7.672237785472847E-01
   8.357172873626177E-01   9.029764177991760E-01   9.687525425659315E-01
   1.032786484070328E+00   1.094809010779200E+00   1.154541451153071E+00
   1.211696434166034E+00   1.265978765433940E+00   1.317086447886507E+00
   1.364711855719195E+00   1.408543070032379E+00   1.448265384091343E+00
   1.483562985503118E+00   1.514120821786248E+00   1.539626654787899E+00
   1.559773308159563E+00   1.574261110617385E+00   1.582800535966403E+00
   1.585115038839733E+00   1.580944082775514E+00   1.570046354608851E+00
   1.552203156177846E+00   1.527221961019421E+00   1.494940120052851E+00
   1.455228696211995E+00   1.407996403591374E+00   1.353193621923506E+00
   1.290816452119401E+00   1.220910773203989E+00   1.143576255296649E+00
   1.058970277368594E+00   9.673116924113455E-01   8.688843764459482E-01
   7.640404915790915E-01   6.532033871753316E-01   5.368700572884275E-01
   4.156130669236253E-01   2.900818546517850E-01   1.610033147524702E-01
   2.918155863551929E-02  -1.045032469898878E-01  -2.390970686109378E-01
  -3.735753236941011E-01  -5.068474276273912E-01  -6.377626646797814E-01
  -7.651174702439795E-01  -8.876642011425316E-01  -1.004121457082256E+00
  -1.113185999136066E+00  -1.213546290134619E+00  -1.303897656817874E+00
  -1.382959044332700E+00  -1.449491300036290E+00  -1.502316885528898E+00
  -1.540340873448941E+00  -1.562573038999050E+00  -1.568150805760766E+00
  -1.556362751596698E+00  -1.526672324025066E+00  -1.478741356293529E+00
  -1.412452916627253E+00  -1.327932965189076E+00  -1.225570237849045E+00
  -1.106033724880724E+00  -9.702870684299627E-01  -8.195991675611881E-01
  -6.555502566545773E-01  -4.800327149028288E-01  -2.952458748057954E-01
  -1.036841291502495E-01   9.188230773814272E-02   2.884345445112991E-01
   4.827405081682687E-01   6.713990871280596E-01   8.508930354572563E-01
   1.017650532079713E+00   1.168115032946263E+00   1.298822763383109E+00
   1.406486875060090E+00   1.488086941953754E+00   1.540962099139371E+00
   1.562905746348266E+00   1.552259356562794E+00   1.508002562655493E+00
   1.429836358954864E+00   1.318255968845214E+00   1.174609715486761E+00
   1.001140113633650E+00   8.010034005945976E-01   5.782638681130235E-01
   3.378596679323979E-01   8.553726337468667E-02  -1.722475951887210E-01
  -4.284635698898434E-01  -6.756721641230164E-01  -9.062295744889735E-01
  -1.112519102396147E+00  -1.287209539310715E+00  -1.423533100478197E+00
  -1.515574591651353E+00  -1.558561635449168E+00  -1.549144059584740E+00
  -1.485649075663658E+00  -1.368297785182354E+00  -1.199367978086137E+00
  -9.832882804445624E-01  -7.266495971258168E-01  -4.381216022065919E-01
  -1.282648454058248E-01   1.907670833444281E-01   5.056359631152763E-01
   8.023326546893222E-01   1.066784126436095E+00   1.285534516418212E+00
   1.446473450598858E+00   1.539577565992388E+00   1.557624688344832E+00
   1.496834999441749E+00   1.357390457269685E+00   1.143783365264520E+00
   8.649479389876926E-01   5.341354926012727E-01   1.685047831018267E-01
  -2.115858321621264E-01  -5.835787227138158E-01  -9.239817909095978E-01
  -1.209845304221205E+00  -1.420373287697485E+00  -1.538568439701634E+00
  -1.552789776081338E+00  -1.458088857711977E+00  -1.257186136282944E+00
  -9.609560547140169E-01  -5.883099124550111E-01
    </PP_PSWFC.4>
  </PP_FULL_WFC>
  <PP_RHOATOM size="1085">
   4.907932521957522E-08   5.032177451475212E-08   5.159567657701426E-08
   5.290182763763969E-08   5.424104408463304E-08   5.561416297299656E-08
   5.702204254791945E-08   5.846556278121292E-08   5.994562592132310E-08
   6.146315705727045E-08   6.301910469686257E-08   6.461444135954665E-08
   6.625016418426978E-08   6.792729555272670E-08   6.964688372838675E-08
   7.141000351169620E-08   7.321775691186845E-08   7.507127383568062E-08
   7.697171279370715E-08   7.892026162443228E-08   8.091813823669323E-08
   8.296659137091847E-08   8.506690137963796E-08   8.722038102775157E-08
   8.942837631305709E-08   9.169226730754919E-08   9.401346902001787E-08
   9.639343228048232E-08   9.883364464701628E-08   1.013356313355284E-07
   1.039009561730812E-07   1.065312225753445E-07   1.092280745487918E-07
   1.119931977182692E-07   1.148283203805774E-07   1.177352145847252E-07
   1.207156972395303E-07   1.237716312492605E-07   1.269049266780218E-07
   1.301175419436282E-07   1.334114850416891E-07   1.367888148006890E-07
   1.402516421688407E-07   1.438021315335132E-07   1.474425020740634E-07
   1.511750291489157E-07   1.550020457177551E-07   1.589259437997255E-07
   1.629491759685424E-07   1.670742568854564E-07   1.713037648710212E-07
   1.756403435166577E-07   1.800867033370111E-07   1.846456234641401E-07
   1.893199533845976E-07   1.941126147204835E-07   1.990266030555888E-07
   2.040649898077694E-07   2.092309241487191E-07   2.145276349723459E-07
   2.199584329129761E-07   2.255267124146537E-07   2.312359538528248E-07
   2.370897257097329E-07   2.430916868048906E-07   2.492455885820122E-07
   2.555552774538450E-07   2.620246972063629E-07   2.686578914638231E-07
   2.754590062162299E-07   2.824322924107808E-07   2.895821086089203E-07
   2.969129237106589E-07   3.044293197478623E-07   3.121359947482551E-07
   3.200377656719275E-07   3.281395714221891E-07   3.364464759326386E-07
   3.449636713323938E-07   3.536964811914484E-07   3.626503638481887E-07
   3.718309158211565E-07   3.812438753071781E-07   3.908951257680581E-07
   4.007906996080744E-07   4.109367819445719E-07   4.213397144740176E-07
   4.320059994359297E-07   4.429423036771548E-07   4.541554628190509E-07
   4.656524855301543E-07   4.774405579070255E-07   4.895270479660029E-07
   5.019195102486675E-07   5.146256905439123E-07   5.276535307295510E-07
   5.410111737365013E-07   5.547069686386546E-07   5.687494758715924E-07
   5.831474725834415E-07   5.979099581211780E-07   6.130461596558409E-07
   6.285655379501608E-07   6.444777932721992E-07   6.607928714587171E-07
   6.775209701320371E-07   6.946725450743122E-07   7.122583167631705E-07
   7.302892770728217E-07   7.487766961448290E-07   7.677321294328184E-07
   7.871674249255525E-07   8.070947305528773E-07   8.275265017791644E-07
   8.484755093890082E-07   8.699548474700382E-07   8.919779415978350E-07
   9.145585572280847E-07   9.377108083011947E-07   9.614491660647725E-07
   9.857884681194584E-07   1.010743927693810E-06   1.036331143153980E-06
   1.062566107754196E-06   1.089465219634092E-06   1.117045292069150E-06
   1.145323563980698E-06   1.174317710711976E-06   1.204045855077078E-06
   1.234526578689605E-06   1.265778933578179E-06   1.297822454096030E-06
   1.330677169132151E-06   1.364363614631612E-06   1.398902846432895E-06
   1.434316453430263E-06   1.470626571069385E-06   1.507855895184701E-06
   1.546027696187117E-06   1.585165833610957E-06   1.625294771029229E-06
   1.666439591346566E-06   1.708626012479398E-06   1.751880403433136E-06
   1.796229800786468E-06   1.841701925593035E-06   1.888325200711084E-06
   1.936128768571927E-06   1.985142509398341E-06   2.035397059884259E-06
   2.086923832347480E-06   2.139755034367367E-06   2.193923688919792E-06
   2.249463655021976E-06   2.306409648900081E-06   2.364797265692834E-06
   2.424663001704737E-06   2.486044277222817E-06   2.548979459911146E-06
   2.613507888797815E-06   2.679669898869330E-06   2.747506846287821E-06
   2.817061134246901E-06   2.888376239482244E-06   2.961496739453615E-06
   3.036468340215146E-06   3.113337904991609E-06   3.192153483478228E-06
   3.272964341882598E-06   3.355820993727475E-06   3.440775231433577E-06
   3.527880158702387E-06   3.617190223718997E-06   3.708761253195928E-06
   3.802650487279225E-06   3.898916615338507E-06   3.997619812663700E-06
   4.098821778091025E-06   4.202585772582139E-06   4.308976658780421E-06
   4.418060941569074E-06   4.529906809656738E-06   4.644584178216280E-06
   4.762164732603766E-06   4.882721973184810E-06   5.006331261296369E-06
   5.133069866372968E-06   5.263017014266571E-06   5.396253936790575E-06
   5.532863922518930E-06   5.672932368871991E-06   5.816546835522209E-06
   5.963797099152432E-06   6.114775209601772E-06   6.269575547433868E-06
   6.428294882963511E-06   6.591032436779056E-06   6.757889941798003E-06
   6.928971706895076E-06   7.104384682142449E-06   7.284238525702899E-06
   7.468645672418296E-06   7.657721404135681E-06   7.851583921815760E-06
   8.050354419468536E-06   8.254157159962472E-06   8.463119552755093E-06
   8.677372233593175E-06   8.897049146233081E-06   9.122287626232139E-06
   9.353228486863480E-06   9.590016107208964E-06   9.832798522484419E-06
   1.008172751665462E-05   1.033695871739600E-05   1.059865169346612E-05
   1.086697005454207E-05   1.114208155358922E-05   1.142415819182550E-05
   1.171337632634683E-05   1.200991678048088E-05   1.231396495693927E-05
   1.262571095383827E-05   1.294534968366167E-05   1.327308099524034E-05
   1.360910979882448E-05   1.395364619432832E-05   1.430690560282669E-05
   1.466910890138675E-05   1.504048256131969E-05   1.542125878993833E-05
   1.581167567591174E-05   1.621197733830547E-05   1.662241407940400E-05
   1.704324254140951E-05   1.747472586711602E-05   1.791713386466102E-05
   1.837074317645646E-05   1.883583745240699E-05   1.931270752752383E-05
   1.980165160404568E-05   2.030297543818258E-05   2.081699253159877E-05
   2.134402432775656E-05   2.188440041324403E-05   2.243845872421380E-05
   2.300654575806296E-05   2.358901679048749E-05   2.418623609804822E-05
   2.479857718638861E-05   2.542642302424824E-05   2.607016628341988E-05
   2.673020958480139E-05   2.740696575069792E-05   2.810085806353384E-05
   2.881232053113733E-05   2.954179815876595E-05   3.028974722804452E-05
   3.105663558299168E-05   3.184294292331685E-05   3.264916110517161E-05
   3.347579444954712E-05   3.432336005851216E-05   3.519238813949176E-05
   3.608342233779283E-05   3.699702007758613E-05   3.793375291156128E-05
   3.889420687947699E-05   3.987898287583274E-05   4.088869702689632E-05
   4.192398107732575E-05   4.298548278663119E-05   4.407386633572884E-05
   4.518981274384481E-05   4.633402029603485E-05   4.750720498159005E-05
   4.871010094360956E-05   4.994346094002452E-05   5.120805681636833E-05
   5.250467999059326E-05   5.383414195024312E-05   5.519727476229851E-05
   5.659493159602062E-05   5.802798725912618E-05   5.949733874763745E-05
   6.100390580975690E-05   6.254863152412886E-05   6.413248289285625E-05
   6.575645144965362E-05   6.742155388352463E-05   6.912883267836420E-05
   7.087935676889607E-05   7.267422221336483E-05   7.451455288341633E-05
   7.640150117160906E-05   7.833624871700929E-05   8.032000714934092E-05
   8.235401885216501E-05   8.443955774558287E-05   8.657793008896759E-05
   8.877047530423936E-05   9.101856682022052E-05   9.332361293861152E-05
   9.568705772215039E-05   9.811038190553146E-05   1.005951038296698E-04
   1.031427803999215E-04   1.057550080688793E-04   1.084334238443814E-04
   1.111797063233920E-04   1.139955767524220E-04   1.168828001151863E-04
   1.198431862481995E-04   1.228785909850476E-04   1.259909173300758E-04
   1.291821166622624E-04   1.324541899700710E-04   1.358091891180844E-04
   1.392492181462579E-04   1.427764346026400E-04   1.463930509104444E-04
   1.501013357703652E-04   1.539036155990704E-04   1.578022760048144E-04
   1.617997633011540E-04   1.658985860597627E-04   1.701013167033798E-04
   1.744105931399476E-04   1.788291204390262E-04   1.833596725516028E-04
   1.880050940744422E-04   1.927683020601535E-04   1.976522878741939E-04
   2.026601191000464E-04   2.077949414938499E-04   2.130599809898069E-04
   2.184585457577040E-04   2.239940283139493E-04   2.296699076875440E-04
   2.354897516424606E-04   2.414572189579333E-04   2.475760617682128E-04
   2.538501279633798E-04   2.602833636528541E-04   2.668798156932905E-04
   2.736436342825859E-04   2.805790756217870E-04   2.876905046467288E-04
   2.949823978312889E-04   3.024593460641977E-04   3.101260576013986E-04
   3.179873610960051E-04   3.260482087079777E-04   3.343136792956775E-04
   3.427889816915421E-04   3.514794580641796E-04   3.603905873692425E-04
   3.695279888915229E-04   3.788974258807764E-04   3.885048092838440E-04
   3.983562015757436E-04   4.084578206924480E-04   4.188160440681806E-04
   4.294374127801154E-04   4.403286358034714E-04   4.514965943800789E-04
   4.629483465035683E-04   4.746911315244684E-04   4.867323748785433E-04
   4.990796929418536E-04   5.117408980160997E-04   5.247240034479058E-04
   5.380372288858630E-04   5.516890056792017E-04   5.656879824221365E-04
   5.800430306480268E-04   5.947632506776110E-04   6.098579776257478E-04
   6.253367875711910E-04   6.412095038940910E-04   6.574862037860566E-04
   6.741772249377556E-04   6.912931724092167E-04   7.088449256881172E-04
   7.268436459415470E-04   7.453007834668939E-04   7.642280853476905E-04
   7.836376033204165E-04   8.035417018585172E-04   8.239530664800010E-04
   8.448847122852840E-04   8.663499927321004E-04   8.883626086545421E-04
   9.109366175335445E-04   9.340864430263460E-04   9.578268847627012E-04
   9.821731284159342E-04   1.007140756057094E-03   1.032745756800878E-03
   1.059004537752141E-03   1.085933935262251E-03   1.113551226504741E-03
   1.141874141380094E-03   1.170920874759841E-03   1.200710099080472E-03
   1.231260977298033E-03   1.262593176214679E-03   1.294726880188778E-03
   1.327682805240698E-03   1.361482213566670E-03   1.396146928473685E-03
   1.431699349748801E-03   1.468162469476639E-03   1.505559888319523E-03
   1.543915832274971E-03   1.583255169926049E-03   1.623603430200451E-03
   1.664986820654831E-03   1.707432246301535E-03   1.750967328995413E-03
   1.795620427399187E-03   1.841420657546343E-03   1.888397914021372E-03
   1.936582891777856E-03   1.986007108615645E-03   2.036702928339192E-03
   2.088703584619905E-03   2.142043205586267E-03   2.196756839166371E-03
   2.252880479208425E-03   2.310451092405715E-03   2.369506646053716E-03
   2.430086136667718E-03   2.492229619490897E-03   2.555978238923528E-03
   2.621374259905405E-03   2.688461100284758E-03   2.757283364208158E-03
   2.827886876567438E-03   2.900318718540793E-03   2.974627264266953E-03
   3.050862218692693E-03   3.129074656635459E-03   3.209317063104854E-03
   3.291643374928071E-03   3.376109023726406E-03   3.462770980291889E-03
   3.551687800414675E-03   3.642919672214439E-03   3.736528465030665E-03
   3.832577779929063E-03   3.931133001883929E-03   4.032261353698139E-03
   4.136031951725585E-03   4.242515863463024E-03   4.351786167081173E-03
   4.463918012967995E-03   4.578988687359464E-03   4.697077678137054E-03
   4.818266742873609E-03   4.942639979213117E-03   5.070283897673303E-03
   5.201287496963481E-03   5.335742341914128E-03   5.473742644118544E-03
   5.615385345390936E-03   5.760770204150007E-03   5.909999884840988E-03
   6.063180050514618E-03   6.220419458685567E-03   6.381830060598570E-03
   6.547527104035598E-03   6.717629239802767E-03   6.892258632041958E-03
   7.071541072517527E-03   7.255606099035316E-03   7.444587118157224E-03
   7.638621532381801E-03   7.837850871968104E-03   8.042420931587618E-03
   8.252481911996835E-03   8.468188566930447E-03   8.689700355424445E-03
   8.917181599786201E-03   9.150801649438021E-03   9.390735050869903E-03
   9.637161723947347E-03   9.890267144829304E-03   1.015024253576310E-02
   1.041728506203320E-02   1.069159803635232E-02   1.097339113099570E-02
   1.126288059799048E-02   1.156028949768661E-02   1.186584793604698E-02
   1.217979331101024E-02   1.250237056829211E-02   1.283383246700723E-02
   1.317443985550833E-02   1.352446195785549E-02   1.388417667134442E-02
   1.425387087554056E-02   1.463384075328244E-02   1.502439212413684E-02
   1.542584079080680E-02   1.583851289901297E-02   1.626274531138940E-02
   1.669888599595507E-02   1.714729442974468E-02   1.760834201820391E-02
   1.808241253097723E-02   1.856990255474042E-02   1.907122196375305E-02
   1.958679440883301E-02   2.011705782547828E-02   2.066246496188984E-02
   2.122348392767534E-02   2.180059876404018E-02   2.239431003630311E-02
   2.300513544960021E-02   2.363361048867129E-02   2.428028908265439E-02
   2.494574429584195E-02   2.563056904538626E-02   2.633537684697193E-02
   2.706080258950510E-02   2.780750333990353E-02   2.857615917910128E-02
   2.936747407041883E-02   3.018217676147881E-02   3.102102172088406E-02
   3.188479011090526E-02   3.277429079746080E-02   3.369036139870277E-02
   3.463386937355625E-02   3.560571315159045E-02   3.660682330563163E-02
   3.763816376855740E-02   3.870073309574123E-02   3.979556577464404E-02
   4.092373358307492E-02   4.208634699766693E-02   4.328455665413697E-02
   4.451955486091615E-02   4.579257716775572E-02   4.710490399092399E-02
   4.845786229662224E-02   4.985282734424917E-02   5.129122449114794E-02
   5.277453106046247E-02   5.430427827372017E-02   5.588205324974310E-02
   5.750950107146297E-02   5.918832692218772E-02   6.092029829282385E-02
   6.270724726151362E-02   6.455107284708383E-02   6.645374343763377E-02
   6.841729929550835E-02   7.044385513980639E-02   7.253560280746398E-02
   7.469481399382982E-02   7.692384307350261E-02   7.922513000204875E-02
   8.160120329903271E-02   8.405468311259236E-02   8.658828436557622E-02
   8.920481998300009E-02   9.190720420032150E-02   9.469845595171689E-02
   9.758170233722496E-02   1.005601821672514E-01   1.036372495825378E-01
   1.068163777472595E-01   1.101011626124545E-01   1.134953267464634E-01
   1.170027232285139E-01   1.206273396009751E-01   1.243733018751647E-01
   1.282448785848821E-01   1.322464848810952E-01   1.363826866603912E-01
   1.406582047189290E-01   1.450779189227073E-01   1.496468723839502E-01
   1.543702756323596E-01   1.592535107688351E-01   1.643021355880547E-01
   1.695218876550304E-01   1.749186883193738E-01   1.804986466495718E-01
   1.862680632680395E-01   1.922334340660962E-01   1.984014537763281E-01
   2.047790193779907E-01   2.113732333092489E-01   2.181914064580706E-01
   2.252410609015484E-01   2.325299323612831E-01   2.400659723402328E-01
   2.478573499041237E-01   2.559124530681441E-01   2.642398897471592E-01
   2.728484882251806E-01   2.817472970972130E-01   2.909455846339666E-01
   3.004528375172407E-01   3.102787588910476E-01   3.204332656708505E-01
   3.309264850505152E-01   3.417687501438921E-01   3.529705946952570E-01
   3.645427467902238E-01   3.764961214962415E-01   3.888418123593599E-01
   4.015910816817188E-01   4.147553495021536E-01   4.283461812004622E-01
   4.423752736443581E-01   4.568544397968612E-01   4.717955917010459E-01
   4.872107217586292E-01   5.031118822189357E-01   5.195111627954211E-01
   5.364206663281680E-01   5.538524824127323E-01   5.718186589184554E-01
   5.903311713229485E-01   6.094018897940471E-01   6.290425439560932E-01
   6.492646852841721E-01   6.700796470779169E-01   6.914985019757519E-01
   7.135320169812716E-01   7.361906059856632E-01   7.594842797840169E-01
   7.834225935990001E-01   8.080145921428030E-01   8.332687522676292E-01
   8.591929232762907E-01   8.857942649878126E-01   9.130791836783934E-01
   9.410532660455129E-01   9.697212113727227E-01   9.990867621042256E-01
   1.029152633072178E+00   1.059920439655363E+00   1.091390625185235E+00
   1.123562387954688E+00   1.156433608225242E+00   1.190000775670112E+00
   1.224258917733103E+00   1.259201529425847E+00   1.294820505128747E+00
   1.331106073002582E+00   1.368046732658233E+00   1.405629196770164E+00
   1.443838337354077E+00   1.482657137460340E+00   1.522066649060086E+00
   1.562045957920214E+00   1.602572156274793E+00   1.643620324102180E+00
   1.685163519808564E+00   1.727172781096879E+00   1.769617136764460E+00
   1.812463630120790E+00   1.855677354646497E+00   1.899221502424966E+00
   1.943057425765620E+00   1.987144712302345E+00   2.031441273689176E+00
   2.075903447826601E+00   2.120486114335105E+00   2.165142822745528E+00
   2.209825932599040E+00   2.254486764342172E+00   2.299075759564650E+00
   2.343542648762092E+00   2.387836624412366E+00   2.431906516738428E+00
   2.475700969094831E+00   2.519168609465910E+00   2.562258214108634E+00
   2.604918858919977E+00   2.647100053669500E+00   2.688751853824389E+00
   2.729824944321690E+00   2.770270689328351E+00   2.810041141792583E+00
   2.849089006452619E+00   2.887367549954587E+00   2.924830451866014E+00
   2.961431590684341E+00   2.997124759459177E+00   3.031863306404861E+00
   3.065599696906790E+00   3.098284994651869E+00   3.129868261270828E+00
   3.160295875893995E+00   3.189510778416909E+00   3.217451643064743E+00
   3.244051992045057E+00   3.269239262687995E+00   3.292933845478773E+00
   3.315048114763808E+00   3.335485478614252E+00   3.354139479294580E+00
   3.370892980921566E+00   3.385633191713806E+00   3.398305065991373E+00
   3.408876305077314E+00   3.417324269765533E+00   3.423636991264021E+00
   3.427814203209857E+00   3.429868386438244E+00   3.429825816625820E+00
   3.427718695542279E+00   3.423555226527994E+00   3.417339501765083E+00
   3.409079396690056E+00   3.398786550586533E+00   3.386476335524953E+00
   3.372167813793227E+00   3.355883684011284E+00   3.337650216170330E+00
   3.317497175883928E+00   3.295457738182750E+00   3.271568391227611E+00
   3.245868830356025E+00   3.218401842915860E+00   3.189213184375339E+00
   3.158351446231690E+00   3.125867916270827E+00   3.091816431757413E+00
   3.056253226158558E+00   3.019236770024921E+00   2.980827606670135E+00
   2.941088183303263E+00   2.900082678279235E+00   2.857876825139086E+00
   2.814537734115165E+00   2.770133711776533E+00   2.724734079486371E+00
   2.678408991336721E+00   2.631229252216171E+00   2.583266136653410E+00
   2.534591209064126E+00   2.485276146010477E+00   2.435392561061805E+00
   2.385011832822275E+00   2.334204936666195E+00   2.283042280694794E+00
   2.231593546399828E+00   2.179927534489415E+00   2.128112016300546E+00
   2.076213591190623E+00   2.024297550271748E+00   1.972427746800417E+00
   1.920666473536451E+00   1.869074347317733E+00   1.817710201080907E+00
   1.766630983513087E+00   1.715891666540884E+00   1.665545160699907E+00
   1.615642238568733E+00   1.566231466295928E+00   1.517359143268568E+00
   1.469069249934991E+00   1.421403403767614E+00   1.374400823325805E+00
   1.328098300353903E+00   1.282530179825522E+00   1.237728347822097E+00
   1.193722227111206E+00   1.150538780268385E+00   1.108202520164821E+00
   1.066735527622390E+00   1.026157476016886E+00   9.864856625899401E-01
   9.477350462099177E-01   9.099182913021885E-01   8.730458176494114E-01
   8.371258557431642E-01   8.021645073493521E-01   7.681658109316483E-01
   7.351318115599147E-01   7.030626349143972E-01   6.719565649818054E-01
   6.418101250264321E-01   6.126181614085966E-01   5.843739298141677E-01
   5.570691834530577E-01   5.306942627815807E-01   5.052381863036853E-01
   4.806887420093903E-01   4.570325790154180E-01   4.342552989829985E-01
   4.123415469010945E-01   3.912751008397224E-01   3.710389602974741E-01
   3.516154327894719E-01   3.329862183466736E-01   3.151324916240488E-01
   2.980349813436176E-01   2.816740468284650E-01   2.660297514142894E-01
   2.510819325564043E-01   2.368102684819611E-01   2.231943412683269E-01
   2.102136962592946E-01   1.978478977607742E-01   1.860765809863611E-01
   1.748795002504978E-01   1.642365734326342E-01   1.541279227596489E-01
   1.445339119756933E-01   1.354351799884319E-01   1.268126710983092E-01
   1.186476619329238E-01   1.109217852218204E-01   1.036170505580168E-01
   9.671586230140858E-02   9.020103478587677E-02   8.405580499654988E-02
   7.826384288631255E-02   7.280925950142837E-02   6.767661308516693E-02
   6.285091332572866E-02   5.831762391069656E-02   5.406266354486373E-02
   5.007240558176323E-02   4.633367641173194E-02   4.283375274105709E-02
   3.956035788786522E-02   3.650165721110212E-02   3.364625277939753E-02
   3.098317737698597E-02   2.850188793432566E-02   2.619225846177429E-02
   2.404457255577442E-02   2.204951553859356E-02   2.019816628484536E-02
   1.848198878086843E-02   1.689282345660825E-02   1.542287832396809E-02
   1.406471995067817E-02   1.281126429456897E-02   1.165576741970042E-02
   1.059181611305184E-02   9.613318418366006E-03   8.714494102202038E-03
   7.889865066216507E-03   7.134245719087270E-03   6.442733321245333E-03
   5.810698315612120E-03   5.233774657781625E-03   4.707850159471667E-03
   4.229056859534373E-03   3.793761437307585E-03   3.398555683558271E-03
   3.040247044675458E-03   2.715849256080536E-03   2.422573081011233E-03
   2.157817170883424E-03   1.919159063329893E-03   1.704346333751209E-03
   1.511287915789969E-03   1.338045605559805E-03   1.182825763732440E-03
   1.043971228720875E-03   9.199534532081399E-04   8.093648751747627E-04
   7.109115333911460E-04   6.234059360814601E-04   5.457601901517706E-04
   4.769793970251972E-04   4.161553197588161E-04   3.624603247479609E-04
   3.151415999696487E-04   2.735156503930710E-04   2.369630699049964E-04
   2.049235878736885E-04   1.768913873170834E-04   1.524106905584574E-04
   1.310716072529911E-04   1.125062387572415E-04   9.638503199474860E-05
   8.241337524754930E-05   7.032842767650256E-05   5.989617384306147E-05
   5.090869407019911E-05   4.318164113834123E-05   3.655191355994978E-05
   3.087551551026841E-05   2.602559340555951E-05   2.189063911061446E-05
   1.837284981658821E-05   1.538663475297707E-05   1.285725907762458E-05
   1.071961551912336E-05   8.917114620466524E-06   7.400684744896522E-06
   6.127873348226847E-06   5.062041390710315E-06   4.171643149333215E-06
   3.429584093908799E-06   2.812649901417905E-06   2.301000098529710E-06
   1.877720238007474E-06   1.528426926789197E-06   1.240920428657006E-06
   1.004879959679797E-06   8.115971776447954E-07   6.537437351547959E-07
   5.251691178838754E-07   4.207253722647211E-07   3.361150535535984E-07
   2.677633316399515E-07   2.126958866639957E-07   1.684631275418362E-07
   1.330421014111755E-07   1.047606714683204E-07   8.224560398720975E-08
   6.437412779574252E-08   5.023097239079979E-08   3.907225858700204E-08
   3.029524192208798E-08   2.341303908824552E-08   1.803358323969445E-08
   1.384215647862387E-08   1.058693828944243E-08   8.067088277276712E-09
   6.122951315380866E-09   4.628034102451549E-09   3.482455094892048E-09
   2.607615670511120E-09   1.941879985292996E-09   1.437085067656609E-09
   1.055731719591586E-09   7.687311694343575E-10   5.536103344784756E-10
   3.930745874066024E-10   2.738672695927502E-10   1.862102581280570E-10
   1.210750997413233E-10   0.000000000000000E+00   0.000000000000000E+00
   0.000000000000000E+00   0.000000000000000E+00   0.000000000000000E+00
   0.000000000000000E+00   0.000000000000000E+00   0.000000000000000E+00
   0.000000000000000E+00   0.000000000000000E+00   0.000000000000000E+00
   0.000000000000000E+00   0.000000000000000E+00   0.000000000000000E+00
   0.000000000000000E+00   0.000000000000000E+00   0.000000000000000E+00
   0.000000000000000E+00   0.000000000000000E+00   0.000000000000000E+00
   0.000000000000000E+00   0.000000000000000E+00   0.000000000000000E+00
   0.000000000000000E+00   0.000000000000000E+00   0.000000000000000E+00
   0.000000000000000E+00   0.000000000000000E+00   0.000000000000000E+00
   0.000000000000000E+00   0.000000000000000E+00   0.000000000000000E+00
   0.000000000000000E+00   0.000000000000000E+00   0.000000000000000E+00
   0.000000000000000E+00   0.000000000000000E+00   0.000000000000000E+00
   0.000000000000000E+00   0.000000000000000E+00   0.000000000000000E+00
   0.000000000000000E+00   0.000000000000000E+00   0.000000000000000E+00
   0.000000000000000E+00   0.000000000000000E+00   0.000000000000000E+00
   0.000000000000000E+00   0.000000000000000E+00   0.000000000000000E+00
   0.000000000000000E+00   0.000000000000000E+00   0.000000000000000E+00
   0.000000000000000E+00   0.000000000000000E+00   0.000000000000000E+00
   0.000000000000000E+00   0.000000000000000E+00   0.000000000000000E+00
   0.000000000000000E+00   0.000000000000000E+00   0.000000000000000E+00
   0.000000000000000E+00   0.000000000000000E+00   0.000000000000000E+00
   0.000000000000000E+00   0.000000000000000E+00   0.000000000000000E+00
   0.000000000000000E+00   0.000000000000000E+00   0.000000000000000E+00
   0.000000000000000E+00   0.000000000000000E+00   0.000000000000000E+00
   0.000000000000000E+00   0.000000000000000E+00   0.000000000000000E+00
   0.000000000000000E+00   0.000000000000000E+00   0.000000000000000E+00
   0.000000000000000E+00   0.000000000000000E+00   0.000000000000000E+00
   0.000000000000000E+00   0.000000000000000E+00   0.000000000000000E+00
   0.000000000000000E+00   0.000000000000000E+00   0.000000000000000E+00
   0.000000000000000E+00   0.000000000000000E+00   0.000000000000000E+00
   0.000000000000000E+00   0.000000000000000E+00   0.000000000000000E+00
   0.000000000000000E+00   0.000000000000000E+00   0.000000000000000E+00
   0.000000000000000E+00   0.000000000000000E+00   0.000000000000000E+00
   0.000000000000000E+00   0.000000000000000E+00   0.000000000000000E+00
   0.000000000000000E+00   0.000000000000000E+00   0.000000000000000E+00
   0.000000000000000E+00   0.000000000000000E+00   0.000000000000000E+00
   0.000000000000000E+00   0.000000000000000E+00   0.000000000000000E+00
   0.000000000000000E+00   0.000000000000000E+00   0.000000000000000E+00
   0.000000000000000E+00   0.000000000000000E+00   0.000000000000000E+00
   0.000000000000000E+00   0.000000000000000E+00   0.000000000000000E+00
   0.000000000000000E+00   0.000000000000000E+00   0.000000000000000E+00
   0.000000000000000E+00   0.000000000000000E+00   0.000000000000000E+00
   0.000000000000000E+00   0.000000000000000E+00   0.000000000000000E+00
   0.000000000000000E+00   0.000000000000000E+00   0.000000000000000E+00
   0.000000000000000E+00   0.000000000000000E+00   0.000000000000000E+00
   0.000000000000000E+00   0.000000000000000E+00
  </PP_RHOATOM>
  <PP_PAW paw_data_format="2" core_energy="-81.2987981800234">
    <PP_OCCUPATIONS size="4">
   2.000000000000000E+00   0.000000000000000E+00   3.000000000000000E+00
   0.000000000000000E+00
    </PP_OCCUPATIONS>
    <PP_AE_NLCC size="1085">
   1.998702762306788E+02   1.998637530192019E+02   1.998572300206247E+02
   1.998507072349399E+02   1.998441262105712E+02   1.998373655203674E+02
   1.998304582546992E+02   1.998233994050989E+02   1.998161901620818E+02
   1.998088316371881E+02   1.998013249033212E+02   1.997936710032496E+02
   1.997858709036461E+02   1.997779254486702E+02   1.997698354112383E+02
   1.997616017520817E+02   1.997532254207600E+02   1.997447071463513E+02
   1.997360475905455E+02   1.997272473934562E+02   1.997183071565314E+02
   1.997092273932870E+02   1.997000085909803E+02   1.996906512123302E+02
   1.996811556745586E+02   1.996715223544586E+02   1.996617515599164E+02
   1.996518435687544E+02   1.996417986290760E+02   1.996316169396137E+02
   1.996212986768639E+02   1.996108439719069E+02   1.996002529067946E+02
   1.995895255312490E+02   1.995786618656008E+02   1.995676618921841E+02
   1.995565255511582E+02   1.995452527534089E+02   1.995338433723408E+02
   1.995222972336643E+02   1.995106141339398E+02   1.994987938458443E+02
   1.994868361013056E+02   1.994747405887275E+02   1.994625069670674E+02
   1.994501348679763E+02   1.994376238851781E+02   1.994249735809427E+02
   1.994121834843624E+02   1.993992530919301E+02   1.993861818677472E+02
   1.993729692435540E+02   1.993596146183607E+02   1.993461173596259E+02
   1.993324768049282E+02   1.993186922589229E+02   1.993047629937836E+02
   1.992906882524074E+02   1.992764672462507E+02   1.992620991554813E+02
   1.992475831291877E+02   1.992329182839032E+02   1.992181037066653E+02
   1.992031384545466E+02   1.991880215517404E+02   1.991727519928070E+02
   1.991573287424755E+02   1.991417507343005E+02   1.991260168715202E+02
   1.991101260268070E+02   1.990940770423215E+02   1.990778687297012E+02
   1.990614998700505E+02   1.990449692139237E+02   1.990282754812934E+02
   1.990114173615172E+02   1.989943935132919E+02   1.989772025646020E+02
   1.989598431126593E+02   1.989423137238350E+02   1.989246129335874E+02
   1.989067392463794E+02   1.988886911355866E+02   1.988704670433961E+02
   1.988520653806441E+02   1.988334845270502E+02   1.988147228324081E+02
   1.987957786146718E+02   1.987766501569804E+02   1.987573357126291E+02
   1.987378335018846E+02   1.987181417089767E+02   1.986982584886546E+02
   1.986781819650462E+02   1.986579102281706E+02   1.986374413372968E+02
   1.986167733185266E+02   1.985959041618341E+02   1.985748318254404E+02
   1.985535542332622E+02   1.985320692753991E+02   1.985103748077867E+02
   1.984884686519726E+02   1.984663485948850E+02   1.984440123885909E+02
   1.984214577500476E+02   1.983986823608484E+02   1.983756838669612E+02
   1.983524598784620E+02   1.983290079692600E+02   1.983053256768194E+02
   1.982814105018721E+02   1.982572599081257E+02   1.982328713219646E+02
   1.982082421321442E+02   1.981833696894814E+02   1.981582513065358E+02
   1.981328842572863E+02   1.981072657768014E+02   1.980813930609023E+02
   1.980552632658215E+02   1.980288735078539E+02   1.980022208630018E+02
   1.979753023666147E+02   1.979481150130203E+02   1.979206557551535E+02
   1.978929215041757E+02   1.978649091290887E+02   1.978366154563438E+02
   1.978080372694422E+02   1.977791713085320E+02   1.977500142699972E+02
   1.977205628060407E+02   1.976908135242618E+02   1.976607629872255E+02
   1.976304077120292E+02   1.975997441698597E+02   1.975687687855450E+02
   1.975374779371018E+02   1.975058679552751E+02   1.974739351230799E+02
   1.974416756752565E+02   1.974090857981451E+02   1.973761616309222E+02
   1.973428992639413E+02   1.973092947330996E+02   1.972753440205573E+02
   1.972410430567498E+02   1.972063877257342E+02   1.971713738637157E+02
   1.971359972489148E+02   1.971002536057723E+02   1.970641386061586E+02
   1.970276478670095E+02   1.969907769504235E+02   1.969535213629930E+02
   1.969158765552384E+02   1.968778379210334E+02   1.968394007970252E+02
   1.968005604620442E+02   1.967613121365117E+02   1.967216509818367E+02
   1.966815720998099E+02   1.966410705319891E+02   1.966001412590762E+02
   1.965587792002952E+02   1.965169792127522E+02   1.964747360908002E+02
   1.964320445653896E+02   1.963888993034140E+02   1.963452949070541E+02
   1.963012259131061E+02   1.962566867923123E+02   1.962116719486799E+02
   1.961661757187941E+02   1.961201923711282E+02   1.960737161053397E+02
   1.960267410515681E+02   1.959792612697210E+02   1.959312707487538E+02
   1.958827634059477E+02   1.958337330861725E+02   1.957841735611527E+02
   1.957340785287195E+02   1.956834416120591E+02   1.956322563589577E+02
   1.955805162410319E+02   1.955282146529619E+02   1.954753449117125E+02
   1.954219002557478E+02   1.953678738442451E+02   1.953132587562928E+02
   1.952580479900920E+02   1.952022344621460E+02   1.951458110064430E+02
   1.950887703736387E+02   1.950311052302237E+02   1.949728081576934E+02
   1.949138716517066E+02   1.948542881212383E+02   1.947940498877312E+02
   1.947331491842340E+02   1.946715781545402E+02   1.946093288523182E+02
   1.945463932402344E+02   1.944827631890759E+02   1.944184304768596E+02
   1.943533867879439E+02   1.942876237121297E+02   1.942211327437567E+02
   1.941539052807986E+02   1.940859326239460E+02   1.940172059756910E+02
   1.939477164394034E+02   1.938774550184009E+02   1.938064126150205E+02
   1.937345800296755E+02   1.936619479599185E+02   1.935885069994926E+02
   1.935142476373804E+02   1.934391602568528E+02   1.933632351345052E+02
   1.932864624392999E+02   1.932088322315976E+02   1.931303344621870E+02
   1.930509589713157E+02   1.929706954877093E+02   1.928895336275957E+02
   1.928074628937232E+02   1.927244726743731E+02   1.926405522423781E+02
   1.925556907541273E+02   1.924698772485806E+02   1.923831006462736E+02
   1.922953497483221E+02   1.922066132354311E+02   1.921168796668934E+02
   1.920261374795959E+02   1.919343749870212E+02   1.918415803782479E+02
   1.917477417169571E+02   1.916528469404300E+02   1.915568838585551E+02
   1.914598401528313E+02   1.913617033753729E+02   1.912624609479181E+02
   1.911621001608374E+02   1.910606081721465E+02   1.909579720065201E+02
   1.908541785543091E+02   1.907492145705631E+02   1.906430666740538E+02
   1.905357213463060E+02   1.904271649306311E+02   1.903173836311661E+02
   1.902063635119199E+02   1.900940904958231E+02   1.899805503637871E+02
   1.898657287537686E+02   1.897496111598419E+02   1.896321829312807E+02
   1.895134292716464E+02   1.893933352378882E+02   1.892718857394510E+02
   1.891490655373943E+02   1.890248592435231E+02   1.888992513195289E+02
   1.887722260761443E+02   1.886437676723106E+02   1.885138601143567E+02
   1.883824872551965E+02   1.882496327935373E+02   1.881152802731061E+02
   1.879794130818929E+02   1.878420144514088E+02   1.877030674559655E+02
   1.875625550119706E+02   1.874204598772449E+02   1.872767646503596E+02
   1.871314517699936E+02   1.869845035143161E+02   1.868359020003888E+02
   1.866856291835962E+02   1.865336668570978E+02   1.863799966513083E+02
   1.862246000334048E+02   1.860674583068609E+02   1.859085526110125E+02
   1.857478639206520E+02   1.855853730456541E+02   1.854210606306356E+02
   1.852549071546473E+02   1.850868929309026E+02   1.849169981065409E+02
   1.847452026624286E+02   1.845714864130002E+02   1.843958290061372E+02
   1.842182099230911E+02   1.840386084784466E+02   1.838570038201298E+02
   1.836733749294631E+02   1.834877006212655E+02   1.832999595440022E+02
   1.831101301799845E+02   1.829181908456193E+02   1.827241196917156E+02
   1.825278947038412E+02   1.823294937027393E+02   1.821288943448020E+02
   1.819260741226023E+02   1.817210103654905E+02   1.815136802402507E+02
   1.813040607518250E+02   1.810921287441038E+02   1.808778609007841E+02
   1.806612337463006E+02   1.804422236468270E+02   1.802208068113550E+02
   1.799969592928475E+02   1.797706569894723E+02   1.795418756459160E+02
   1.793105908547812E+02   1.790767780580696E+02   1.788404125487517E+02
   1.786014694724272E+02   1.783599238290753E+02   1.781157504749038E+02
   1.778689241242903E+02   1.776194193518252E+02   1.773672105944559E+02
   1.771122721537336E+02   1.768545781981707E+02   1.765941027657024E+02
   1.763308197662636E+02   1.760647029844791E+02   1.757957260824696E+02
   1.755238626027813E+02   1.752490859714336E+02   1.749713695010950E+02
   1.746906863943862E+02   1.744070097473137E+02   1.741203125528391E+02
   1.738305677045834E+02   1.735377480006717E+02   1.732418261477212E+02
   1.729427747649734E+02   1.726405663885777E+02   1.723351734760245E+02
   1.720265684107346E+02   1.717147235068072E+02   1.713996110139265E+02
   1.710812031224376E+02   1.707594719685859E+02   1.704343896399292E+02
   1.701059281809247E+02   1.697740595986917E+02   1.694387558689574E+02
   1.690999889421856E+02   1.687577307498930E+02   1.684119532111571E+02
   1.680626282393161E+02   1.677097277488712E+02   1.673532236625844E+02
   1.669930879187845E+02   1.666292924788797E+02   1.662618093350800E+02
   1.658906105183374E+02   1.655156681065016E+02   1.651369542326971E+02
   1.647544410939270E+02   1.643681009599011E+02   1.639779061821006E+02
   1.635838292030731E+02   1.631858425659671E+02   1.627839189243091E+02
   1.623780310520217E+02   1.619681518536939E+02   1.615542543750986E+02
   1.611363118139652E+02   1.607142975310098E+02   1.602881850612231E+02
   1.598579481254250E+02   1.594235606420805E+02   1.589849967393875E+02
   1.585422307676331E+02   1.580952373118267E+02   1.576439912046054E+02
   1.571884675394230E+02   1.567286416840157E+02   1.562644892941540E+02
   1.557959863276791E+02   1.553231090588250E+02   1.548458340928338E+02
   1.543641383808582E+02   1.538779992351580E+02   1.533873943445914E+02
   1.528923017903988E+02   1.523927000622865E+02   1.518885680748047E+02
   1.513798851840240E+02   1.508666312045114E+02   1.503487864266025E+02
   1.498263316339760E+02   1.492992481215229E+02   1.487675177135164E+02
   1.482311227820790E+02   1.476900462659439E+02   1.471442716895161E+02
   1.465937831822232E+02   1.460385654981612E+02   1.454786040360294E+02
   1.449138848593521E+02   1.443443947169882E+02   1.437701210639204E+02
   1.431910520823231E+02   1.426071767029072E+02   1.420184846265324E+02
   1.414249663460894E+02   1.408266131686406E+02   1.402234172378176E+02
   1.396153715564693E+02   1.390024700095516E+02   1.383847073872583E+02
   1.377620794083784E+02   1.371345827438766E+02   1.365022150406893E+02
   1.358649749457232E+02   1.352228621300542E+02   1.345758773133087E+02
   1.339240222882241E+02   1.332672999453728E+02   1.326057142980403E+02
   1.319392705072463E+02   1.312679749068934E+02   1.305918350290320E+02
   1.299108596292280E+02   1.292250587120150E+02   1.285344435564227E+02
   1.278390267415573E+02   1.271388221722234E+02   1.264338451045675E+02
   1.257241121717247E+02   1.250096414094524E+02   1.242904522817280E+02
   1.235665657062925E+02   1.228380040801190E+02   1.221047913047824E+02
   1.213669528117118E+02   1.206245155872967E+02   1.198775081978278E+02
   1.191259608142448E+02   1.183699052366656E+02   1.176093749186728E+02
   1.168444049913265E+02   1.160750322868777E+02   1.153012953621539E+02
   1.145232345215836E+02   1.137408918398354E+02   1.129543111840327E+02
   1.121635382355189E+02   1.113686205111353E+02   1.105696073839795E+02
   1.097665501036128E+02   1.089595018156751E+02   1.081485175808777E+02
   1.073336543933328E+02   1.065149711981848E+02   1.056925289085042E+02
   1.048663904214058E+02   1.040366206333508E+02   1.032032864545942E+02
   1.023664568227348E+02   1.015262027153299E+02   1.006825971615282E+02
   9.983571525268306E+01   9.898563415190051E+01   9.813243310247933E+01
   9.727619343520192E+01   9.641699857442784E+01   9.555493404294990E+01
   9.469008746556577E+01   9.382254857132085E+01   9.295240919438002E+01
   9.207976327347943E+01   9.120470684991682E+01   9.032733806403442E+01
   8.944775715014883E+01   8.856606642988650E+01   8.768237030387650E+01
   8.679677524176013E+01   8.590938977047318E+01   8.502032446075614E+01
   8.412969191185410E+01   8.323760673436075E+01   8.234418553116821E+01
   8.144954687648254E+01   8.055381129286511E+01   7.965710122626433E+01
   7.875954101899872E+01   7.786125688065754E+01   7.696237685688577E+01
   7.606303079601909E+01   7.516335031354164E+01   7.426346875433443E+01
   7.336352115268930E+01   7.246364419006373E+01   7.156397615055235E+01
   7.066465687405682E+01   6.976582770713341E+01   6.886763145150493E+01
   6.797021231022246E+01   6.707371583146748E+01   6.617828884998737E+01
   6.528407942615846E+01   6.439123678267742E+01   6.349991123888152E+01
   6.261025414270347E+01   6.172241780027117E+01   6.083655540316281E+01
   5.995282095333523E+01   5.907136918574496E+01   5.819235548868618E+01
   5.731593582187455E+01   5.644226663230793E+01   5.557150476794164E+01
   5.470380738921910E+01   5.383933187850283E+01   5.297823574745694E+01
   5.212067654243418E+01   5.126681174792803E+01   5.041679868815335E+01
   4.957079442682434E+01   4.872895566520396E+01   4.789143863850249E+01
   4.705839901070928E+01   4.622999176794580E+01   4.540637111043269E+01
   4.458769034317019E+01   4.377410176543344E+01   4.296575655919124E+01
   4.216280467656122E+01   4.136539472641775E+01   4.057367386027635E+01
   3.978778765757949E+01   3.900788001051626E+01   3.823409300851109E+01
   3.746656682252116E+01   3.670543958928743E+01   3.595084729568618E+01
   3.520292366333366E+01   3.446180003359922E+01   3.372760525318553E+01
   3.300046556043859E+01   3.228050447255221E+01   3.156784267383498E+01
   3.086259790521036E+01   3.016488485512200E+01   2.947481505201972E+01
   2.879249675860132E+01   2.811803486798839E+01   2.745153080201445E+01
   2.679308241180423E+01   2.614278388082437E+01   2.550072563058358E+01
   2.486699422916217E+01   2.424167230274869E+01   2.362483845035992E+01
   2.301656716192024E+01   2.241692873987251E+01   2.182598922449136E+01
   2.124381032306660E+01   2.067044934312052E+01   2.010595912981998E+01
   1.955038800773897E+01   1.900377972712331E+01   1.846617341480374E+01
   1.793760352989801E+01   1.741809982443686E+01   1.690768730904186E+01
   1.640638622377638E+01   1.591421201428403E+01   1.543117531332016E+01
   1.495728192777540E+01   1.449253283127975E+01   1.403692416246852E+01
   1.359044722898109E+01   1.315308851725411E+01   1.272482970816088E+01
   1.230564769853799E+01   1.189551462862982E+01   1.149439791547081E+01
   1.110226029221375E+01   1.071905985340154E+01   1.034475010616733E+01
   9.979280027337259E+00   9.622594126396880E+00   9.274632514271032E+00
   8.935330977854358E+00   8.604621060217042E+00   8.282430146398447E+00
   7.968681554688477E+00   7.663294633284052E+00   7.366184862195920E+00
   7.077263960268137E+00   6.796439997160596E+00   6.523617510132507E+00
   6.258697625452643E+00   6.001578184250326E+00   5.752153872608937E+00
   5.510316355692606E+00   5.275954415684992E+00   5.048954093308164E+00
   4.829198832678850E+00   4.616569629248549E+00   4.410945180564389E+00
   4.212202039577594E+00   4.020214770217401E+00   3.834856104939700E+00
   3.655997103951299E+00   3.483507315803603E+00   3.317254938978005E+00
   3.157106984474997E+00   3.002929438403238E+00   2.854587424936392E+00
   2.711945368949162E+00   2.574867158071071E+00   2.443216303822315E+00
   2.316856101495732E+00   2.195649788449655E+00   2.079460700478392E+00
   1.968152425929886E+00   1.861588957243961E+00   1.759634839589301E+00
   1.662155316282544E+00   1.569016470678929E+00   1.480085364230078E+00
   1.395230170410788E+00   1.314320304223079E+00   1.237226546991561E+00
   1.163821166170034E+00   1.093978029884586E+00   1.027572715944121E+00
   9.644826150556057E-01   9.045870279894592E-01   8.477672564522017E-01
   7.939066874404970E-01   7.428908708758576E-01   6.946075903556539E-01
   6.489469269063093E-01   6.058013156919470E-01   5.650655957173472E-01
   5.266370526678885E-01   4.904154551480016E-01   4.563030847066087E-01
   4.242047601628038E-01   3.940278568532117E-01   3.656823214981203E-01
   3.390806834107981E-01   3.141380627408340E-01   2.907721763423985E-01
   2.689033416948611E-01   2.484544790892225E-01   2.293511120504812E-01
   2.115213657198761E-01   1.948959627002683E-01   1.794082156983270E-01
   1.649940161992376E-01   1.515918183962247E-01   1.391426176723485E-01
   1.275899230902269E-01   1.168797235706065E-01   1.069604477080107E-01
   9.778291744936050E-02   8.930029611610923E-02   8.146803145317459E-02
   7.424379451950831E-02   6.758741528926560E-02   6.146081581558353E-02
   5.582794173678921E-02   5.065469279804299E-02   4.590885294034324E-02
   4.156002039023866E-02   3.757953807881415E-02   3.394042463328995E-02
   3.061730612020818E-02   2.758634867383944E-02   2.482519211373928E-02
   2.231288463739231E-02   2.002981866390863E-02   1.795766789972977E-02
   1.607932569490278E-02   1.437884475706695E-02   1.284137828881464E-02
   1.145312261192741E-02   1.020126133888194E-02   9.073911147892286E-03
   8.060069212676851E-03   7.149562332252550E-03   6.332997799533303E-03
   5.601716040536383E-03   4.947745048744740E-03   4.363756631800311E-03
   3.843024480348133E-03   3.379384061628565E-03   2.967194333423010E-03
   2.601301267269845E-03   2.277003163542163E-03   1.990017735060863E-03
   1.736450930435713E-03   1.512767463305935E-03   1.315763009101116E-03
   1.142538026869430E-03   9.904731601223728E-04   8.572061675181760E-04
   7.406103315415035E-04   6.387742911221386E-04   5.499832423557568E-04
   4.727014501283930E-04   4.055560124834839E-04   3.473218189861365E-04
   2.969076441109556E-04   2.533433167843297E-04   2.157679076252010E-04
   1.834188761249570E-04   1.556221209619635E-04   1.317828778334776E-04
   1.113774105816835E-04   9.394544296577716E-05   7.908328016320590E-05
   6.643757094590030E-05   5.569966344774869E-05   4.660050949490939E-05
   3.890607458909760E-05   3.241321279521492E-05   2.694596796949882E-05
   2.235226495499152E-05   1.850095655135434E-05   1.527919422116843E-05
   1.259009261170766E-05   1.035066003816371E-05   8.489969081369473E-06
   6.947543391662982E-06   5.671938653555554E-06   4.619497447603404E-06
   3.753259441949815E-06   3.042009953242893E-06   2.459451433037081E-06
   1.983483860391027E-06   1.595581354165642E-06   1.280253560339911E-06
   1.024581522074368E-06   8.178188054881684E-07   6.510496349455760E-07
   5.168966912946339E-07   4.092720485535359E-07   3.231654728657535E-07
   2.544649862144052E-07   1.998052106018562E-07   1.564395604318380E-07
   1.221328459589823E-07   9.507129313504311E-08   7.378737914046588E-08
   5.709723238304294E-08   4.404865466176080E-08   3.387809525016780E-08
   2.597514537440847E-08   1.985333026656218E-08   1.512615777074348E-08
   1.148754025630270E-08   8.695843019474234E-09   6.560929885546576E-09
   4.933677600183989E-09   3.697516858535265E-09   2.761631306210516E-09
   2.055508213538129E-09   1.524587255726018E-09   1.126798245900044E-09
   8.298159340369137E-10   6.088911325655560E-10   4.451433623718502E-10
   3.242217198089673E-10   2.352584312999994E-10   1.700541796915606E-10
   1.224462655395992E-10   8.782044368581678E-11   6.273522309898816E-11
   4.463385188642312E-11   3.162439638287521E-11   2.231248751347182E-11
   1.567463677654354E-11   1.096267437985672E-11   7.631962713187614E-12
   5.287696194600503E-12   3.644901205470551E-12   2.498768906256384E-12
   1.702747390895681E-12   1.152434975512408E-12   7.737913063335163E-13
   5.145479710781947E-13   3.379782910257852E-13   2.184047555837301E-13
   1.379523668807461E-13   8.447679457291554E-14   4.859768280941478E-14
   0.000000000000000E+00   0.000000000000000E+00   0.000000000000000E+00
   0.000000000000000E+00   0.000000000000000E+00   0.000000000000000E+00
   0.000000000000000E+00   0.000000000000000E+00   0.000000000000000E+00
   0.000000000000000E+00   0.000000000000000E+00   0.000000000000000E+00
   0.000000000000000E+00   0.000000000000000E+00   0.000000000000000E+00
   0.000000000000000E+00   0.000000000000000E+00   0.000000000000000E+00
   0.000000000000000E+00   0.000000000000000E+00   0.000000000000000E+00
   0.000000000000000E+00   0.000000000000000E+00   0.000000000000000E+00
   0.000000000000000E+00   0.000000000000000E+00   0.000000000000000E+00
   0.000000000000000E+00   0.000000000000000E+00   0.000000000000000E+00
   0.000000000000000E+00   0.000000000000000E+00   0.000000000000000E+00
   0.000000000000000E+00   0.000000000000000E+00   0.000000000000000E+00
   0.000000000000000E+00   0.000000000000000E+00   0.000000000000000E+00
   0.000000000000000E+00   0.000000000000000E+00   0.000000000000000E+00
   0.000000000000000E+00   0.000000000000000E+00   0.000000000000000E+00
   0.000000000000000E+00   0.000000000000000E+00   0.000000000000000E+00
   0.000000000000000E+00   0.000000000000000E+00   0.000000000000000E+00
   0.000000000000000E+00   0.000000000000000E+00   0.000000000000000E+00
   0.000000000000000E+00   0.000000000000000E+00   0.000000000000000E+00
   0.000000000000000E+00   0.000000000000000E+00   0.000000000000000E+00
   0.000000000000000E+00   0.000000000000000E+00   0.000000000000000E+00
   0.000000000000000E+00   0.000000000000000E+00   0.000000000000000E+00
   0.000000000000000E+00   0.000000000000000E+00   0.000000000000000E+00
   0.000000000000000E+00   0.000000000000000E+00   0.000000000000000E+00
   0.000000000000000E+00   0.000000000000000E+00   0.000000000000000E+00
   0.000000000000000E+00   0.000000000000000E+00   0.000000000000000E+00
   0.000000000000000E+00   0.000000000000000E+00   0.000000000000000E+00
   0.000000000000000E+00   0.000000000000000E+00   0.000000000000000E+00
   0.000000000000000E+00   0.000000000000000E+00   0.000000000000000E+00
   0.000000000000000E+00   0.000000000000000E+00   0.000000000000000E+00
   0.000000000000000E+00   0.000000000000000E+00   0.000000000000000E+00
   0.000000000000000E+00   0.000000000000000E+00   0.000000000000000E+00
   0.000000000000000E+00   0.000000000000000E+00   0.000000000000000E+00
   0.000000000000000E+00   0.000000000000000E+00   0.000000000000000E+00
   0.000000000000000E+00   0.000000000000000E+00   0.000000000000000E+00
   0.000000000000000E+00   0.000000000000000E+00   0.000000000000000E+00
   0.000000000000000E+00   0.000000000000000E+00   0.000000000000000E+00
   0.000000000000000E+00   0.000000000000000E+00   0.000000000000000E+00
   0.000000000000000E+00   0.000000000000000E+00   0.000000000000000E+00
   0.000000000000000E+00   0.000000000000000E+00   0.000000000000000E+00
   0.000000000000000E+00   0.000000000000000E+00   0.000000000000000E+00
   0.000000000000000E+00   0.000000000000000E+00   0.000000000000000E+00
   0.000000000000000E+00   0.000000000000000E+00   0.000000000000000E+00
   0.000000000000000E+00   0.000000000000000E+00   0.000000000000000E+00
   0.000000000000000E+00   0.000000000000000E+00   0.000000000000000E+00
   0.000000000000000E+00   0.000000000000000E+00   0.000000000000000E+00
   0.000000000000000E+00   0.000000000000000E+00   0.000000000000000E+00
   0.000000000000000E+00   0.000000000000000E+00   0.000000000000000E+00
   0.000000000000000E+00   0.000000000000000E+00   0.000000000000000E+00
   0.000000000000000E+00   0.000000000000000E+00   0.000000000000000E+00
   0.000000000000000E+00   0.000000000000000E+00   0.000000000000000E+00
   0.000000000000000E+00   0.000000000000000E+00   0.000000000000000E+00
   0.000000000000000E+00   0.000000000000000E+00   0.000000000000000E+00
   0.000000000000000E+00   0.000000000000000E+00   0.000000000000000E+00
   0.000000000000000E+00   0.000000000000000E+00   0.000000000000000E+00
   0.000000000000000E+00   0.000000000000000E+00   0.000000000000000E+00
   0.000000000000000E+00   0.000000000000000E+00   0.000000000000000E+00
   0.000000000000000E+00   0.000000000000000E+00   0.000000000000000E+00
   0.000000000000000E+00   0.000000000000000E+00   0.000000000000000E+00
   0.000000000000000E+00   0.000000000000000E+00   0.000000000000000E+00
   0.000000000000000E+00   0.000000000000000E+00   0.000000000000000E+00
   0.000000000000000E+00   0.000000000000000E+00   0.000000000000000E+00
   0.000000000000000E+00   0.000000000000000E+00   0.000000000000000E+00
   0.000000000000000E+00   0.000000000000000E+00   0.000000000000000E+00
   0.000000000000000E+00   0.000000000000000E+00   0.000000000000000E+00
   0.000000000000000E+00   0.000000000000000E+00   0.000000000000000E+00
   0.000000000000000E+00   0.000000000000000E+00   0.000000000000000E+00
   0.000000000000000E+00   0.000000000000000E+00   0.000000000000000E+00
   0.000000000000000E+00   0.000000000000000E+00   0.000000000000000E+00
   0.000000000000000E+00   0.000000000000000E+00   0.000000000000000E+00
   0.000000000000000E+00   0.000000000000000E+00   0.000000000000000E+00
   0.000000000000000E+00   0.000000000000000E+00   0.000000000000000E+00
   0.000000000000000E+00   0.000000000000000E+00   0.000000000000000E+00
   0.000000000000000E+00   0.000000000000000E+00   0.000000000000000E+00
   0.000000000000000E+00   0.000000000000000E+00   0.000000000000000E+00
   0.000000000000000E+00   0.000000000000000E+00   0.000000000000000E+00
   0.000000000000000E+00   0.000000000000000E+00   0.000000000000000E+00
   0.000000000000000E+00   0.000000000000000E+00   0.000000000000000E+00
   0.000000000000000E+00   0.000000000000000E+00   0.000000000000000E+00
   0.000000000000000E+00   0.000000000000000E+00   0.000000000000000E+00
   0.000000000000000E+00   0.000000000000000E+00   0.000000000000000E+00
   0.000000000000000E+00   0.000000000000000E+00   0.000000000000000E+00
   0.000000000000000E+00   0.000000000000000E+00   0.000000000000000E+00
   0.000000000000000E+00   0.000000000000000E+00   0.000000000000000E+00
   0.000000000000000E+00   0.000000000000000E+00   0.000000000000000E+00
   0.000000000000000E+00   0.000000000000000E+00   0.000000000000000E+00
   0.000000000000000E+00   0.000000000000000E+00   0.000000000000000E+00
   0.000000000000000E+00   0.000000000000000E+00   0.000000000000000E+00
   0.000000000000000E+00   0.000000000000000E+00   0.000000000000000E+00
   0.000000000000000E+00   0.000000000000000E+00   0.000000000000000E+00
   0.000000000000000E+00   0.000000000000000E+00   0.000000000000000E+00
   0.000000000000000E+00   0.000000000000000E+00   0.000000000000000E+00
   0.000000000000000E+00   0.000000000000000E+00   0.000000000000000E+00
   0.000000000000000E+00   0.000000000000000E+00
    </PP_AE_NLCC>
    <PP_AE_VLOC size="1085">
  -1.074434838474240E+05  -1.061084694516728E+05  -1.047900388711003E+05
  -1.034879860982460E+05  -1.022021076847154E+05  -1.009322027093907E+05
  -9.967807274703552E+04  -9.843952183728832E+04  -9.721635645406092E+04
  -9.600838547526627E+04  -9.481542015298168E+04  -9.363727408394955E+04
  -9.247376318045228E+04  -9.132470564154648E+04  -9.018992192464680E+04
  -8.906923471749028E+04  -8.796246891041582E+04  -8.686945156902511E+04
  -8.579001190713128E+04  -8.472398126009721E+04  -8.367119305845544E+04
  -8.263148280191519E+04  -8.160468803363213E+04  -8.059064831483405E+04
  -7.958920519975471E+04  -7.860020221086597E+04  -7.762348481444869E+04
  -7.665890039641161E+04  -7.570629823848448E+04  -7.476552949463624E+04
  -7.383644716784661E+04  -7.291890608710356E+04  -7.201276288474830E+04
  -7.111787597406427E+04  -7.023410552715152E+04  -6.936131345307875E+04
  -6.849936337630673E+04  -6.764812061538931E+04  -6.680745216191000E+04
  -6.597722665970656E+04  -6.515731438436450E+04  -6.434758722292365E+04
  -6.354791865386064E+04  -6.275818372734170E+04  -6.197825904567471E+04
  -6.120802274404234E+04  -6.044735447145618E+04  -5.969613537195386E+04
  -5.895424806602189E+04  -5.822157663225636E+04  -5.749800658925970E+04
  -5.678342487773770E+04  -5.607771984285004E+04  -5.538078121674479E+04
  -5.469250010134906E+04  -5.401276895133403E+04  -5.334148155732702E+04
  -5.267853302930803E+04  -5.202381978022195E+04  -5.137723950979053E+04
  -5.073869118853482E+04  -5.010807504197398E+04  -4.948529253506318E+04
  -4.887024635676457E+04  -4.826284040486055E+04  -4.766297977094161E+04
  -4.707057072555819E+04  -4.648552070359448E+04  -4.590773828979340E+04
  -4.533713320448036E+04  -4.477361628944906E+04  -4.421709949403591E+04
  -4.366749586136026E+04  -4.312471951474436E+04  -4.258868564427344E+04
  -4.205931049356608E+04  -4.153651134668299E+04  -4.102020651519076E+04
  -4.051031532541506E+04  -4.000675810581259E+04  -3.950945617454972E+04
  -3.901833182719233E+04  -3.853330832455664E+04  -3.805430988074139E+04
  -3.758126165126093E+04  -3.711408972137124E+04  -3.665272109451252E+04
  -3.619708368088995E+04  -3.574710628624290E+04  -3.530271860068082E+04
  -3.486385118772857E+04  -3.443043547346016E+04  -3.400240373579660E+04
  -3.357968909389719E+04  -3.316222549775492E+04  -3.274994771782467E+04
  -3.234279133486950E+04  -3.194069272988135E+04  -3.154358907413219E+04
  -3.115141831937503E+04  -3.076411918813025E+04  -3.038163116411980E+04
  -3.000389448281853E+04  -2.963085012209779E+04  -2.926243979302274E+04
  -2.889860593073644E+04  -2.853929168545499E+04  -2.818444091360053E+04
  -2.783399816902085E+04  -2.748790869432531E+04  -2.714611841232566E+04
  -2.680857391760821E+04  -2.647522246815545E+04  -2.614601197712561E+04
  -2.582089100472402E+04  -2.549980875012981E+04  -2.518271504359360E+04
  -2.486956033858118E+04  -2.456029570403226E+04  -2.425487281672376E+04
  -2.395324395371238E+04  -2.365536198487804E+04  -2.336118036556137E+04
  -2.307065312928826E+04  -2.278373488058815E+04  -2.250038078791054E+04
  -2.222054657659726E+04  -2.194418852199236E+04  -2.167126344259195E+04
  -2.140172869329474E+04  -2.113554215876074E+04  -2.087266224680146E+04
  -2.061304788190041E+04  -2.035665849879240E+04  -2.010345403611481E+04
  -1.985339493016110E+04  -1.960644210869286E+04  -1.936255698483252E+04
  -1.912170145104073E+04  -1.888383787315398E+04  -1.864892908450956E+04
  -1.841693838013675E+04  -1.818782951101982E+04  -1.796156667843973E+04
  -1.773811452837379E+04  -1.751743814597504E+04  -1.729950305011505E+04
  -1.708427518799511E+04  -1.687172092983393E+04  -1.666180706360276E+04
  -1.645450078983596E+04  -1.624976971651906E+04  -1.604758185401175E+04
  -1.584790561005405E+04  -1.565070978482755E+04  -1.545596356609249E+04
  -1.526363652437763E+04  -1.507369860819000E+04  -1.488612013934849E+04
  -1.470087180834672E+04  -1.451792466976258E+04  -1.433725013774978E+04
  -1.415881998154718E+04  -1.398260632108752E+04  -1.380858162264227E+04
  -1.363671869450583E+04  -1.346699068275819E+04  -1.329937106705514E+04
  -1.313383365650577E+04  -1.297035258556692E+04  -1.280890230999717E+04
  -1.264945760287274E+04  -1.249199355063819E+04  -1.233648554923657E+04
  -1.218290930024027E+04  -1.203124080705137E+04  -1.188145637117404E+04
  -1.173353258850015E+04  -1.158744634565223E+04  -1.144317481637070E+04
  -1.130069545794505E+04  -1.115998600770466E+04  -1.102102447952600E+04
  -1.088378916039993E+04  -1.074825860704322E+04  -1.061441164254854E+04
  -1.048222735307612E+04  -1.035168508457219E+04  -1.022276443955901E+04
  -1.009544527394339E+04  -9.969707693861026E+03  -9.845532052580162E+03
  -9.722898947423113E+03  -9.601789216736237E+03  -9.482183936896658E+03
  -9.364064419353643E+03  -9.247412207717358E+03  -9.132209074863415E+03
  -9.018437020085074E+03  -8.906078266291182E+03  -8.795115257221976E+03
  -8.685530654704833E+03  -8.577307335945949E+03  -8.470428390854811E+03
  -8.364877119403787E+03  -8.260637029018795E+03  -8.157691831999536E+03
  -8.056025442976450E+03  -7.955621976396743E+03  -7.856465744041296E+03
  -7.758541252577581E+03  -7.661833201134938E+03  -7.566326478912338E+03
  -7.472006162821958E+03  -7.378857515154157E+03  -7.286865981274227E+03
  -7.196017187353612E+03  -7.106296938118348E+03  -7.017691214630190E+03
  -6.930186172099427E+03  -6.843768137723427E+03  -6.758423608547027E+03
  -6.674139249351993E+03  -6.590901890576262E+03  -6.508698526251329E+03
  -6.427516311976523E+03  -6.347342562910332E+03  -6.268164751783333E+03
  -6.189970506946907E+03  -6.112747610435793E+03  -6.036483996061912E+03
  -5.961167747530907E+03  -5.886787096574318E+03  -5.813330421112450E+03
  -5.740786243443098E+03  -5.669143228445605E+03  -5.598390181805147E+03
  -5.528516048270229E+03  -5.459509909923459E+03  -5.391360984471541E+03
  -5.324058623566720E+03  -5.257592311140598E+03  -5.191951661758602E+03
  -5.127126418999748E+03  -5.063106453852954E+03  -4.999881763136404E+03
  -4.937442467932848E+03  -4.875778812045511E+03  -4.814881160475616E+03
  -4.754739997914713E+03  -4.695345927259746E+03  -4.636689668144891E+03
  -4.578762055489043E+03  -4.521554038065997E+03  -4.465056677091417E+03
  -4.409261144822942E+03  -4.354158723182039E+03  -4.299740802393417E+03
  -4.245998879638045E+03  -4.192924557725330E+03  -4.140509543780680E+03
  -4.088745647949966E+03  -4.037624782120643E+03  -3.987138958657079E+03
  -3.937280289151852E+03  -3.888040983195008E+03  -3.839413347156828E+03
  -3.791389782982956E+03  -3.743962787010204E+03  -3.697124948794298E+03
  -3.650868949949236E+03  -3.605187563005703E+03  -3.560073650282474E+03
  -3.515520162770100E+03  -3.471520139029434E+03  -3.428066704104674E+03
  -3.385153068449128E+03  -3.342772526863724E+03  -3.300918457449965E+03
  -3.259584320575271E+03  -3.218763657851192E+03  -3.178450091124361E+03
  -3.138637321480013E+03  -3.099319128257525E+03  -3.060489368078538E+03
  -3.022141973887989E+03  -2.984270954005343E+03  -2.946870391188444E+03
  -2.909934441709645E+03  -2.873457334442356E+03  -2.837433369959088E+03
  -2.801856919641984E+03  -2.766722424803079E+03  -2.732024395814698E+03
  -2.697757411253163E+03  -2.663916117051931E+03  -2.630495225663898E+03
  -2.597489515236065E+03  -2.564893828793871E+03  -2.532703073435232E+03
  -2.500912219534880E+03  -2.469516299958725E+03  -2.438510409287821E+03
  -2.407889703051931E+03  -2.377649396972824E+03  -2.347784766216741E+03
  -2.318291144656384E+03  -2.289163924141882E+03  -2.260398553780926E+03
  -2.231990539227853E+03  -2.203935441981342E+03  -2.176228878691317E+03
  -2.148866520474174E+03  -2.121844092236356E+03  -2.095157372006577E+03
  -2.068802190276301E+03  -2.042774429348559E+03  -2.017070022694641E+03
  -1.991684954318626E+03  -1.966615258130261E+03  -1.941857017325520E+03
  -1.917406363774708E+03  -1.893259477418081E+03  -1.869412585669231E+03
  -1.845861962825991E+03  -1.822603929488178E+03  -1.799634851983056E+03
  -1.776951141797824E+03  -1.754549255018819E+03  -1.732425691778367E+03
  -1.710576995707916E+03  -1.688999753398047E+03  -1.667690593865758E+03
  -1.646646188027517E+03  -1.625863248179519E+03  -1.605338527484332E+03
  -1.585068819463585E+03  -1.565050957497316E+03  -1.545281814329254E+03
  -1.525758301578558E+03  -1.506477369257677E+03  -1.487436005295764E+03
  -1.468631235068237E+03  -1.450060120932547E+03  -1.431719761769239E+03
  -1.413607292528851E+03  -1.395719883784668E+03  -1.378054741290881E+03
  -1.360609105546267E+03  -1.343380251363120E+03  -1.326365487441812E+03
  -1.309562155950800E+03  -1.292967632111349E+03  -1.276579323787629E+03
  -1.260394671082340E+03  -1.244411145936858E+03  -1.228626251736410E+03
  -1.213037522920431E+03  -1.197642524597657E+03  -1.182438852165874E+03
  -1.167424130936556E+03  -1.152596015764263E+03  -1.137952190680418E+03
  -1.123490368531778E+03  -1.109208290623426E+03  -1.095103726366214E+03
  -1.081174472928563E+03  -1.067418354892614E+03  -1.053833223914660E+03
  -1.040416958389764E+03  -1.027167463120784E+03  -1.014082668991205E+03
  -1.001160532642188E+03  -9.883990361538283E+02  -9.757961867300687E+02
  -9.633500163876765E+02  -9.510585816492562E+02  -9.389199632398921E+02
  -9.269322657875697E+02  -9.150936175274923E+02  -9.034021700099438E+02
  -8.918560978119021E+02  -8.804535982521404E+02  -8.691928911099122E+02
  -8.580722183473131E+02  -8.470898438348582E+02  -8.362440530805850E+02
  -8.255331529626163E+02  -8.149554714649405E+02  -8.045093574165502E+02
  -7.941931802338761E+02  -7.840053296663169E+02  -7.739442155450280E+02
  -7.640082675348822E+02  -7.541959348894344E+02  -7.445056862089759E+02
  -7.349360092016683E+02  -7.254854104475662E+02  -7.161524151656240E+02
  -7.069355669836727E+02  -6.978334277111377E+02  -6.888445771146976E+02
  -6.799676126967140E+02  -6.712011494763954E+02  -6.625438197737188E+02
  -6.539942729960781E+02  -6.455511754275309E+02  -6.372132100206527E+02
  -6.289790761911073E+02  -6.208474896146820E+02  -6.128171820268406E+02
  -6.048869010248476E+02  -5.970554098722866E+02  -5.893214873060246E+02
  -5.816839273456720E+02  -5.741415391052806E+02  -5.666931466074029E+02
  -5.593375885995911E+02  -5.520737183730650E+02  -5.449004035836028E+02
  -5.378165260747595E+02  -5.308209817032365E+02  -5.239126801663919E+02
  -5.170905448319121E+02  -5.103535125695940E+02  -5.037005335852222E+02
  -4.971305712564836E+02  -4.906426019709146E+02  -4.842356149658651E+02
  -4.779086121704138E+02  -4.716606080492592E+02  -4.654906294485278E+02
  -4.593977154434766E+02  -4.533809171880762E+02  -4.474392977664234E+02
  -4.415719320460122E+02  -4.357779065327841E+02  -4.300563192279388E+02
  -4.244062794865337E+02  -4.188269078777863E+02  -4.133173360470730E+02
  -4.078767065796320E+02  -4.025041728659112E+02  -3.971988989685508E+02
  -3.919600594909911E+02  -3.867868394476365E+02  -3.816784341356185E+02
  -3.766340490081199E+02  -3.716528995491654E+02  -3.667342111499508E+02
  -3.618772189866736E+02  -3.570811678997807E+02  -3.523453122746733E+02
  -3.476689159238398E+02  -3.430512519703624E+02  -3.384916027328177E+02
  -3.339892596115484E+02  -3.295435229762383E+02  -3.251537020548029E+02
  -3.208191148236261E+02  -3.165390878990326E+02  -3.123129564300048E+02
  -3.081400639922038E+02  -3.040197624831398E+02  -2.999514120185711E+02
  -2.959343808301211E+02  -2.919680451640036E+02  -2.880517891809129E+02
  -2.841850048570793E+02  -2.803670918863871E+02  -2.765974575835971E+02
  -2.728755167886687E+02  -2.692006917721274E+02  -2.655724121414540E+02
  -2.619901147485266E+02  -2.584532435980614E+02  -2.549612497570385E+02
  -2.515135912651166E+02  -2.481097330459909E+02  -2.447491468197031E+02
  -2.414313110158877E+02  -2.381557106879129E+02  -2.349218374279252E+02
  -2.317291892827904E+02  -2.285772706708816E+02  -2.254655922997291E+02
  -2.223936710845086E+02  -2.193610300673537E+02  -2.163671983374831E+02
  -2.134117109521142E+02  -2.104941088581660E+02  -2.076139388147391E+02
  -2.047707533163439E+02  -2.019641105168714E+02  -1.991935741543161E+02
  -1.964587134761942E+02  -1.937591031656857E+02  -1.910943232684743E+02
  -1.884639591202686E+02  -1.858676012750053E+02  -1.833048454337080E+02
  -1.807752923740087E+02  -1.782785478803187E+02  -1.758142226746180E+02
  -1.733819323478951E+02  -1.709812972921885E+02  -1.686119426332360E+02
  -1.662734981637382E+02  -1.639655982772074E+02  -1.616878819024057E+02
  -1.594399924383588E+02  -1.572215776899469E+02  -1.550322898040666E+02
  -1.528717852063463E+02  -1.507397245384226E+02  -1.486357725957685E+02
  -1.465595982660685E+02  -1.445108744681362E+02  -1.424892780913759E+02
  -1.404944899357784E+02  -1.385261946524489E+02  -1.365840806846768E+02
  -1.346678402095302E+02  -1.327771690799792E+02  -1.309117667675555E+02
  -1.290713363055408E+02  -1.272555842326808E+02  -1.254642205374356E+02
  -1.236969586027623E+02  -1.219535151514329E+02  -1.202336101918881E+02
  -1.185369669646335E+02  -1.168633118891810E+02  -1.152123745115383E+02
  -1.135838874522482E+02  -1.119775863549885E+02  -1.103932098357380E+02
  -1.088304994325089E+02  -1.072891995556528E+02  -1.057690574387576E+02
  -1.042698230901273E+02  -1.027912492448636E+02  -1.013330913175570E+02
  -9.989510735558632E+01  -9.847705799305041E+01  -9.707870640532910E+01
  -9.569981826429134E+01  -9.434016169415592E+01  -9.299950722801793E+01
  -9.167762776505111E+01  -9.037429852839774E+01  -8.908929702375603E+01
  -8.782240299867892E+01  -8.657339840259431E+01  -8.534206734756060E+01
  -8.412819606976659E+01  -8.293157289179068E+01  -8.175198818563292E+01
  -8.058923433652831E+01  -7.944310570755611E+01  -7.831339860505750E+01
  -7.719991124487326E+01  -7.610244371941428E+01  -7.502079796557597E+01
  -7.395477773350785E+01  -7.290418855625150E+01  -7.186883772025570E+01
  -7.084853423678204E+01  -6.984308881420853E+01  -6.885231383124274E+01
  -6.787602331105403E+01  -6.691403289633101E+01  -6.596615982527685E+01
  -6.503222290854436E+01  -6.411204250712262E+01  -6.320544051117667E+01
  -6.231224031984782E+01  -6.143226682201971E+01  -6.056534637804837E+01
  -5.971130680246408E+01  -5.886997734764348E+01  -5.804118868845062E+01
  -5.722477290784888E+01  -5.642056348347800E+01  -5.562839527519629E+01
  -5.484810451357886E+01  -5.407952878936881E+01  -5.332250704387302E+01
  -5.257687956029183E+01  -5.184248795597458E+01  -5.111917517558638E+01
  -5.040678548517500E+01  -4.970516446712134E+01  -4.901415901595691E+01
  -4.833361733503072E+01  -4.766338893400584E+01  -4.700332462716380E+01
  -4.635327653249383E+01  -4.571309807154353E+01  -4.508264397000310E+01
  -4.446177025899761E+01  -4.385033427705623E+01  -4.324819467272893E+01
  -4.265521140781777E+01  -4.207124576119032E+01  -4.149616033313868E+01
  -4.092981905024877E+01  -4.037208717074233E+01  -3.982283129025241E+01
  -3.928191934799251E+01  -3.874922063327843E+01  -3.822460579236083E+01
  -3.770794683552579E+01  -3.719911714441908E+01  -3.669799147955067E+01
  -3.620444598793387E+01  -3.571835821081414E+01  -3.523960709144166E+01
  -3.476807298284128E+01  -3.430363765553690E+01  -3.384618430517798E+01
  -3.339559756002717E+01  -3.295176348826678E+01  -3.251456960507194E+01
  -3.208390487940912E+01  -3.165965974051851E+01  -3.124172608403535E+01
  -3.082999727771014E+01  -3.042436816668616E+01  -3.002473507829678E+01
  -2.963099582634383E+01  -2.924304971482222E+01  -2.886079754105671E+01
  -2.848414159821790E+01  -2.811298567718843E+01  -2.774723506775070E+01
  -2.738679655907048E+01  -2.703157843945319E+01  -2.668149049535155E+01
  -2.633644400960586E+01  -2.599635175890121E+01  -2.566112801042731E+01
  -2.533068851773053E+01  -2.500495051574808E+01  -2.468383271501941E+01
  -2.436725529506914E+01  -2.405513989695940E+01  -2.374740961501153E+01
  -2.344398898769649E+01  -2.314480398769729E+01  -2.284978201114594E+01
  -2.255885186603800E+01  -2.227194375983202E+01  -2.198898928623914E+01
  -2.170992141121314E+01  -2.143467445815402E+01  -2.116318409234019E+01
  -2.089538730461194E+01  -2.063122239433007E+01  -2.037062895163763E+01
  -2.011354783905486E+01  -1.985992117243611E+01  -1.960969230131693E+01
  -1.936280578867618E+01  -1.911920739013926E+01  -1.887884403264964E+01
  -1.864166379264471E+01  -1.840761587378288E+01  -1.817665058428410E+01
  -1.794871931396029E+01  -1.772377451101888E+01  -1.750176965872478E+01
  -1.728265925199759E+01  -1.706639877400426E+01  -1.685294467279340E+01
  -1.664225433800217E+01  -1.643428607765916E+01  -1.622899909510511E+01
  -1.602635346605416E+01  -1.582631011582398E+01  -1.562883079676375E+01
  -1.543387806591398E+01  -1.524141526292946E+01  -1.505140648829459E+01
  -1.486381658186167E+01  -1.467861110173601E+01  -1.449575630353071E+01
  -1.431521912001308E+01  -1.413696714116021E+01  -1.396096859464186E+01
  -1.378719232674553E+01  -1.361560778375717E+01  -1.344618499381054E+01
  -1.327889454921484E+01  -1.311370758926993E+01  -1.295059578357657E+01
  -1.278953131584646E+01  -1.263048686821647E+01  -1.247343560606908E+01
  -1.231835116335950E+01  -1.216520762844854E+01  -1.201397953043861E+01
  -1.186464182600938E+01  -1.171716988674692E+01  -1.157153948696083E+01
  -1.142772679198118E+01  -1.128570834692588E+01  -1.114546106592996E+01
  -1.100696222182507E+01  -1.087018943625789E+01  -1.073512067023577E+01
  -1.060173421508624E+01  -1.047000868381719E+01  -1.033992300286432E+01
  -1.021145640421143E+01  -1.008458841786934E+01  -9.959298864698850E+00
  -9.835567849563621E+00  -9.713375754797593E+00  -9.592703233973150E+00
  -9.473531205955160E+00  -9.355840849226873E+00  -9.239613596473673E+00
  -9.124831129410556E+00  -9.011475373840863E+00  -8.899528494932362E+00
  -8.788972892698283E+00  -8.679791197671827E+00  -8.571966266761216E+00
  -8.465481179275155E+00  -8.360319233107479E+00  -8.256463941070686E+00
  -8.153899027368968E+00  -8.052608424200848E+00  -7.952576268483687E+00
  -7.853786898691210E+00  -7.756224851796116E+00  -7.659874860311493E+00
  -7.564721849423222E+00  -7.470750934207825E+00  -7.377947416929742E+00
  -7.286296784412389E+00  -7.195784705478307E+00  -7.106397028453481E+00
  -7.018119778732046E+00  -6.930939156397449E+00  -6.844841533898575E+00
  -6.759813453778615E+00  -6.675841626443249E+00  -6.592912927944480E+00
  -6.511014397849848E+00  -6.430133237107801E+00  -6.350256806017012E+00
  -6.271372622207561E+00  -6.193468358622411E+00  -6.116531841533174E+00
  -6.040551048608597E+00  -5.965514107014018E+00  -5.891409291518958E+00
  -5.818225022641160E+00  -5.745949864826676E+00  -5.674572524638484E+00
  -5.604081848981081E+00  -5.534466823358658E+00  -5.465716570132928E+00
  -5.397820346813669E+00  -5.330767544380780E+00  -5.264547685619196E+00
  -5.199150423477403E+00  -5.134565539447233E+00  -5.070782941964272E+00
  -5.007792664828832E+00  -4.945584865646974E+00  -4.884149824291172E+00
  -4.823477941380698E+00  -4.763559736781010E+00  -4.704385848122183E+00
  -4.645947029336005E+00  -4.588234149211342E+00  -4.531238189967779E+00
  -4.474950245846987E+00  -4.419361521721736E+00  -4.364463331722284E+00
  -4.310247097879667E+00  -4.256704348785987E+00  -4.203826718271099E+00
  -4.151605944095693E+00  -4.100033866660446E+00  -4.049102427730978E+00
  -3.998803669178544E+00  -3.949129731736086E+00  -3.900072853769654E+00
  -3.851625370064907E+00  -3.803779710628510E+00  -3.756528399504476E+00
  -3.709864053605038E+00  -3.663779381556123E+00  -3.618267182557211E+00
  -3.573320345255423E+00  -3.528931846633748E+00  -3.485094750913121E+00
  -3.441802208468408E+00  -3.399047454757942E+00  -3.356823809266456E+00
  -3.315124674461395E+00  -3.273943534762156E+00  -3.233273955522340E+00
  -3.193109582024683E+00  -3.153444138488440E+00  -3.114271427089245E+00
  -3.075585326991070E+00  -3.037379793390252E+00  -2.999648856571384E+00
  -2.962386620974890E+00  -2.925587264276300E+00  -2.889245036476815E+00
  -2.853354259005278E+00  -2.817909323831328E+00  -2.782904692589497E+00
  -2.748334895714315E+00  -2.714194531586079E+00  -2.680478265687289E+00
  -2.647180829769563E+00  -2.614297021030796E+00  -2.581821701302581E+00
  -2.549749796247593E+00  -2.518076294566892E+00  -2.486796247216978E+00
  -2.455904766636407E+00  -2.425397025981983E+00  -2.395268258374244E+00
  -2.365513756152256E+00  -2.336128870137574E+00  -2.307109008907219E+00
  -2.278449638075697E+00  -2.250146279585837E+00  -2.222194511008463E+00
  -2.194589964850787E+00  -2.167328327873374E+00  -2.140405340415709E+00
  -2.113816795730141E+00  -2.087558539324222E+00  -2.061626468311286E+00
  -2.036016530769144E+00  -2.010724725106883E+00  -1.985747099439547E+00
  -1.961079750970691E+00  -1.936718825382677E+00  -1.912660516234533E+00
  -1.888901064367413E+00  -1.865436757317404E+00  -1.842263928735683E+00
  -1.819378957815900E+00  -1.796778268728628E+00  -1.774458330062909E+00
  -1.752415654274655E+00  -1.730646797141943E+00  -1.709148357227058E+00
  -1.687916975345159E+00  -1.666949334039593E+00  -1.646242157063648E+00
  -1.625792208868765E+00  -1.605596294099090E+00  -1.585651257092251E+00
  -1.565953981386379E+00  -1.546501389233187E+00  -1.527290441117109E+00
  -1.508318135280418E+00  -1.489581507254186E+00  -1.471077629395120E+00
  -1.452803610428094E+00  -1.434756594994386E+00  -1.416933763205524E+00
  -1.399332330202643E+00  -1.381949545721354E+00  -1.364782693661966E+00
  -1.347829091665088E+00  -1.331086090692490E+00  -1.314551074613139E+00
  -1.298221459794433E+00  -1.282094694698455E+00  -1.266168259483277E+00
  -1.250439665609221E+00  -1.234906455449976E+00  -1.219566201908589E+00
  -1.204416508038190E+00  -1.189455006667455E+00  -1.174679360030717E+00
  -1.160087259402649E+00  -1.145676424737531E+00  -1.131444604312955E+00
  -1.117389574377941E+00  -1.103509138805689E+00  -1.089801128749676E+00
  -1.076263402213544E+00  -1.062893844095060E+00  -1.049690365272226E+00
  -1.036650902675063E+00  -1.023773418861492E+00  -1.011055901699017E+00
  -9.984963640502947E-01  -9.860928434626148E-01  -9.738434018614771E-01
  -9.617461252469376E-01  -9.497991231676330E-01  -9.380005293592659E-01
  -9.263485000181242E-01  -9.148412144916785E-01  -9.034768747439206E-01
  -8.922537050744317E-01  -8.811699518409110E-01  -8.702238831851643E-01
  -8.594137887625000E-01  -8.487379794744692E-01  -8.381947872049521E-01
  -8.277825645594966E-01  -8.174996846079102E-01  -8.073445406300831E-01
  -7.973155458647128E-01  -7.874111332622713E-01  -7.776297576225398E-01
  -7.679698854035195E-01  -7.584300102842940E-01  -7.490086413963011E-01
  -7.397043066315376E-01  -7.305155521688105E-01  -7.214409422465814E-01
  -7.124790589386331E-01  -7.036285019325025E-01  -6.948878883106929E-01
  -6.862558523345786E-01  -6.777310452310117E-01  -6.693121349815759E-01
  -6.609978061791275E-01  -6.527867595577652E-01  -6.446777121956839E-01
  -6.366693970377332E-01  -6.287605627683791E-01  -6.209499736161741E-01
  -6.132364091606755E-01  -6.056186641417419E-01  -5.980955482712152E-01
  -5.906658860469374E-01  -5.833285165690676E-01  -5.760822933586996E-01
  -5.689260841787135E-01  -5.618587708568642E-01  -5.548792491110690E-01
  -5.479864283768532E-01  -5.411792316369559E-01  -5.344565952530366E-01
  -5.278174687994813E-01  -5.212608148992773E-01  -5.147856090619105E-01
  -5.083908395232976E-01  -5.020755070876868E-01  -4.958386249715353E-01
  -4.896792186493261E-01  -4.835963257012876E-01  -4.775889956630234E-01
  -4.716562898769919E-01  -4.657972813460700E-01  -4.600110545877822E-01
  -4.542967054926725E-01  -4.486533411820709E-01  -4.430800798688212E-01
  -4.375760507195036E-01  -4.321403937183671E-01  -4.267722595329447E-01
  -4.214708093813501E-01  -4.162352149012105E-01  -4.110646580202353E-01
  -4.059583308283942E-01  -4.009154354516727E-01  -3.959351839274102E-01
  -3.910167980811728E-01  -3.861595094051646E-01  -3.813625589381494E-01
  -3.766251971468555E-01  -3.719466838088666E-01  -3.673262878969544E-01
  -3.627632874648561E-01  -3.582569695344728E-01  -3.538066299844579E-01
  -3.494115734402040E-01  -3.450711131651835E-01  -3.407845709536471E-01
  -3.365512770246544E-01  -3.323705699174150E-01  -3.282417963879389E-01
  -3.241643113069617E-01  -3.201374775591429E-01  -3.161606659435182E-01
  -3.122332550751803E-01  -3.083546312881921E-01  -3.045241885396949E-01
  -3.007413283152159E-01  -2.970054595351495E-01  -2.933159984623972E-01
  -2.896723686111614E-01  -2.860740006568641E-01  -2.825203323471909E-01
  -2.790108084142395E-01  -2.755448804877542E-01  -2.721220070094462E-01
  -2.687416531483698E-01  -2.654032907173565E-01  -2.621063980904855E-01
  -2.588504601215752E-01  -2.556349680636947E-01  -2.524594194896675E-01
  -2.493233182135678E-01  -2.462261742131917E-01  -2.431675035534870E-01
  -2.401468283109411E-01  -2.371636764989012E-01  -2.342175819938272E-01
  -2.313080844624595E-01  -2.284347292898886E-01  -2.255970675085237E-01
  -2.227946557279378E-01  -2.200270560655883E-01  -2.172938360783979E-01
  -2.145945686951820E-01  -2.119288321499213E-01  -2.092962099158565E-01
  -2.066962906404071E-01  -2.041286680808976E-01  -2.015929410410783E-01
  -1.990887133084411E-01  -1.966155935923075E-01  -1.941731954626897E-01
  -1.917611372899119E-01  -1.893790421849763E-01  -1.870265379406771E-01
  -1.847032569734395E-01  -1.824088362658854E-01  -1.801429173101119E-01
  -1.779051460516713E-01  -1.756951728342525E-01  -1.735126523450436E-01
  -1.713572435607776E-01  -1.692286096944472E-01  -1.671264181426796E-01
  -1.650503404337684E-01  -1.630000521763476E-01  -1.609752330087051E-01
  -1.589755665487272E-01  -1.570007403444605E-01  -1.550504458252935E-01
  -1.531243782537392E-01  -1.512222366778208E-01  -1.493437238840476E-01
  -1.474885463509731E-01  -1.456564142033341E-01  -1.438470411667546E-01
  -1.420601445230162E-01  -1.402954450658834E-01  -1.385526670574752E-01
  -1.368315381851826E-01  -1.351317895191173E-01  -1.334531554700918E-01
  -1.317953737481214E-01  -1.301581853214387E-01  -1.285413343760215E-01
  -1.269445682756200E-01  -1.253676375222820E-01  -1.238102957173696E-01
  -1.222722995230568E-01  -1.207534086243096E-01  -1.192533856913347E-01
  -1.177719963424967E-01  -1.163090091076964E-01  -1.148641953922015E-01
  -1.134373294409299E-01  -1.120281883031734E-01  -1.106365517977623E-01
  -1.092622024786616E-01  -1.079049256009936E-01  -1.065645090874852E-01
  -1.052407434953290E-01  -1.039334219834577E-01  -1.026423402802256E-01
  -1.013672966514896E-01  -1.001080918690890E-01
    </PP_AE_VLOC>
  </PP_PAW>
</UPF>
