
     Program PWSCF v.7.3.1 starts on 31Aug2026 at  9:39: 5 

     This program is part of the open-source Quantum ESPRESSO suite
     for quantum simulation of materials; please cite
         "P. Giannozzi et al., J. Phys.:Condens. Matter 21 395502 (2009);
         "P. Giannozzi et al., J. Phys.:Condens. Matter 29 465901 (2017);
         "P. Giannozzi et al., J. Chem. Phys. 152 154105 (2020);
          URL http://www.quantum-espresso.org", 
     in publications or presentations arising from this work. More details at
     http://www.quantum-espresso.org/quote

     Parallel version (MPI & OpenMP), running on      16 processor cores
     Number of MPI processes:                16
     Threads/MPI process:                     1

     MPI processes distributed on     1 nodes
     95026 MiB available memory on the printing compute node when the environment starts
 
     Waiting for input...
     Reading input from standard input

     Current dimensions of program PWSCF are:
     Max number of different atomic species (ntypx) = 10
     Max number of k-points (npk) =  40000
     Max angular momentum in pseudopotentials (lmaxx) =  4
     file Ga.pbe-dn-kjpaw_psl.1.0.0.UPF: wavefunction(s)  4S renormalized
     file N.pbe-n-kjpaw_psl.1.0.0.UPF: wavefunction(s)  2S renormalized
     file C.pbe-n-kjpaw_psl.1.0.0.UPF: wavefunction(s)  2S 2P renormalized

     Atomic positions and unit cell read from directory:
     ./tmp/GaN.save/
 
     Message from routine setup:
     using ibrav=0 with symmetry is DISCOURAGED, use correct ibrav instead
 
     R & G space division:  proc/nbgrp/npool/nimage =      16
     Subspace diagonalization in iterative solution of the eigenvalue problem:
     one sub-group per band group will be used
     custom distributed-memory algorithm (size of sub-group:  4*  4 procs)

 
     Parallelization info
     --------------------
     sticks:   dense  smooth     PW     G-vecs:    dense   smooth      PW
     Min         716     286     77               101356    25638    3549
     Max         717     287     78               101361    25643    3554
     Sum       11461    4591   1237              1621723   410263   56817
 
     Using Slab Decomposition
 


     bravais-lattice index     =            0
     lattice parameter (alat)  =      18.2548  a.u.
     unit-cell volume          =    8589.3845 (a.u.)^3
     number of atoms/cell      =          108
     number of atomic types    =            3
     number of electrons       =       971.00
     number of Kohn-Sham states=          560
     kinetic-energy cutoff     =      50.0000  Ry
     charge density cutoff     =     500.0000  Ry
     Exchange-correlation= SLA  PW   PBX  PBC
                           (   1   4   3   4   0   0   0)

     celldm(1)=  18.254754  celldm(2)=   0.000000  celldm(3)=   0.000000
     celldm(4)=   0.000000  celldm(5)=   0.000000  celldm(6)=   0.000000

     crystal axes: (cart. coord. in units of alat)
               a(1) = (   1.000000   0.000000   0.000000 )  
               a(2) = (  -0.500000   0.866025   0.000000 )  
               a(3) = (   0.000000   0.000000   1.630435 )  

     reciprocal axes: (cart. coord. in units 2 pi/alat)
               b(1) = (  1.000000  0.577350  0.000000 )  
               b(2) = (  0.000000  1.154701  0.000000 )  
               b(3) = (  0.000000  0.000000  0.613333 )  


     PseudoPot. # 1 for Ga read from file:
     /data-fast/greenano/Students/cohort2/rojassan/Project_GaN/PSEUDO/Ga.pbe-dn-kjpaw_psl.1.0.0.UPF
     MD5 check sum: 93aceff68ec27daa0acc11ebb2e245f0
     Pseudo is Projector augmented-wave + core cor, Zval = 13.0
     Generated using 'atomic' code by A. Dal Corso  v.7.3.1
     Shape of augmentation charge: PSQ
     Using radial grid of 1205 points,  6 beta functions with: 
                l(1) =   0
                l(2) =   0
                l(3) =   1
                l(4) =   1
                l(5) =   2
                l(6) =   2
     Q(r) pseudized with 0 coefficients 


     PseudoPot. # 2 for N  read from file:
     /data-fast/greenano/Students/cohort2/rojassan/Project_GaN/PSEUDO/N.pbe-n-kjpaw_psl.1.0.0.UPF
     MD5 check sum: 86f48117b7e7b472c01f85d0863ba463
     Pseudo is Projector augmented-wave + core cor, Zval =  5.0
     Generated using 'atomic' code by A. Dal Corso  v.7.3.1
     Shape of augmentation charge: PSQ
     Using radial grid of 1085 points,  4 beta functions with: 
                l(1) =   0
                l(2) =   0
                l(3) =   1
                l(4) =   1
     Q(r) pseudized with 0 coefficients 


     PseudoPot. # 3 for C  read from file:
     /data-fast/greenano/Students/cohort2/rojassan/Project_GaN/PSEUDO/C.pbe-n-kjpaw_psl.1.0.0.UPF
     MD5 check sum: 6e4988b7a1fe6f06f65aa0569fb69d66
     Pseudo is Projector augmented-wave + core cor, Zval =  4.0
     Generated using 'atomic' code by A. Dal Corso  v.7.3.1
     Shape of augmentation charge: PSQ
     Using radial grid of 1073 points,  4 beta functions with: 
                l(1) =   0
                l(2) =   0
                l(3) =   1
                l(4) =   1
     Q(r) pseudized with 0 coefficients 


     atomic species   valence    mass     pseudopotential
     Ga               13.00    69.72300     Ga( 1.00)
     N                 5.00    14.00700     N ( 1.00)
     C                 4.00    12.01100     C ( 1.00)

     Starting magnetic structure 
     atomic species   magnetization
     Ga              0.000
     N               0.000
     C               0.500

      6 Sym. Ops. (no inversion) found ( 4 have fractional translation)


                                    s                        frac. trans.

      isym =  1     identity                                     

 cryst.   s( 1) = (     1          0          0      )
                  (     0          1          0      )
                  (     0          0          1      )

 cart.    s( 1) = (  1.0000000  0.0000000  0.0000000 )
                  (  0.0000000  1.0000000  0.0000000 )
                  (  0.0000000  0.0000000  1.0000000 )


      isym =  2     120 deg rotation - cryst. axis [0,0,1]       

 cryst.   s( 2) = (     0          1          0      )    f =( -0.3333333 )
                  (    -1         -1          0      )       ( -0.3333333 )
                  (     0          0          1      )       (  0.0000000 )

 cart.    s( 2) = ( -0.5000000 -0.8660254  0.0000000 )    f =( -0.1666667 )
                  (  0.8660254 -0.5000000  0.0000000 )       ( -0.2886751 )
                  (  0.0000000  0.0000000  1.0000000 )       (  0.0000000 )


      isym =  3     120 deg rotation - cryst. axis [0,0,-1]      

 cryst.   s( 3) = (    -1         -1          0      )    f =( -0.0000000 )
                  (     1          0          0      )       ( -0.3333333 )
                  (     0          0          1      )       (  0.0000000 )

 cart.    s( 3) = ( -0.5000000  0.8660254  0.0000000 )    f =(  0.1666667 )
                  ( -0.8660254 -0.5000000  0.0000000 )       ( -0.2886751 )
                  (  0.0000000  0.0000000  1.0000000 )       (  0.0000000 )


      isym =  4     inv. 180 deg rotation - cart. axis [1,0,0]   

 cryst.   s( 4) = (    -1          0          0      )
                  (     1          1          0      )
                  (     0          0          1      )

 cart.    s( 4) = ( -1.0000000 -0.0000000  0.0000000 )
                  (  0.0000000  1.0000000  0.0000000 )
                  (  0.0000000  0.0000000  1.0000000 )


      isym =  5     inv. 180 deg rotation - cryst. axis [0,1,0]  

 cryst.   s( 5) = (     1          1          0      )    f =(  0.0000000 )
                  (     0         -1          0      )       ( -0.3333333 )
                  (     0          0          1      )       (  0.0000000 )

 cart.    s( 5) = (  0.5000000  0.8660254  0.0000000 )    f =(  0.1666667 )
                  (  0.8660254 -0.5000000  0.0000000 )       ( -0.2886751 )
                  (  0.0000000  0.0000000  1.0000000 )       (  0.0000000 )


      isym =  6     inv. 180 deg rotation - cryst. axis [1,1,0]  

 cryst.   s( 6) = (     0         -1          0      )    f =( -0.3333333 )
                  (    -1          0          0      )       ( -0.3333333 )
                  (     0          0          1      )       (  0.0000000 )

 cart.    s( 6) = (  0.5000000 -0.8660254  0.0000000 )    f =( -0.1666667 )
                  ( -0.8660254 -0.5000000  0.0000000 )       ( -0.2886751 )
                  (  0.0000000  0.0000000  1.0000000 )       (  0.0000000 )


   Cartesian axes

     site n.     atom                  positions (alat units)
         1        Ga     tau(   1) = (   0.0000000   0.1924501   0.0003549  )
         2        Ga     tau(   2) = (   0.1661482   0.0965244   0.2732575  )
         3        C      tau(   3) = (   0.0000000   0.1924501   0.2031358  )
         4        N      tau(   4) = (   0.1680951   0.0954003   0.4784907  )
         5        Ga     tau(   5) = (   0.3326899   0.1920641  -0.0002994  )
         6        Ga     tau(   6) = (   0.5000000   0.0957982   0.2723776  )
         7        N      tau(   7) = (   0.3345705   0.1922062   0.2045797  )
         8        N      tau(   8) = (   0.5000000   0.0960677   0.4766541  )
         9        Ga     tau(   9) = (   0.6673101   0.1920641  -0.0002994  )
        10        Ga     tau(  10) = (   0.8338518   0.0965244   0.2732575  )
        11        N      tau(  11) = (   0.6654295   0.1922062   0.2045797  )
        12        N      tau(  12) = (   0.8319049   0.0954003   0.4784907  )
        13        Ga     tau(  13) = (  -0.1660106   0.4807610  -0.0002994  )
        14        Ga     tau(  14) = (   0.0000000   0.3843015   0.2732575  )
        15        N      tau(  15) = (  -0.1670740   0.4823186   0.2045797  )
        16        N      tau(  16) = (   0.0000000   0.3865496   0.4784907  )
        17        Ga     tau(  17) = (   0.1660106   0.4807610  -0.0002994  )
        18        Ga     tau(  18) = (   0.3330570   0.3847406   0.2715865  )
        19        N      tau(  19) = (   0.1670740   0.4823186   0.2045797  )
        20        N      tau(  20) = (   0.3333101   0.3848868   0.4763450  )
        21        Ga     tau(  21) = (   0.5000000   0.4811252  -0.0001301  )
        22        Ga     tau(  22) = (   0.6669430   0.3847406   0.2715865  )
        23        N      tau(  23) = (   0.5000000   0.4811252   0.2047050  )
        24        N      tau(  24) = (   0.6666899   0.3848868   0.4763450  )
        25        Ga     tau(  25) = (  -0.3333207   0.7705506  -0.0002994  )
        26        Ga     tau(  26) = (  -0.1662970   0.6737887   0.2723776  )
        27        N      tau(  27) = (  -0.3325035   0.7688509   0.2045797  )
        28        N      tau(  28) = (  -0.1665304   0.6736540   0.4766541  )
        29        Ga     tau(  29) = (   0.0000000   0.7698004  -0.0004604  )
        30        Ga     tau(  30) = (   0.1662970   0.6737887   0.2723776  )
        31        N      tau(  31) = (   0.0000000   0.7698004   0.2045369  )
        32        N      tau(  32) = (   0.1665304   0.6736540   0.4766541  )
        33        Ga     tau(  33) = (   0.3333207   0.7705506  -0.0002994  )
        34        Ga     tau(  34) = (   0.5000000   0.6738944   0.2715865  )
        35        N      tau(  35) = (   0.3325035   0.7688509   0.2045797  )
        36        N      tau(  36) = (   0.5000000   0.6736021   0.4763450  )
        37        Ga     tau(  37) = (   0.0000000   0.1924501   0.5425477  )
        38        Ga     tau(  38) = (   0.1665592   0.0962871   0.8150156  )
        39        N      tau(  39) = (   0.0000000   0.1924501   0.7477091  )
        40        N      tau(  40) = (   0.1667221   0.0961930   1.0195955  )
        41        Ga     tau(  41) = (   0.3336022   0.1926229   0.5443436  )
        42        Ga     tau(  42) = (   0.5000000   0.0961696   0.8155841  )
        43        N      tau(  43) = (   0.3335668   0.1926295   0.7486494  )
        44        N      tau(  44) = (   0.5000000   0.0960949   1.0198136  )
        45        Ga     tau(  45) = (   0.6663978   0.1926229   0.5443436  )
        46        Ga     tau(  46) = (   0.8334408   0.0962871   0.8150156  )
        47        N      tau(  47) = (   0.6664332   0.1926295   0.7486494  )
        48        N      tau(  48) = (   0.8332779   0.0961930   1.0195955  )
        49        Ga     tau(  49) = (  -0.1669508   0.4812716   0.5443436  )
        50        Ga     tau(  50) = (   0.0000000   0.3847761   0.8150156  )
        51        N      tau(  51) = (  -0.1669388   0.4812377   0.7486494  )
        52        N      tau(  52) = (   0.0000000   0.3849642   1.0195955  )
        53        Ga     tau(  53) = (   0.1669508   0.4812716   0.5443436  )
        54        Ga     tau(  54) = (   0.3335213   0.3850087   0.8155399  )
        55        N      tau(  55) = (   0.1669388   0.4812377   0.7486494  )
        56        N      tau(  56) = (   0.3334688   0.3849784   1.0198140  )
        57        Ga     tau(  57) = (   0.5000000   0.4811252   0.5433883  )
        58        Ga     tau(  58) = (   0.6664787   0.3850087   0.8155399  )
        59        N      tau(  59) = (   0.5000000   0.4811252   0.7479297  )
        60        N      tau(  60) = (   0.6665312   0.3849784   1.0198140  )
        61        Ga     tau(  61) = (  -0.3333486   0.7694811   0.5443436  )
        62        Ga     tau(  62) = (  -0.1666187   0.6736030   0.8155841  )
        63        N      tau(  63) = (  -0.3333720   0.7695085   0.7486494  )
        64        N      tau(  64) = (  -0.1665540   0.6736404   1.0198136  )
        65        Ga     tau(  65) = (   0.0000000   0.7698004   0.5440636  )
        66        Ga     tau(  66) = (   0.1666187   0.6736030   0.8155841  )
        67        N      tau(  67) = (   0.0000000   0.7698004   0.7482669  )
        68        N      tau(  68) = (   0.1665540   0.6736404   1.0198136  )
        69        Ga     tau(  69) = (   0.3333486   0.7694811   0.5443436  )
        70        Ga     tau(  70) = (   0.5000000   0.6733583   0.8155399  )
        71        N      tau(  71) = (   0.3333720   0.7695085   0.7486494  )
        72        N      tau(  72) = (   0.5000000   0.6734188   1.0198140  )
        73        Ga     tau(  73) = (   0.0000000   0.1924501   1.0865371  )
        74        Ga     tau(  74) = (   0.1669405   0.0960669   1.3572932  )
        75        N      tau(  75) = (   0.0000000   0.1924501   1.2906377  )
        76        N      tau(  76) = (   0.1676829   0.0956383   1.5603054  )
        77        Ga     tau(  77) = (   0.3334228   0.1925216   1.0866333  )
        78        Ga     tau(  78) = (   0.5000000   0.0962876   1.3584858  )
        79        N      tau(  79) = (   0.3336767   0.1926606   1.2909162  )
        80        N      tau(  80) = (   0.5000000   0.0962314   1.5631806  )
        81        Ga     tau(  81) = (   0.6665772   0.1925216   1.0866333  )
        82        Ga     tau(  82) = (   0.8330595   0.0960669   1.3572932  )
        83        N      tau(  83) = (   0.6663233   0.1926606   1.2909162  )
        84        N      tau(  84) = (   0.8323171   0.0956383   1.5603054  )
        85        Ga     tau(  85) = (  -0.1667733   0.4811670   1.0866333  )
        86        Ga     tau(  86) = (   0.0000000   0.3852164   1.3572932  )
        87        N      tau(  87) = (  -0.1670207   0.4813173   1.2909162  )
        88        N      tau(  88) = (   0.0000000   0.3860737   1.5603054  )
        89        Ga     tau(  89) = (   0.1667733   0.4811670   1.0866333  )
        90        Ga     tau(  90) = (   0.3332762   0.3848672   1.3585772  )
        91        N      tau(  91) = (   0.1670207   0.4813173   1.2909162  )
        92        N      tau(  92) = (   0.3332344   0.3848431   1.5633989  )
        93        Ga     tau(  93) = (   0.5000000   0.4811252   1.0871564  )
        94        Ga     tau(  94) = (   0.6667238   0.3848672   1.3585772  )
        95        N      tau(  95) = (   0.5000000   0.4811252   1.2917352  )
        96        N      tau(  96) = (   0.6667656   0.3848431   1.5633989  )
        97        Ga     tau(  97) = (  -0.3333505   0.7696871   1.0866333  )
        98        Ga     tau(  98) = (  -0.1667209   0.6735440   1.3584858  )
        99        N      tau(  99) = (  -0.3333440   0.7693977   1.2909162  )
       100        N      tau( 100) = (  -0.1666722   0.6735721   1.5631806  )
       101        Ga     tau( 101) = (   0.0000000   0.7698004   1.0870172  )
       102        Ga     tau( 102) = (   0.1667209   0.6735440   1.3584858  )
       103        N      tau( 103) = (   0.0000000   0.7698004   1.2915456  )
       104        N      tau( 104) = (   0.1666722   0.6735721   1.5631806  )
       105        Ga     tau( 105) = (   0.3333505   0.7696871   1.0866333  )
       106        Ga     tau( 106) = (   0.5000000   0.6736413   1.3585772  )
       107        N      tau( 107) = (   0.3333440   0.7693977   1.2909162  )
       108        N      tau( 108) = (   0.5000000   0.6736896   1.5633989  )

   Crystallographic axes

     site n.     atom                  positions (cryst. coord.)
         1        Ga     tau(   1) = (  0.1111111  0.2222222  0.0002177  )
         2        Ga     tau(   2) = (  0.2218766  0.1114567  0.1675980  )
         3        C      tau(   3) = (  0.1111111  0.2222222  0.1245899  )
         4        N      tau(   4) = (  0.2231745  0.1101588  0.2934743  )
         5        Ga     tau(   5) = (  0.4435781  0.2217765 -0.0001836  )
         6        Ga     tau(   6) = (  0.5553091  0.1106182  0.1670582  )
         7        N      tau(   7) = (  0.4455408  0.2219406  0.1254755  )
         8        N      tau(   8) = (  0.5554647  0.1109294  0.2923478  )
         9        Ga     tau(   9) = (  0.7781983  0.2217765 -0.0001836  )
        10        Ga     tau(  10) = (  0.8895801  0.1114567  0.1675980  )
        11        N      tau(  11) = (  0.7763998  0.2219406  0.1254755  )
        12        N      tau(  12) = (  0.8869843  0.1101588  0.2934743  )
        13        Ga     tau(  13) = (  0.1115569  0.5551350 -0.0001836  )
        14        Ga     tau(  14) = (  0.2218766  0.4437532  0.1675980  )
        15        N      tau(  15) = (  0.1113928  0.5569335  0.1254755  )
        16        N      tau(  16) = (  0.2231745  0.4463490  0.2934743  )
        17        Ga     tau(  17) = (  0.4435781  0.5551350 -0.0001836  )
        18        Ga     tau(  18) = (  0.5551871  0.4442602  0.1665730  )
        19        N      tau(  19) = (  0.4455408  0.5569335  0.1254755  )
        20        N      tau(  20) = (  0.5555246  0.4444290  0.2921583  )
        21        Ga     tau(  21) = (  0.7777778  0.5555556 -0.0000798  )
        22        Ga     tau(  22) = (  0.8890731  0.4442602  0.1665730  )
        23        N      tau(  23) = (  0.7777778  0.5555556  0.1255524  )
        24        N      tau(  24) = (  0.8889043  0.4444290  0.2921583  )
        25        Ga     tau(  25) = (  0.1115569  0.8897552 -0.0001836  )
        26        Ga     tau(  26) = (  0.2227151  0.7780242  0.1670582  )
        27        N      tau(  27) = (  0.1113928  0.8877926  0.1254755  )
        28        N      tau(  28) = (  0.2224039  0.7778686  0.2923478  )
        29        Ga     tau(  29) = (  0.4444444  0.8888889 -0.0002824  )
        30        Ga     tau(  30) = (  0.5553091  0.7780242  0.1670582  )
        31        N      tau(  31) = (  0.4444444  0.8888889  0.1254493  )
        32        N      tau(  32) = (  0.5554647  0.7778686  0.2923478  )
        33        Ga     tau(  33) = (  0.7781983  0.8897552 -0.0001836  )
        34        Ga     tau(  34) = (  0.8890731  0.7781463  0.1665730  )
        35        N      tau(  35) = (  0.7763998  0.8877926  0.1254755  )
        36        N      tau(  36) = (  0.8889043  0.7778087  0.2921583  )
        37        Ga     tau(  37) = (  0.1111111  0.2222222  0.3327626  )
        38        Ga     tau(  38) = (  0.2221506  0.1111827  0.4998763  )
        39        N      tau(  39) = (  0.1111111  0.2222222  0.4585949  )
        40        N      tau(  40) = (  0.2222592  0.1110741  0.6253519  )
        41        Ga     tau(  41) = (  0.4448131  0.2224218  0.3338641  )
        42        Ga     tau(  42) = (  0.5555236  0.1110471  0.5002249  )
        43        N      tau(  43) = (  0.4447815  0.2224294  0.4591716  )
        44        N      tau(  44) = (  0.5554804  0.1109608  0.6254857  )
        45        Ga     tau(  45) = (  0.7776087  0.2224218  0.3338641  )
        46        Ga     tau(  46) = (  0.8890322  0.1111827  0.4998763  )
        47        N      tau(  47) = (  0.7776479  0.2224294  0.4591716  )
        48        N      tau(  48) = (  0.8888149  0.1110741  0.6253519  )
        49        Ga     tau(  49) = (  0.1109115  0.5557246  0.3338641  )
        50        Ga     tau(  50) = (  0.2221506  0.4443012  0.4998763  )
        51        N      tau(  51) = (  0.1109039  0.5556854  0.4591716  )
        52        N      tau(  52) = (  0.2222592  0.4445184  0.6253519  )
        53        Ga     tau(  53) = (  0.4448131  0.5557246  0.3338641  )
        54        Ga     tau(  54) = (  0.5558062  0.4445697  0.5001978  )
        55        N      tau(  55) = (  0.4447815  0.5556854  0.4591716  )
        56        N      tau(  56) = (  0.5557362  0.4445348  0.6254859  )
        57        Ga     tau(  57) = (  0.7777778  0.5555556  0.3332782  )
        58        Ga     tau(  58) = (  0.8887636  0.4445697  0.5001978  )
        59        N      tau(  59) = (  0.7777778  0.5555556  0.4587302  )
        60        N      tau(  60) = (  0.8887986  0.4445348  0.6254859  )
        61        Ga     tau(  61) = (  0.1109115  0.8885202  0.3338641  )
        62        Ga     tau(  62) = (  0.2222862  0.7778098  0.5002249  )
        63        N      tau(  63) = (  0.1109039  0.8885519  0.4591716  )
        64        N      tau(  64) = (  0.2223725  0.7778529  0.6254857  )
        65        Ga     tau(  65) = (  0.4444444  0.8888889  0.3336924  )
        66        Ga     tau(  66) = (  0.5555236  0.7778098  0.5002249  )
        67        N      tau(  67) = (  0.4444444  0.8888889  0.4589370  )
        68        N      tau(  68) = (  0.5554804  0.7778529  0.6254857  )
        69        Ga     tau(  69) = (  0.7776087  0.8885202  0.3338641  )
        70        Ga     tau(  70) = (  0.8887636  0.7775272  0.5001978  )
        71        N      tau(  71) = (  0.7776479  0.8885519  0.4591716  )
        72        N      tau(  72) = (  0.8887986  0.7775971  0.6254859  )
        73        Ga     tau(  73) = (  0.1111111  0.2222222  0.6664094  )
        74        Ga     tau(  74) = (  0.2224048  0.1109285  0.8324732  )
        75        N      tau(  75) = (  0.1111111  0.2222222  0.7915911  )
        76        N      tau(  76) = (  0.2228997  0.1104336  0.9569873  )
        77        Ga     tau(  77) = (  0.4445752  0.2223048  0.6664684  )
        78        Ga     tau(  78) = (  0.5555917  0.1111834  0.8332046  )
        79        N      tau(  79) = (  0.4449094  0.2224653  0.7917619  )
        80        N      tau(  80) = (  0.5555592  0.1111185  0.9587508  )
        81        Ga     tau(  81) = (  0.7777296  0.2223048  0.6664684  )
        82        Ga     tau(  82) = (  0.8885237  0.1109285  0.8324732  )
        83        N      tau(  83) = (  0.7775559  0.2224653  0.7917619  )
        84        N      tau(  84) = (  0.8875339  0.1104336  0.9569873  )
        85        Ga     tau(  85) = (  0.1110286  0.5556038  0.6664684  )
        86        Ga     tau(  86) = (  0.2224048  0.4448096  0.8324732  )
        87        N      tau(  87) = (  0.1108680  0.5557774  0.7917619  )
        88        N      tau(  88) = (  0.2228997  0.4457995  0.9569873  )
        89        Ga     tau(  89) = (  0.4445752  0.5556038  0.6664684  )
        90        Ga     tau(  90) = (  0.5554794  0.4444064  0.8332607  )
        91        N      tau(  91) = (  0.4449094  0.5557774  0.7917619  )
        92        N      tau(  92) = (  0.5554236  0.4443785  0.9588846  )
        93        Ga     tau(  93) = (  0.7777778  0.5555556  0.6667893  )
        94        Ga     tau(  94) = (  0.8889270  0.4444064  0.8332607  )
        95        N      tau(  95) = (  0.7777778  0.5555556  0.7922643  )
        96        N      tau(  96) = (  0.8889549  0.4443785  0.9588846  )
        97        Ga     tau(  97) = (  0.1110286  0.8887581  0.6664684  )
        98        Ga     tau(  98) = (  0.2221500  0.7777417  0.8332046  )
        99        N      tau(  99) = (  0.1108680  0.8884239  0.7917619  )
       100        N      tau( 100) = (  0.2222149  0.7777741  0.9587508  )
       101        Ga     tau( 101) = (  0.4444444  0.8888889  0.6667039  )
       102        Ga     tau( 102) = (  0.5555917  0.7777417  0.8332046  )
       103        N      tau( 103) = (  0.4444444  0.8888889  0.7921480  )
       104        N      tau( 104) = (  0.5555592  0.7777741  0.9587508  )
       105        Ga     tau( 105) = (  0.7777296  0.8887581  0.6664684  )
       106        Ga     tau( 106) = (  0.8889270  0.7778539  0.8332607  )
       107        N      tau( 107) = (  0.7775559  0.8884239  0.7917619  )
       108        N      tau( 108) = (  0.8889549  0.7779097  0.9588846  )

     number of k points=    35 (tetrahedron method)
                       cart. coord. in units 2pi/alat
        k(    1) = (   0.0000000   0.0000000   0.0000000), wk =   0.0039062
        k(    2) = (   0.0000000   0.0000000   0.1533333), wk =   0.0078125
        k(    3) = (   0.0000000   0.0000000  -0.3066667), wk =   0.0039062
        k(    4) = (   0.0000000   0.1443376   0.0000000), wk =   0.0234375
        k(    5) = (   0.0000000   0.1443376   0.1533333), wk =   0.0234375
        k(    6) = (   0.0000000   0.1443376  -0.3066667), wk =   0.0234375
        k(    7) = (   0.0000000   0.2886751   0.0000000), wk =   0.0234375
        k(    8) = (   0.0000000   0.2886751   0.1533333), wk =   0.0234375
        k(    9) = (   0.0000000   0.2886751  -0.3066667), wk =   0.0234375
        k(   10) = (   0.0000000   0.4330127   0.0000000), wk =   0.0234375
        k(   11) = (   0.0000000   0.4330127   0.1533333), wk =   0.0234375
        k(   12) = (   0.0000000   0.4330127  -0.3066667), wk =   0.0234375
        k(   13) = (   0.0000000  -0.5773503   0.0000000), wk =   0.0117188
        k(   14) = (   0.0000000  -0.5773503   0.1533333), wk =   0.0234375
        k(   15) = (   0.0000000  -0.5773503  -0.3066667), wk =   0.0117188
        k(   16) = (   0.1250000   0.2165064   0.0000000), wk =   0.0234375
        k(   17) = (   0.1250000   0.2165064   0.1533333), wk =   0.0468750
        k(   18) = (   0.1250000   0.2165064  -0.3066667), wk =   0.0234375
        k(   19) = (   0.1250000   0.3608439   0.0000000), wk =   0.0468750
        k(   20) = (   0.1250000   0.3608439   0.1533333), wk =   0.0468750
        k(   21) = (   0.1250000   0.3608439  -0.3066667), wk =   0.0468750
        k(   22) = (   0.1250000   0.5051815   0.0000000), wk =   0.0468750
        k(   23) = (   0.1250000   0.5051815   0.1533333), wk =   0.0468750
        k(   24) = (   0.1250000   0.5051815  -0.3066667), wk =   0.0468750
        k(   25) = (   0.2500000   0.4330127   0.0000000), wk =   0.0234375
        k(   26) = (   0.2500000   0.4330127   0.1533333), wk =   0.0468750
        k(   27) = (   0.2500000   0.4330127  -0.3066667), wk =   0.0234375
        k(   28) = (   0.2500000   0.5773503   0.0000000), wk =   0.0234375
        k(   29) = (   0.2500000   0.5773503   0.1533333), wk =   0.0468750
        k(   30) = (   0.2500000   0.5773503  -0.3066667), wk =   0.0234375
        k(   31) = (   0.0000000  -0.1443376   0.1533333), wk =   0.0234375
        k(   32) = (   0.0000000  -0.2886751   0.1533333), wk =   0.0234375
        k(   33) = (   0.0000000  -0.4330127   0.1533333), wk =   0.0234375
        k(   34) = (  -0.1250000  -0.3608439   0.1533333), wk =   0.0468750
        k(   35) = (  -0.1250000  -0.5051815   0.1533333), wk =   0.0468750

                       cryst. coord.
        k(    1) = (   0.0000000   0.0000000   0.0000000), wk =   0.0039062
        k(    2) = (   0.0000000   0.0000000   0.2500000), wk =   0.0078125
        k(    3) = (   0.0000000   0.0000000  -0.5000000), wk =   0.0039062
        k(    4) = (   0.0000000   0.1250000   0.0000000), wk =   0.0234375
        k(    5) = (   0.0000000   0.1250000   0.2500000), wk =   0.0234375
        k(    6) = (   0.0000000   0.1250000  -0.5000000), wk =   0.0234375
        k(    7) = (   0.0000000   0.2500000   0.0000000), wk =   0.0234375
        k(    8) = (   0.0000000   0.2500000   0.2500000), wk =   0.0234375
        k(    9) = (   0.0000000   0.2500000  -0.5000000), wk =   0.0234375
        k(   10) = (   0.0000000   0.3750000   0.0000000), wk =   0.0234375
        k(   11) = (   0.0000000   0.3750000   0.2500000), wk =   0.0234375
        k(   12) = (   0.0000000   0.3750000  -0.5000000), wk =   0.0234375
        k(   13) = (   0.0000000  -0.5000000   0.0000000), wk =   0.0117188
        k(   14) = (   0.0000000  -0.5000000   0.2500000), wk =   0.0234375
        k(   15) = (   0.0000000  -0.5000000  -0.5000000), wk =   0.0117188
        k(   16) = (   0.1250000   0.1250000   0.0000000), wk =   0.0234375
        k(   17) = (   0.1250000   0.1250000   0.2500000), wk =   0.0468750
        k(   18) = (   0.1250000   0.1250000  -0.5000000), wk =   0.0234375
        k(   19) = (   0.1250000   0.2500000   0.0000000), wk =   0.0468750
        k(   20) = (   0.1250000   0.2500000   0.2500000), wk =   0.0468750
        k(   21) = (   0.1250000   0.2500000  -0.5000000), wk =   0.0468750
        k(   22) = (   0.1250000   0.3750000   0.0000000), wk =   0.0468750
        k(   23) = (   0.1250000   0.3750000   0.2500000), wk =   0.0468750
        k(   24) = (   0.1250000   0.3750000  -0.5000000), wk =   0.0468750
        k(   25) = (   0.2500000   0.2500000   0.0000000), wk =   0.0234375
        k(   26) = (   0.2500000   0.2500000   0.2500000), wk =   0.0468750
        k(   27) = (   0.2500000   0.2500000  -0.5000000), wk =   0.0234375
        k(   28) = (   0.2500000   0.3750000   0.0000000), wk =   0.0234375
        k(   29) = (   0.2500000   0.3750000   0.2500000), wk =   0.0468750
        k(   30) = (   0.2500000   0.3750000  -0.5000000), wk =   0.0234375
        k(   31) = (   0.0000000  -0.1250000   0.2500000), wk =   0.0234375
        k(   32) = (   0.0000000  -0.2500000   0.2500000), wk =   0.0234375
        k(   33) = (   0.0000000  -0.3750000   0.2500000), wk =   0.0234375
        k(   34) = (  -0.1250000  -0.2500000   0.2500000), wk =   0.0468750
        k(   35) = (  -0.1250000  -0.3750000   0.2500000), wk =   0.0468750

     Dense  grid:  1621723 G-vectors     FFT dimensions: ( 135, 135, 216)

     Smooth grid:   410263 G-vectors     FFT dimensions: (  90,  90, 135)

     Dynamical RAM for                 wfc:      27.39 MB

     Dynamical RAM for     wfc (w. buffer):      27.39 MB

     Dynamical RAM for           str. fact:       4.64 MB

     Dynamical RAM for           local pot:       0.00 MB

     Dynamical RAM for          nlocal pot:      68.66 MB

     Dynamical RAM for                qrad:       5.38 MB

     Dynamical RAM for          rho,v,vnew:      20.96 MB

     Dynamical RAM for           G-vectors:       6.00 MB

     Dynamical RAM for          h,s,v(r/c):       3.59 MB

     Dynamical RAM for          <psi|beta>:      12.00 MB

     Dynamical RAM for                 psi:      54.77 MB

     Dynamical RAM for                hpsi:      54.77 MB

     Dynamical RAM for                spsi:      54.77 MB

     Dynamical RAM for      wfcinit/wfcrot:      79.95 MB

     Dynamical RAM for           addusdens:     372.74 MB

     Estimated static dynamical RAM per process >     150.89 MB

     Estimated max dynamical RAM per process >     523.63 MB

     Estimated total dynamical RAM >       8.18 GB
     Generating pointlists ...
     new r_m :   0.0836 (alat units)  1.5270 (a.u.) for type    1
     new r_m :   0.0837 (alat units)  1.5281 (a.u.) for type    2
     new r_m :   0.0836 (alat units)  1.5270 (a.u.) for type    3

     The potential is recalculated from file :
     ./tmp/GaN.save/charge-density

     Starting wfcs are  702 randomized atomic wfcs
     Checking if some PAW data can be deallocated... 
       PAW data deallocated on   15 nodes for type:  3

     Band Structure Calculation
     Davidson diagonalization with overlap

     Computing kpt #:     1  of    70
