
     Program PWSCF v.7.3.1 starts on  6Jun2026 at 14:53:35 

     This program is part of the open-source Quantum ESPRESSO suite
     for quantum simulation of materials; please cite
         "P. Giannozzi et al., J. Phys.:Condens. Matter 21 395502 (2009);
         "P. Giannozzi et al., J. Phys.:Condens. Matter 29 465901 (2017);
         "P. Giannozzi et al., J. Chem. Phys. 152 154105 (2020);
          URL http://www.quantum-espresso.org", 
     in publications or presentations arising from this work. More details at
     http://www.quantum-espresso.org/quote

     Parallel version (MPI & OpenMP), running on       8 processor cores
     Number of MPI processes:                 8
     Threads/MPI process:                     1

     MPI processes distributed on     1 nodes
     26835 MiB available memory on the printing compute node when the environment starts
 
     Waiting for input...
     Reading input from standard input

     Current dimensions of program PWSCF are:
     Max number of different atomic species (ntypx) = 10
     Max number of k-points (npk) =  40000
     Max angular momentum in pseudopotentials (lmaxx) =  4
     file Ga.pbe-dn-kjpaw_psl.1.0.0.UPF: wavefunction(s)  4S renormalized
     file N.pbe-n-kjpaw_psl.1.0.0.UPF: wavefunction(s)  2S renormalized
 
     R & G space division:  proc/nbgrp/npool/nimage =       8
     Subspace diagonalization in iterative solution of the eigenvalue problem:
     a serial algorithm will be used

 
     Parallelization info
     --------------------
     sticks:   dense  smooth     PW     G-vecs:    dense   smooth      PW
     Min         223      90     26                12449     3138     520
     Max         224      91     27                12456     3140     527
     Sum        1789     721    211                99623    25109    4187
 
     Using Slab Decomposition
 


     bravais-lattice index     =            4
     lattice parameter (alat)  =       6.0849  a.u.
     unit-cell volume          =     318.1254 (a.u.)^3
     number of atoms/cell      =            4
     number of atomic types    =            2
     number of electrons       =        36.00
     number of Kohn-Sham states=           22
     kinetic-energy cutoff     =      70.0000  Ry
     charge density cutoff     =     700.0000  Ry
     scf convergence threshold =      1.0E-08
     mixing beta               =       0.7000
     number of iterations used =            8  plain     mixing
     Exchange-correlation= SLA  PW   PBX  PBC
                           (   1   4   3   4   0   0   0)

     celldm(1)=   6.084918  celldm(2)=   0.000000  celldm(3)=   1.630435
     celldm(4)=   0.000000  celldm(5)=   0.000000  celldm(6)=   0.000000

     crystal axes: (cart. coord. in units of alat)
               a(1) = (   1.000000   0.000000   0.000000 )  
               a(2) = (  -0.500000   0.866025   0.000000 )  
               a(3) = (   0.000000   0.000000   1.630435 )  

     reciprocal axes: (cart. coord. in units 2 pi/alat)
               b(1) = (  1.000000  0.577350  0.000000 )  
               b(2) = (  0.000000  1.154701  0.000000 )  
               b(3) = (  0.000000  0.000000  0.613333 )  


     PseudoPot. # 1 for Ga read from file:
     /data-fast/greenano/Students/cohort2/rojassan/Project_GaN/PSEUDO/Ga.pbe-dn-kjpaw_psl.1.0.0.UPF
     MD5 check sum: 93aceff68ec27daa0acc11ebb2e245f0
     Pseudo is Projector augmented-wave + core cor, Zval = 13.0
     Generated using 'atomic' code by A. Dal Corso  v.7.3.1
     Shape of augmentation charge: PSQ
     Using radial grid of 1205 points,  6 beta functions with: 
                l(1) =   0
                l(2) =   0
                l(3) =   1
                l(4) =   1
                l(5) =   2
                l(6) =   2
     Q(r) pseudized with 0 coefficients 


     PseudoPot. # 2 for N  read from file:
     /data-fast/greenano/Students/cohort2/rojassan/Project_GaN/PSEUDO/N.pbe-n-kjpaw_psl.1.0.0.UPF
     MD5 check sum: 86f48117b7e7b472c01f85d0863ba463
     Pseudo is Projector augmented-wave + core cor, Zval =  5.0
     Generated using 'atomic' code by A. Dal Corso  v.7.3.1
     Shape of augmentation charge: PSQ
     Using radial grid of 1085 points,  4 beta functions with: 
                l(1) =   0
                l(2) =   0
                l(3) =   1
                l(4) =   1
     Q(r) pseudized with 0 coefficients 


     atomic species   valence    mass     pseudopotential
     Ga               13.00    69.72300     Ga( 1.00)
     N                 5.00    14.00700     N ( 1.00)

     Starting magnetic structure 
     atomic species   magnetization
     Ga              0.100
     N               0.000

     12 Sym. Ops. (no inversion) found ( 6 have fractional translation)


                                    s                        frac. trans.

      isym =  1     identity                                     

 cryst.   s( 1) = (     1          0          0      )
                  (     0          1          0      )
                  (     0          0          1      )

 cart.    s( 1) = (  1.0000000  0.0000000  0.0000000 )
                  (  0.0000000  1.0000000  0.0000000 )
                  (  0.0000000  0.0000000  1.0000000 )


      isym =  2     180 deg rotation - cart. axis [0,0,1]        

 cryst.   s( 2) = (    -1          0          0      )    f =(  0.0000000 )
                  (     0         -1          0      )       (  0.0000000 )
                  (     0          0          1      )       ( -0.5000000 )

 cart.    s( 2) = ( -1.0000000  0.0000000  0.0000000 )    f =(  0.0000000 )
                  (  0.0000000 -1.0000000  0.0000000 )       (  0.0000000 )
                  (  0.0000000  0.0000000  1.0000000 )       ( -0.8152174 )


      isym =  3      60 deg rotation - cryst. axis [0,0,1]       

 cryst.   s( 3) = (     1          1          0      )    f =(  0.0000000 )
                  (    -1          0          0      )       (  0.0000000 )
                  (     0          0          1      )       ( -0.5000000 )

 cart.    s( 3) = (  0.5000000 -0.8660254  0.0000000 )    f =(  0.0000000 )
                  (  0.8660254  0.5000000  0.0000000 )       (  0.0000000 )
                  (  0.0000000  0.0000000  1.0000000 )       ( -0.8152174 )


      isym =  4      60 deg rotation - cryst. axis [0,0,-1]      

 cryst.   s( 4) = (     0         -1          0      )    f =(  0.0000000 )
                  (     1          1          0      )       (  0.0000000 )
                  (     0          0          1      )       ( -0.5000000 )

 cart.    s( 4) = (  0.5000000  0.8660254  0.0000000 )    f =( -0.0000000 )
                  ( -0.8660254  0.5000000  0.0000000 )       (  0.0000000 )
                  (  0.0000000  0.0000000  1.0000000 )       ( -0.8152174 )


      isym =  5     120 deg rotation - cryst. axis [0,0,1]       

 cryst.   s( 5) = (     0          1          0      )
                  (    -1         -1          0      )
                  (     0          0          1      )

 cart.    s( 5) = ( -0.5000000 -0.8660254  0.0000000 )
                  (  0.8660254 -0.5000000  0.0000000 )
                  (  0.0000000  0.0000000  1.0000000 )


      isym =  6     120 deg rotation - cryst. axis [0,0,-1]      

 cryst.   s( 6) = (    -1         -1          0      )
                  (     1          0          0      )
                  (     0          0          1      )

 cart.    s( 6) = ( -0.5000000  0.8660254  0.0000000 )
                  ( -0.8660254 -0.5000000  0.0000000 )
                  (  0.0000000  0.0000000  1.0000000 )


      isym =  7     inv. 180 deg rotation - cart. axis [0,1,0]   

 cryst.   s( 7) = (     1          0          0      )    f =(  0.0000000 )
                  (    -1         -1          0      )       (  0.0000000 )
                  (     0          0          1      )       ( -0.5000000 )

 cart.    s( 7) = (  1.0000000  0.0000000  0.0000000 )    f =( -0.0000000 )
                  (  0.0000000 -1.0000000  0.0000000 )       (  0.0000000 )
                  (  0.0000000  0.0000000  1.0000000 )       ( -0.8152174 )


      isym =  8     inv. 180 deg rotation - cart. axis [1,0,0]   

 cryst.   s( 8) = (    -1          0          0      )
                  (     1          1          0      )
                  (     0          0          1      )

 cart.    s( 8) = ( -1.0000000  0.0000000  0.0000000 )
                  (  0.0000000  1.0000000  0.0000000 )
                  (  0.0000000  0.0000000  1.0000000 )


      isym =  9     inv. 180 deg rotation - cryst. axis [1,-1,0] 

 cryst.   s( 9) = (     0          1          0      )    f =(  0.0000000 )
                  (     1          0          0      )       (  0.0000000 )
                  (     0          0          1      )       ( -0.5000000 )

 cart.    s( 9) = ( -0.5000000  0.8660254  0.0000000 )    f =(  0.0000000 )
                  (  0.8660254  0.5000000  0.0000000 )       (  0.0000000 )
                  (  0.0000000  0.0000000  1.0000000 )       ( -0.8152174 )


      isym = 10     inv. 180 deg rotation - cryst. axis [2,1,0]  

 cryst.   s(10) = (    -1         -1          0      )    f =(  0.0000000 )
                  (     0          1          0      )       (  0.0000000 )
                  (     0          0          1      )       ( -0.5000000 )

 cart.    s(10) = ( -0.5000000 -0.8660254  0.0000000 )    f =(  0.0000000 )
                  ( -0.8660254  0.5000000  0.0000000 )       (  0.0000000 )
                  (  0.0000000  0.0000000  1.0000000 )       ( -0.8152174 )


      isym = 11     inv. 180 deg rotation - cryst. axis [0,1,0]  

 cryst.   s(11) = (     1          1          0      )
                  (     0         -1          0      )
                  (     0          0          1      )

 cart.    s(11) = (  0.5000000  0.8660254  0.0000000 )
                  (  0.8660254 -0.5000000  0.0000000 )
                  (  0.0000000  0.0000000  1.0000000 )


      isym = 12     inv. 180 deg rotation - cryst. axis [1,1,0]  

 cryst.   s(12) = (     0         -1          0      )
                  (    -1          0          0      )
                  (     0          0          1      )

 cart.    s(12) = (  0.5000000 -0.8660254  0.0000000 )
                  ( -0.8660254 -0.5000000  0.0000000 )
                  (  0.0000000  0.0000000  1.0000000 )


     point group C_6v (6mm) 
     there are  6 classes
     the character table:

       E     2C6   2C3   C2    3s_v  3s_d 
A_1    1.00  1.00  1.00  1.00  1.00  1.00
A_2    1.00  1.00  1.00  1.00 -1.00 -1.00
B_1    1.00 -1.00  1.00 -1.00  1.00 -1.00
B_2    1.00 -1.00  1.00 -1.00 -1.00  1.00
E_1    2.00  1.00 -1.00 -2.00  0.00  0.00
E_2    2.00 -1.00 -1.00  2.00  0.00  0.00

     the symmetry operations in each class and the name of the first element:

     E        1
          identity                                               
     2C6      3    4
           60 deg rotation - cryst. axis [0,0,1]                 
     2C3      5    6
          120 deg rotation - cryst. axis [0,0,1]                 
     C2       2
          180 deg rotation - cart. axis [0,0,1]                  
     3s_v     8   12   11
          inv. 180 deg rotation - cart. axis [1,0,0]             
     3s_d     7    9   10
          inv. 180 deg rotation - cart. axis [0,1,0]             

   Cartesian axes

     site n.     atom                  positions (alat units)
         1        Ga     tau(   1) = (   0.0000000   0.5773503   0.0000000  )
         2        Ga     tau(   2) = (   0.5000000   0.2886751   0.8152174  )
         3        N      tau(   3) = (   0.0000000   0.5773503   0.6136663  )
         4        N      tau(   4) = (   0.5000000   0.2886751   1.4288837  )

   Crystallographic axes

     site n.     atom                  positions (cryst. coord.)
         1        Ga     tau(   1) = (  0.3333333  0.6666667  0.0000000  )
         2        Ga     tau(   2) = (  0.6666667  0.3333333  0.5000000  )
         3        N      tau(   3) = (  0.3333333  0.6666667  0.3763820  )
         4        N      tau(   4) = (  0.6666667  0.3333333  0.8763820  )

     number of k points=    12  Gaussian smearing, width (Ry)=  0.0010
                       cart. coord. in units 2pi/alat
        k(    1) = (   0.1250000   0.2165064   0.1022222), wk =   0.0833333
        k(    2) = (   0.1250000   0.2165064  -0.3066667), wk =   0.0416667
        k(    3) = (   0.1250000   0.5051815   0.1022222), wk =   0.1666667
        k(    4) = (   0.1250000   0.5051815  -0.3066667), wk =   0.0833333
        k(    5) = (   0.1250000  -0.3608439   0.1022222), wk =   0.1666667
        k(    6) = (   0.1250000  -0.3608439  -0.3066667), wk =   0.0833333
        k(    7) = (   0.1250000  -0.0721688   0.1022222), wk =   0.0833333
        k(    8) = (   0.1250000  -0.0721688  -0.3066667), wk =   0.0416667
        k(    9) = (   0.3750000   0.6495191   0.1022222), wk =   0.0833333
        k(   10) = (   0.3750000   0.6495191  -0.3066667), wk =   0.0416667
        k(   11) = (   0.3750000  -0.2165064   0.1022222), wk =   0.0833333
        k(   12) = (   0.3750000  -0.2165064  -0.3066667), wk =   0.0416667

                       cryst. coord.
        k(    1) = (   0.1250000   0.1250000   0.1666667), wk =   0.0833333
        k(    2) = (   0.1250000   0.1250000  -0.5000000), wk =   0.0416667
        k(    3) = (   0.1250000   0.3750000   0.1666667), wk =   0.1666667
        k(    4) = (   0.1250000   0.3750000  -0.5000000), wk =   0.0833333
        k(    5) = (   0.1250000  -0.3750000   0.1666667), wk =   0.1666667
        k(    6) = (   0.1250000  -0.3750000  -0.5000000), wk =   0.0833333
        k(    7) = (   0.1250000  -0.1250000   0.1666667), wk =   0.0833333
        k(    8) = (   0.1250000  -0.1250000  -0.5000000), wk =   0.0416667
        k(    9) = (   0.3750000   0.3750000   0.1666667), wk =   0.0833333
        k(   10) = (   0.3750000   0.3750000  -0.5000000), wk =   0.0416667
        k(   11) = (   0.3750000  -0.3750000   0.1666667), wk =   0.0833333
        k(   12) = (   0.3750000  -0.3750000  -0.5000000), wk =   0.0416667

     Dense  grid:    99623 G-vectors     FFT dimensions: (  54,  54,  90)

     Smooth grid:    25109 G-vectors     FFT dimensions: (  36,  36,  54)

     Dynamical RAM for                 wfc:       0.13 MB

     Dynamical RAM for     wfc (w. buffer):       3.30 MB

     Dynamical RAM for           str. fact:       0.38 MB

     Dynamical RAM for           local pot:       0.00 MB

     Dynamical RAM for          nlocal pot:       0.31 MB

     Dynamical RAM for                qrad:       4.24 MB

     Dynamical RAM for          rho,v,vnew:       2.74 MB

     Dynamical RAM for               rhoin:       0.91 MB

     Dynamical RAM for            rho*nmix:       6.08 MB

     Dynamical RAM for           G-vectors:       0.74 MB

     Dynamical RAM for          h,s,v(r/c):       0.09 MB

     Dynamical RAM for          <psi|beta>:       0.02 MB

     Dynamical RAM for                 psi:       0.26 MB

     Dynamical RAM for                hpsi:       0.26 MB

     Dynamical RAM for                spsi:       0.26 MB

     Dynamical RAM for      wfcinit/wfcrot:       0.33 MB

     Dynamical RAM for           addusdens:      35.92 MB

     Dynamical RAM for          addusforce:      36.32 MB

     Dynamical RAM for         addusstress:      38.49 MB

     Estimated static dynamical RAM per process >      14.80 MB

     Estimated max dynamical RAM per process >      59.37 MB

     Estimated total dynamical RAM >     474.95 MB
     Generating pointlists ...
     new r_m :   0.2523 (alat units)  1.5349 (a.u.) for type    1
     new r_m :   0.2523 (alat units)  1.5349 (a.u.) for type    2

     Initial potential from superposition of free atoms

     starting charge      35.9941, renormalised to      36.0000
     Starting wfcs are   26 randomized atomic wfcs
     Checking if some PAW data can be deallocated... 
       PAW data deallocated on    4 nodes for type:  1
       PAW data deallocated on    4 nodes for type:  2

     total cpu time spent up to now is        0.7 secs

     Self-consistent Calculation

     iteration #  1     ecut=    70.00 Ry     beta= 0.70
     Davidson diagonalization with overlap

---- Real-time Memory Report at c_bands before calling an iterative solver
           179 MiB given to the printing process from OS
             0 MiB allocation reported by mallinfo(arena+hblkhd)
         26479 MiB available memory on the node where the printing process lives
------------------
     ethr =  1.00E-02,  avg # of iterations =  2.2

     total cpu time spent up to now is        1.4 secs

     total energy              =    -611.66413101 Ry
     estimated scf accuracy    <       1.25379063 Ry

     total magnetization       =    -0.00 Bohr mag/cell
     absolute magnetization    =     0.14 Bohr mag/cell

     iteration #  2     ecut=    70.00 Ry     beta= 0.70
     Davidson diagonalization with overlap

---- Real-time Memory Report at c_bands before calling an iterative solver
           198 MiB given to the printing process from OS
             0 MiB allocation reported by mallinfo(arena+hblkhd)
         26304 MiB available memory on the node where the printing process lives
------------------
     ethr =  3.48E-03,  avg # of iterations =  5.4

     total cpu time spent up to now is        2.2 secs

     total energy              =    -612.11256814 Ry
     estimated scf accuracy    <       1.42247029 Ry

     total magnetization       =     0.00 Bohr mag/cell
     absolute magnetization    =     0.08 Bohr mag/cell

     iteration #  3     ecut=    70.00 Ry     beta= 0.70
     Davidson diagonalization with overlap

---- Real-time Memory Report at c_bands before calling an iterative solver
           202 MiB given to the printing process from OS
             0 MiB allocation reported by mallinfo(arena+hblkhd)
         27074 MiB available memory on the node where the printing process lives
------------------
     ethr =  3.48E-03,  avg # of iterations =  2.0

     total cpu time spent up to now is        2.9 secs

     total energy              =    -612.38751145 Ry
     estimated scf accuracy    <       0.02934635 Ry

     total magnetization       =     0.00 Bohr mag/cell
     absolute magnetization    =     0.06 Bohr mag/cell

     iteration #  4     ecut=    70.00 Ry     beta= 0.70
     Davidson diagonalization with overlap

---- Real-time Memory Report at c_bands before calling an iterative solver
           203 MiB given to the printing process from OS
             0 MiB allocation reported by mallinfo(arena+hblkhd)
         27072 MiB available memory on the node where the printing process lives
------------------
     ethr =  8.15E-05,  avg # of iterations =  9.3

     total cpu time spent up to now is        4.0 secs

     total energy              =    -612.42988866 Ry
     estimated scf accuracy    <       0.00220683 Ry

     total magnetization       =     0.00 Bohr mag/cell
     absolute magnetization    =     0.02 Bohr mag/cell

     iteration #  5     ecut=    70.00 Ry     beta= 0.70
     Davidson diagonalization with overlap

---- Real-time Memory Report at c_bands before calling an iterative solver
           203 MiB given to the printing process from OS
             0 MiB allocation reported by mallinfo(arena+hblkhd)
         26897 MiB available memory on the node where the printing process lives
------------------
     ethr =  6.13E-06,  avg # of iterations =  7.9

     total cpu time spent up to now is        5.1 secs

     total energy              =    -612.43169467 Ry
     estimated scf accuracy    <       0.00074947 Ry

     total magnetization       =     0.00 Bohr mag/cell
     absolute magnetization    =     0.01 Bohr mag/cell

     iteration #  6     ecut=    70.00 Ry     beta= 0.70
     Davidson diagonalization with overlap

---- Real-time Memory Report at c_bands before calling an iterative solver
           204 MiB given to the printing process from OS
             0 MiB allocation reported by mallinfo(arena+hblkhd)
         26548 MiB available memory on the node where the printing process lives
------------------
     ethr =  2.08E-06,  avg # of iterations =  3.0

     total cpu time spent up to now is        5.8 secs

     total energy              =    -612.43173793 Ry
     estimated scf accuracy    <       0.00016156 Ry

     total magnetization       =     0.00 Bohr mag/cell
     absolute magnetization    =     0.01 Bohr mag/cell

     iteration #  7     ecut=    70.00 Ry     beta= 0.70
     Davidson diagonalization with overlap

---- Real-time Memory Report at c_bands before calling an iterative solver
           205 MiB given to the printing process from OS
             0 MiB allocation reported by mallinfo(arena+hblkhd)
         26547 MiB available memory on the node where the printing process lives
------------------
     ethr =  4.49E-07,  avg # of iterations =  4.6

     total cpu time spent up to now is        6.5 secs

     total energy              =    -612.43180209 Ry
     estimated scf accuracy    <       0.00000128 Ry

     total magnetization       =     0.00 Bohr mag/cell
     absolute magnetization    =     0.00 Bohr mag/cell

     iteration #  8     ecut=    70.00 Ry     beta= 0.70
     Davidson diagonalization with overlap

---- Real-time Memory Report at c_bands before calling an iterative solver
           205 MiB given to the printing process from OS
             0 MiB allocation reported by mallinfo(arena+hblkhd)
         26195 MiB available memory on the node where the printing process lives
------------------
     c_bands:  4 eigenvalues not converged
     c_bands:  1 eigenvalues not converged
     c_bands:  2 eigenvalues not converged
     c_bands:  2 eigenvalues not converged
     ethr =  3.56E-09,  avg # of iterations = 21.0

     total cpu time spent up to now is        9.0 secs

     total energy              =    -612.43182473 Ry
     estimated scf accuracy    <       0.00000238 Ry

     total magnetization       =    -0.00 Bohr mag/cell
     absolute magnetization    =     0.00 Bohr mag/cell

     iteration #  9     ecut=    70.00 Ry     beta= 0.70
     Davidson diagonalization with overlap

---- Real-time Memory Report at c_bands before calling an iterative solver
           207 MiB given to the printing process from OS
             0 MiB allocation reported by mallinfo(arena+hblkhd)
         25845 MiB available memory on the node where the printing process lives
------------------
     ethr =  3.56E-09,  avg # of iterations =  1.4

     total cpu time spent up to now is        9.6 secs

     total energy              =    -612.43182432 Ry
     estimated scf accuracy    <       0.00000098 Ry

     total magnetization       =     0.00 Bohr mag/cell
     absolute magnetization    =     0.00 Bohr mag/cell

     iteration # 10     ecut=    70.00 Ry     beta= 0.70
     Davidson diagonalization with overlap

---- Real-time Memory Report at c_bands before calling an iterative solver
           207 MiB given to the printing process from OS
             0 MiB allocation reported by mallinfo(arena+hblkhd)
         25845 MiB available memory on the node where the printing process lives
------------------
     ethr =  2.72E-09,  avg # of iterations =  5.8

     total cpu time spent up to now is       10.5 secs

     total energy              =    -612.43182492 Ry
     estimated scf accuracy    <       0.00000239 Ry

     total magnetization       =    -0.00 Bohr mag/cell
     absolute magnetization    =     0.00 Bohr mag/cell

     iteration # 11     ecut=    70.00 Ry     beta= 0.70
     Davidson diagonalization with overlap

---- Real-time Memory Report at c_bands before calling an iterative solver
           208 MiB given to the printing process from OS
             0 MiB allocation reported by mallinfo(arena+hblkhd)
         25815 MiB available memory on the node where the printing process lives
------------------
     ethr =  2.72E-09,  avg # of iterations =  1.0

     total cpu time spent up to now is       11.1 secs

     total energy              =    -612.43182463 Ry
     estimated scf accuracy    <       0.00000091 Ry

     total magnetization       =     0.00 Bohr mag/cell
     absolute magnetization    =     0.00 Bohr mag/cell

     iteration # 12     ecut=    70.00 Ry     beta= 0.70
     Davidson diagonalization with overlap

---- Real-time Memory Report at c_bands before calling an iterative solver
           208 MiB given to the printing process from OS
             0 MiB allocation reported by mallinfo(arena+hblkhd)
         25624 MiB available memory on the node where the printing process lives
------------------
     ethr =  2.52E-09,  avg # of iterations =  2.0

     total cpu time spent up to now is       11.7 secs

     total energy              =    -612.43182473 Ry
     estimated scf accuracy    <       0.00000002 Ry

     total magnetization       =     0.00 Bohr mag/cell
     absolute magnetization    =     0.00 Bohr mag/cell

     iteration # 13     ecut=    70.00 Ry     beta= 0.70
     Davidson diagonalization with overlap

---- Real-time Memory Report at c_bands before calling an iterative solver
           209 MiB given to the printing process from OS
             0 MiB allocation reported by mallinfo(arena+hblkhd)
         25599 MiB available memory on the node where the printing process lives
------------------
     ethr =  5.21E-11,  avg # of iterations = 13.4

     total cpu time spent up to now is       13.2 secs

     total energy              =    -612.43182485 Ry
     estimated scf accuracy    <       0.00000036 Ry

     total magnetization       =    -0.00 Bohr mag/cell
     absolute magnetization    =     0.00 Bohr mag/cell

     iteration # 14     ecut=    70.00 Ry     beta= 0.70
     Davidson diagonalization with overlap

---- Real-time Memory Report at c_bands before calling an iterative solver
           209 MiB given to the printing process from OS
             0 MiB allocation reported by mallinfo(arena+hblkhd)
         26312 MiB available memory on the node where the printing process lives
------------------
     ethr =  5.21E-11,  avg # of iterations =  4.2

     total cpu time spent up to now is       14.0 secs

     total energy              =    -612.43182484 Ry
     estimated scf accuracy    <       0.00000013 Ry

     total magnetization       =    -0.00 Bohr mag/cell
     absolute magnetization    =     0.00 Bohr mag/cell

     iteration # 15     ecut=    70.00 Ry     beta= 0.70
     Davidson diagonalization with overlap

---- Real-time Memory Report at c_bands before calling an iterative solver
           209 MiB given to the printing process from OS
             0 MiB allocation reported by mallinfo(arena+hblkhd)
         26290 MiB available memory on the node where the printing process lives
------------------
     ethr =  5.21E-11,  avg # of iterations =  4.3

     total cpu time spent up to now is       14.7 secs

     total energy              =    -612.43182483 Ry
     estimated scf accuracy    <       0.00000006 Ry

     total magnetization       =    -0.00 Bohr mag/cell
     absolute magnetization    =     0.00 Bohr mag/cell

     iteration # 16     ecut=    70.00 Ry     beta= 0.70
     Davidson diagonalization with overlap

---- Real-time Memory Report at c_bands before calling an iterative solver
           210 MiB given to the printing process from OS
             0 MiB allocation reported by mallinfo(arena+hblkhd)
         27201 MiB available memory on the node where the printing process lives
------------------
     ethr =  5.21E-11,  avg # of iterations =  4.6
 
     Magnetic moment per site  (integrated on atomic sphere of radius R)
     atom   1 (R=0.252)  charge= 10.0772  magn= -0.0000
     atom   2 (R=0.252)  charge= 10.0772  magn= -0.0000
     atom   3 (R=0.252)  charge=  4.2566  magn= -0.0000
     atom   4 (R=0.252)  charge=  4.2566  magn= -0.0000

     total cpu time spent up to now is       15.4 secs

     End of self-consistent calculation

 ------ SPIN UP ------------


          k = 0.1250 0.2165 0.1022 (  3132 PWs)   bands (ev):

    -6.0525  -5.6074  -4.1530  -4.1426  -4.0953  -4.0826  -4.0017  -3.9560
    -3.9262  -3.9232  -3.8497  -2.5603   3.3377   6.2449   6.4020   7.5138
     8.5886   8.6699  13.2875  15.2656  16.8789  17.1904

     occupation numbers 
     1.0000   1.0000   1.0000   1.0000   1.0000   1.0000   1.0000   1.0000
     1.0000   1.0000   1.0000   1.0000   1.0000   1.0000   1.0000   1.0000
     1.0000   1.0000   0.0000   0.0000   0.0000   0.0000

          k = 0.1250 0.2165-0.3067 (  3146 PWs)   bands (ev):

    -5.7578  -5.7578  -4.1288  -4.1288  -4.1092  -4.1092  -3.9877  -3.9877
    -3.9068  -3.9068  -3.4690  -3.4690   5.0461   5.0461   7.4222   7.4222
     7.9766   7.9766  14.5720  14.5720  16.6622  16.6622

     occupation numbers 
     1.0000   1.0000   1.0000   1.0000   1.0000   1.0000   1.0000   1.0000
     1.0000   1.0000   1.0000   1.0000   1.0000   1.0000   1.0000   1.0000
     1.0000   1.0000   0.0000   0.0000   0.0000   0.0000

          k = 0.1250 0.5052 0.1022 (  3152 PWs)   bands (ev):

    -5.6517  -5.5337  -4.1437  -4.1110  -4.0360  -3.9970  -3.9775  -3.9342
    -3.8932  -3.8723  -2.7936  -2.1218   3.0461   3.9890   5.5094   6.2321
     7.4641   7.6831  14.3132  15.2547  16.0439  17.1825

     occupation numbers 
     1.0000   1.0000   1.0000   1.0000   1.0000   1.0000   1.0000   1.0000
     1.0000   1.0000   1.0000   1.0000   1.0000   1.0000   1.0000   1.0000
     1.0000   1.0000   0.0000   0.0000   0.0000   0.0000

          k = 0.1250 0.5052-0.3067 (  3160 PWs)   bands (ev):

    -5.5569  -5.5569  -4.1230  -4.1230  -4.0454  -4.0454  -3.9451  -3.9451
    -3.8856  -3.8856  -2.5042  -2.5042   3.0839   3.0839   6.6097   6.6097
     7.6320   7.6320  14.2033  14.2033  17.0503  17.0503

     occupation numbers 
     1.0000   1.0000   1.0000   1.0000   1.0000   1.0000   1.0000   1.0000
     1.0000   1.0000   1.0000   1.0000   1.0000   1.0000   1.0000   1.0000
     1.0000   1.0000   0.0000   0.0000   0.0000   0.0000

          k = 0.1250-0.3608 0.1022 (  3142 PWs)   bands (ev):

    -5.7919  -5.5552  -4.1347  -4.1216  -4.0573  -4.0247  -3.9835  -3.9619
    -3.9128  -3.8817  -3.4612  -2.2384   3.5183   4.9027   5.4674   6.6170
     7.9751   8.2238  14.1567  15.6973  16.0034  17.2013

     occupation numbers 
     1.0000   1.0000   1.0000   1.0000   1.0000   1.0000   1.0000   1.0000
     1.0000   1.0000   1.0000   1.0000   1.0000   1.0000   1.0000   1.0000
     1.0000   1.0000   0.0000   0.0000   0.0000   0.0000

          k = 0.1250-0.3608-0.3067 (  3160 PWs)   bands (ev):

    -5.6228  -5.6228  -4.1140  -4.1140  -4.0679  -4.0679  -3.9802  -3.9802
    -3.8938  -3.8938  -3.0060  -3.0060   4.0574   4.0574   7.0394   7.0394
     7.4955   7.4955  14.5608  14.5608  16.8730  16.8730

     occupation numbers 
     1.0000   1.0000   1.0000   1.0000   1.0000   1.0000   1.0000   1.0000
     1.0000   1.0000   1.0000   1.0000   1.0000   1.0000   1.0000   1.0000
     1.0000   1.0000   0.0000   0.0000   0.0000   0.0000

          k = 0.1250-0.0722 0.1022 (  3137 PWs)   bands (ev):

    -6.2678  -5.6603  -4.1806  -4.1665  -4.1296  -4.1120  -4.1090  -3.9585
    -3.9543  -3.8993  -3.8743  -2.7708   3.0363   7.2902   7.6846   8.0293
     8.8776   9.0283  12.4174  14.2206  17.5693  18.1016

     occupation numbers 
     1.0000   1.0000   1.0000   1.0000   1.0000   1.0000   1.0000   1.0000
     1.0000   1.0000   1.0000   1.0000   1.0000   1.0000   1.0000   1.0000
     1.0000   1.0000   0.0000   0.0000   0.0000   0.0000

          k = 0.1250-0.0722-0.3067 (  3112 PWs)   bands (ev):

    -5.8829  -5.8829  -4.1547  -4.1547  -4.1448  -4.1448  -3.9631  -3.9631
    -3.9095  -3.9095  -3.6967  -3.6967   5.3866   5.3866   8.0138   8.0138
     8.5102   8.5102  13.9491  13.9491  17.0698  17.0698

     occupation numbers 
     1.0000   1.0000   1.0000   1.0000   1.0000   1.0000   1.0000   1.0000
     1.0000   1.0000   1.0000   1.0000   1.0000   1.0000   1.0000   1.0000
     1.0000   1.0000   0.0000   0.0000   0.0000   0.0000

          k = 0.3750 0.6495 0.1022 (  3149 PWs)   bands (ev):

    -5.5845  -5.5393  -4.1673  -4.0591  -4.0224  -3.9878  -3.9704  -3.9378
    -3.9199  -3.8992  -2.3823  -2.1133   3.4048   3.8894   4.6669   6.4140
     6.6156   7.1248  14.7699  16.1734  16.6990  17.0851

     occupation numbers 
     1.0000   1.0000   1.0000   1.0000   1.0000   1.0000   1.0000   1.0000
     1.0000   1.0000   1.0000   1.0000   1.0000   1.0000   1.0000   1.0000
     1.0000   1.0000   0.0000   0.0000   0.0000   0.0000

          k = 0.3750 0.6495-0.3067 (  3152 PWs)   bands (ev):

    -5.5302  -5.5302  -4.0894  -4.0894  -4.0594  -4.0594  -3.9457  -3.9457
    -3.9086  -3.9086  -2.2502  -2.2502   3.1649   3.1649   5.4895   5.4895
     7.7895   7.7895  15.1310  15.1310  16.8372  16.8372

     occupation numbers 
     1.0000   1.0000   1.0000   1.0000   1.0000   1.0000   1.0000   1.0000
     1.0000   1.0000   1.0000   1.0000   1.0000   1.0000   1.0000   1.0000
     1.0000   1.0000   0.0000   0.0000   0.0000   0.0000

          k = 0.3750-0.2165 0.1022 (  3159 PWs)   bands (ev):

    -5.7331  -5.5443  -4.1441  -4.1115  -4.0529  -4.0054  -3.9865  -3.9410
    -3.9028  -3.8603  -3.2351  -2.1829   3.1923   4.4026   5.3147   6.9116
     7.8915   8.2997  13.7418  14.6705  16.1036  17.2562

     occupation numbers 
     1.0000   1.0000   1.0000   1.0000   1.0000   1.0000   1.0000   1.0000
     1.0000   1.0000   1.0000   1.0000   1.0000   1.0000   1.0000   1.0000
     1.0000   1.0000   0.0000   0.0000   0.0000   0.0000

          k = 0.3750-0.2165-0.3067 (  3146 PWs)   bands (ev):

    -5.5951  -5.5951  -4.1343  -4.1343  -4.0458  -4.0458  -3.9506  -3.9506
    -3.8869  -3.8869  -2.8222  -2.8222   3.4656   3.4656   7.2882   7.2882
     7.5583   7.5583  13.8329  13.8329  16.8583  16.8583

     occupation numbers 
     1.0000   1.0000   1.0000   1.0000   1.0000   1.0000   1.0000   1.0000
     1.0000   1.0000   1.0000   1.0000   1.0000   1.0000   1.0000   1.0000
     1.0000   1.0000   0.0000   0.0000   0.0000   0.0000

 ------ SPIN DOWN ----------


          k = 0.1250 0.2165 0.1022 (  3132 PWs)   bands (ev):

    -6.0525  -5.6074  -4.1531  -4.1426  -4.0953  -4.0826  -4.0017  -3.9561
    -3.9262  -3.9232  -3.8498  -2.5603   3.3377   6.2449   6.4019   7.5138
     8.5886   8.6699  13.2875  15.2656  16.8789  17.1904

     occupation numbers 
     1.0000   1.0000   1.0000   1.0000   1.0000   1.0000   1.0000   1.0000
     1.0000   1.0000   1.0000   1.0000   1.0000   1.0000   1.0000   1.0000
     1.0000   1.0000   0.0000   0.0000   0.0000   0.0000

          k = 0.1250 0.2165-0.3067 (  3146 PWs)   bands (ev):

    -5.7578  -5.7578  -4.1289  -4.1289  -4.1092  -4.1092  -3.9877  -3.9877
    -3.9069  -3.9069  -3.4690  -3.4690   5.0461   5.0461   7.4222   7.4222
     7.9766   7.9766  14.5720  14.5720  16.6622  16.6622

     occupation numbers 
     1.0000   1.0000   1.0000   1.0000   1.0000   1.0000   1.0000   1.0000
     1.0000   1.0000   1.0000   1.0000   1.0000   1.0000   1.0000   1.0000
     1.0000   1.0000   0.0000   0.0000   0.0000   0.0000

          k = 0.1250 0.5052 0.1022 (  3152 PWs)   bands (ev):

    -5.6517  -5.5338  -4.1437  -4.1110  -4.0360  -3.9970  -3.9775  -3.9342
    -3.8932  -3.8723  -2.7936  -2.1218   3.0462   3.9890   5.5094   6.2321
     7.4641   7.6831  14.3132  15.2547  16.0439  17.1825

     occupation numbers 
     1.0000   1.0000   1.0000   1.0000   1.0000   1.0000   1.0000   1.0000
     1.0000   1.0000   1.0000   1.0000   1.0000   1.0000   1.0000   1.0000
     1.0000   1.0000   0.0000   0.0000   0.0000   0.0000

          k = 0.1250 0.5052-0.3067 (  3160 PWs)   bands (ev):

    -5.5569  -5.5569  -4.1230  -4.1230  -4.0454  -4.0454  -3.9451  -3.9451
    -3.8856  -3.8856  -2.5042  -2.5042   3.0839   3.0839   6.6096   6.6096
     7.6320   7.6320  14.2033  14.2033  17.0503  17.0503

     occupation numbers 
     1.0000   1.0000   1.0000   1.0000   1.0000   1.0000   1.0000   1.0000
     1.0000   1.0000   1.0000   1.0000   1.0000   1.0000   1.0000   1.0000
     1.0000   1.0000   0.0000   0.0000   0.0000   0.0000

          k = 0.1250-0.3608 0.1022 (  3142 PWs)   bands (ev):

    -5.7919  -5.5552  -4.1348  -4.1216  -4.0573  -4.0247  -3.9835  -3.9619
    -3.9128  -3.8817  -3.4612  -2.2384   3.5183   4.9027   5.4674   6.6170
     7.9751   8.2237  14.1567  15.6973  16.0034  17.2013

     occupation numbers 
     1.0000   1.0000   1.0000   1.0000   1.0000   1.0000   1.0000   1.0000
     1.0000   1.0000   1.0000   1.0000   1.0000   1.0000   1.0000   1.0000
     1.0000   1.0000   0.0000   0.0000   0.0000   0.0000

          k = 0.1250-0.3608-0.3067 (  3160 PWs)   bands (ev):

    -5.6228  -5.6228  -4.1140  -4.1140  -4.0679  -4.0679  -3.9802  -3.9802
    -3.8938  -3.8938  -3.0060  -3.0060   4.0574   4.0574   7.0394   7.0394
     7.4955   7.4955  14.5608  14.5608  16.8730  16.8730

     occupation numbers 
     1.0000   1.0000   1.0000   1.0000   1.0000   1.0000   1.0000   1.0000
     1.0000   1.0000   1.0000   1.0000   1.0000   1.0000   1.0000   1.0000
     1.0000   1.0000   0.0000   0.0000   0.0000   0.0000

          k = 0.1250-0.0722 0.1022 (  3137 PWs)   bands (ev):

    -6.2678  -5.6603  -4.1807  -4.1665  -4.1296  -4.1120  -4.1090  -3.9585
    -3.9543  -3.8993  -3.8743  -2.7708   3.0363   7.2902   7.6846   8.0293
     8.8776   9.0283  12.4174  14.2206  17.5694  18.1017

     occupation numbers 
     1.0000   1.0000   1.0000   1.0000   1.0000   1.0000   1.0000   1.0000
     1.0000   1.0000   1.0000   1.0000   1.0000   1.0000   1.0000   1.0000
     1.0000   1.0000   0.0000   0.0000   0.0000   0.0000

          k = 0.1250-0.0722-0.3067 (  3112 PWs)   bands (ev):

    -5.8829  -5.8829  -4.1547  -4.1547  -4.1448  -4.1448  -3.9631  -3.9631
    -3.9095  -3.9095  -3.6967  -3.6967   5.3866   5.3866   8.0138   8.0138
     8.5102   8.5102  13.9491  13.9491  17.0698  17.0698

     occupation numbers 
     1.0000   1.0000   1.0000   1.0000   1.0000   1.0000   1.0000   1.0000
     1.0000   1.0000   1.0000   1.0000   1.0000   1.0000   1.0000   1.0000
     1.0000   1.0000   0.0000   0.0000   0.0000   0.0000

          k = 0.3750 0.6495 0.1022 (  3149 PWs)   bands (ev):

    -5.5845  -5.5393  -4.1673  -4.0592  -4.0224  -3.9878  -3.9704  -3.9378
    -3.9199  -3.8992  -2.3824  -2.1133   3.4048   3.8894   4.6669   6.4140
     6.6156   7.1248  14.7699  16.1734  16.6990  17.0851

     occupation numbers 
     1.0000   1.0000   1.0000   1.0000   1.0000   1.0000   1.0000   1.0000
     1.0000   1.0000   1.0000   1.0000   1.0000   1.0000   1.0000   1.0000
     1.0000   1.0000   0.0000   0.0000   0.0000   0.0000

          k = 0.3750 0.6495-0.3067 (  3152 PWs)   bands (ev):

    -5.5302  -5.5302  -4.0894  -4.0894  -4.0594  -4.0594  -3.9457  -3.9457
    -3.9086  -3.9086  -2.2502  -2.2502   3.1649   3.1649   5.4895   5.4895
     7.7895   7.7895  15.1310  15.1310  16.8372  16.8372

     occupation numbers 
     1.0000   1.0000   1.0000   1.0000   1.0000   1.0000   1.0000   1.0000
     1.0000   1.0000   1.0000   1.0000   1.0000   1.0000   1.0000   1.0000
     1.0000   1.0000   0.0000   0.0000   0.0000   0.0000

          k = 0.3750-0.2165 0.1022 (  3159 PWs)   bands (ev):

    -5.7331  -5.5443  -4.1441  -4.1116  -4.0529  -4.0054  -3.9865  -3.9410
    -3.9028  -3.8603  -3.2351  -2.1829   3.1923   4.4026   5.3147   6.9116
     7.8915   8.2996  13.7418  14.6705  16.1036  17.2562

     occupation numbers 
     1.0000   1.0000   1.0000   1.0000   1.0000   1.0000   1.0000   1.0000
     1.0000   1.0000   1.0000   1.0000   1.0000   1.0000   1.0000   1.0000
     1.0000   1.0000   0.0000   0.0000   0.0000   0.0000

          k = 0.3750-0.2165-0.3067 (  3146 PWs)   bands (ev):

    -5.5951  -5.5951  -4.1343  -4.1343  -4.0458  -4.0458  -3.9506  -3.9506
    -3.8869  -3.8869  -2.8222  -2.8222   3.4656   3.4656   7.2882   7.2882
     7.5583   7.5583  13.8329  13.8329  16.8583  16.8583

     occupation numbers 
     1.0000   1.0000   1.0000   1.0000   1.0000   1.0000   1.0000   1.0000
     1.0000   1.0000   1.0000   1.0000   1.0000   1.0000   1.0000   1.0000
     1.0000   1.0000   0.0000   0.0000   0.0000   0.0000

     the Fermi energy is    12.0773 ev

!    total energy              =    -612.43182484 Ry
     total all-electron energy =     -7995.358743 Ry
     estimated scf accuracy    <          3.2E-09 Ry
     smearing contrib. (-TS)   =      -0.00000000 Ry
     internal energy E=F+TS    =    -612.43182484 Ry

     The total energy is F=E-TS. E is the sum of the following terms:
     one-electron contribution =    -184.74338558 Ry
     hartree contribution      =     131.26034904 Ry
     xc contribution           =     -88.36340165 Ry
     ewald contribution        =    -230.82466193 Ry
     one-center paw contrib.   =    -239.76072471 Ry
      -> PAW hartree energy AE =     145.66501513 Ry
      -> PAW hartree energy PS =    -144.61826826 Ry
      -> PAW xc energy AE      =    -151.16791985 Ry
      -> PAW xc energy PS      =      38.21769387 Ry
      -> total E_H with PAW    =     132.30709590 Ry
      -> total E_XC with PAW   =    -201.31362764 Ry

     total magnetization       =     0.00 Bohr mag/cell
     absolute magnetization    =     0.00 Bohr mag/cell

     convergence has been achieved in  16 iterations

     Forces acting on atoms (cartesian axes, Ry/au):

     atom    1 type  1   force =    -0.00000000   -0.00000000   -0.00051072
     atom    2 type  1   force =    -0.00000000   -0.00000000   -0.00051072
     atom    3 type  2   force =     0.00000000    0.00000000    0.00051072
     atom    4 type  2   force =    -0.00000000    0.00000000    0.00051072
     The non-local contrib.  to forces
     atom    1 type  1   force =     0.00000000    0.00000000    0.00730166
     atom    2 type  1   force =    -0.00000000   -0.00000000    0.00730166
     atom    3 type  2   force =     0.00000000    0.00000000    0.01281135
     atom    4 type  2   force =     0.00000000    0.00000000    0.01281135
     The ionic contribution  to forces
     atom    1 type  1   force =    -0.00000002    0.00000001    0.15748047
     atom    2 type  1   force =     0.00000002   -0.00000001    0.15748047
     atom    3 type  2   force =    -0.00000001    0.00000001   -0.15748047
     atom    4 type  2   force =     0.00000001   -0.00000001   -0.15748047
     The local contribution  to forces
     atom    1 type  1   force =    -0.00000000    0.00000032   -0.16543548
     atom    2 type  1   force =     0.00000056    0.00000000   -0.16543551
     atom    3 type  2   force =     0.00000000    0.00000003    0.14537781
     atom    4 type  2   force =     0.00000004    0.00000000    0.14537785
     The core correction contribution to forces
     atom    1 type  1   force =     0.00000000    0.00000002    0.00014246
     atom    2 type  1   force =     0.00000004    0.00000000    0.00014246
     atom    3 type  2   force =     0.00000000   -0.00000000   -0.00019704
     atom    4 type  2   force =    -0.00000000    0.00000000   -0.00019704
     The Hubbard contrib.    to forces
     atom    1 type  1   force =     0.00000000    0.00000000    0.00000000
     atom    2 type  1   force =     0.00000000    0.00000000    0.00000000
     atom    3 type  2   force =     0.00000000    0.00000000    0.00000000
     atom    4 type  2   force =     0.00000000    0.00000000    0.00000000
     The SCF correction term to forces
     atom    1 type  1   force =     0.00000000    0.00000000    0.00000000
     atom    2 type  1   force =     0.00000000    0.00000000    0.00000000
     atom    3 type  2   force =     0.00000000    0.00000000   -0.00000017
     atom    4 type  2   force =     0.00000000    0.00000000   -0.00000017

     Total force =     0.000722     Total SCF correction =     0.000000


     Computing stress (Cartesian axis) and pressure

          total   stress  (Ry/bohr**3)                   (kbar)     P=       -6.52
  -0.00004567   0.00000000   0.00000000           -6.72        0.00        0.00
   0.00000000  -0.00004567   0.00000000            0.00       -6.72        0.00
   0.00000000   0.00000000  -0.00004172            0.00        0.00       -6.14

     kinetic stress (kbar)  19805.61      0.00      0.00
                                0.00  19805.61      0.00
                                0.00      0.00  19799.84

     local   stress (kbar)   6190.57      0.00     -0.00
                                0.00   6190.57     -0.00
                               -0.00     -0.00   4428.63

     nonloc. stress (kbar)  -1204.46      0.00      0.00
                                0.00  -1204.46      0.00
                                0.00      0.00  -1191.29

     hartree stress (kbar)  19967.02      0.00      0.00
                                0.00  19967.02     -0.00
                                0.00     -0.00  20762.36

     exc-cor stress (kbar)   5145.67     -0.00      0.00
                               -0.00   5145.67      0.00
                                0.00      0.00   5146.12

     corecor stress (kbar) -14012.77      0.00     -0.00
                                0.00 -14012.77     -0.00
                               -0.00     -0.00 -14012.34

     ewald   stress (kbar) -35898.35     -0.00     -0.00
                               -0.00 -35898.35     -0.00
                               -0.00     -0.00 -34939.46

     hubbard stress (kbar)      0.00      0.00      0.00
                                0.00      0.00      0.00
                                0.00      0.00      0.00

     DFT-D   stress (kbar)      0.00      0.00      0.00
                                0.00      0.00      0.00
                                0.00      0.00      0.00

     XDM     stress (kbar)      0.00      0.00      0.00
                                0.00      0.00      0.00
                                0.00      0.00      0.00

     dft-nl  stress (kbar)      0.00      0.00      0.00
                                0.00      0.00      0.00
                                0.00      0.00      0.00

     TS-vdW  stress (kbar)      0.00      0.00      0.00
                                0.00      0.00      0.00
                                0.00      0.00      0.00

     MDB     stress (kbar)      0.00      0.00      0.00
                                0.00      0.00      0.00
                                0.00      0.00      0.00

     3D-RISM stress (kbar)      0.00      0.00      0.00
                                0.00      0.00      0.00
                                0.00      0.00      0.00


     Writing all to output data dir ./tmp/GaN.save/ :
     XML data file, charge density, pseudopotentials, collected wavefunctions
 
     init_run     :      0.47s CPU      0.57s WALL (       1 calls)
     electrons    :     13.44s CPU     14.73s WALL (       1 calls)
     forces       :      0.11s CPU      0.13s WALL (       1 calls)
     stress       :      0.53s CPU      0.56s WALL (       1 calls)

     Called by init_run:
     wfcinit      :      0.12s CPU      0.13s WALL (       1 calls)
     wfcinit:atom :      0.00s CPU      0.00s WALL (      24 calls)
     wfcinit:wfcr :      0.11s CPU      0.12s WALL (      24 calls)
     potinit      :      0.16s CPU      0.19s WALL (       1 calls)
     hinit0       :      0.06s CPU      0.09s WALL (       1 calls)

     Called by electrons:
     c_bands      :      8.19s CPU      8.71s WALL (      16 calls)
     sum_band     :      1.94s CPU      2.34s WALL (      16 calls)
     v_of_rho     :      0.39s CPU      0.41s WALL (      17 calls)
     v_h          :      0.01s CPU      0.01s WALL (      17 calls)
     v_xc         :      0.43s CPU      0.44s WALL (      19 calls)
     newd         :      0.68s CPU      1.03s WALL (      17 calls)
     PAW_pot      :      2.34s CPU      2.35s WALL (      17 calls)
     mix_rho      :      0.05s CPU      0.05s WALL (      16 calls)

     Called by c_bands:
     init_us_2    :      0.08s CPU      0.09s WALL (     840 calls)
     cegterg      :      7.95s CPU      8.46s WALL (     394 calls)

     Called by sum_band:
     sum_band:wei :      0.00s CPU      0.00s WALL (      16 calls)
     sum_band:loo :      0.78s CPU      0.83s WALL (      16 calls)
     sum_band:buf :      0.01s CPU      0.01s WALL (     384 calls)
     sum_band:ini :      0.03s CPU      0.04s WALL (     384 calls)
     sum_band:cal :      0.06s CPU      0.06s WALL (     384 calls)
     sum_band:bec :      0.00s CPU      0.00s WALL (     384 calls)
     addusdens    :      1.10s CPU      1.41s WALL (      16 calls)
                                        0.00s GPU  (      16 calls)
     addusd:skk   :      0.00s CPU      0.00s WALL (      32 calls)
                                        0.00s GPU  (      32 calls)

     Called by *egterg:
     cdiaghg      :      1.01s CPU      1.06s WALL (    2605 calls)
     cegterg:over :      0.36s CPU      0.38s WALL (    2211 calls)
     cegterg:upda :      0.13s CPU      0.13s WALL (    2211 calls)
     cegterg:last :      0.32s CPU      0.34s WALL (    1632 calls)
     h_psi        :      5.77s CPU      6.16s WALL (    2629 calls)
     s_psi        :      0.17s CPU      0.18s WALL (    2629 calls)
     g_psi        :      0.02s CPU      0.03s WALL (    2211 calls)

     Called by h_psi:
     h_psi:calbec :      0.27s CPU      0.29s WALL (    2629 calls)
     vloc_psi     :      5.28s CPU      5.65s WALL (    2629 calls)
     add_vuspsi   :      0.18s CPU      0.19s WALL (    2629 calls)

     General routines
     calbec       :      0.36s CPU      0.38s WALL (    3133 calls)
     fft          :      0.14s CPU      0.14s WALL (     463 calls)
     ffts         :      0.01s CPU      0.01s WALL (      66 calls)
     fftw         :      4.82s CPU      5.17s WALL (   81608 calls)
     interpolate  :      0.02s CPU      0.02s WALL (      34 calls)
 
     Parallel routines

     PAW routines
     PAW_pot      :      2.34s CPU      2.35s WALL (      17 calls)
     PAW_symme    :      0.00s CPU      0.00s WALL (      33 calls)
 
     PWSCF        :     14.71s CPU     16.64s WALL

 
   This run was terminated on:  14:53:51   6Jun2026            

=------------------------------------------------------------------------------=
   JOB DONE.
=------------------------------------------------------------------------------=
