
     Program PWSCF v.7.3.1 starts on 30Jun2026 at 12:30:41 

     This program is part of the open-source Quantum ESPRESSO suite
     for quantum simulation of materials; please cite
         "P. Giannozzi et al., J. Phys.:Condens. Matter 21 395502 (2009);
         "P. Giannozzi et al., J. Phys.:Condens. Matter 29 465901 (2017);
         "P. Giannozzi et al., J. Chem. Phys. 152 154105 (2020);
          URL http://www.quantum-espresso.org", 
     in publications or presentations arising from this work. More details at
     http://www.quantum-espresso.org/quote

     Parallel version (MPI & OpenMP), running on      12 processor cores
     Number of MPI processes:                12
     Threads/MPI process:                     1

     MPI processes distributed on     1 nodes
     82583 MiB available memory on the printing compute node when the environment starts
 
     Waiting for input...
     Reading input from standard input

     Current dimensions of program PWSCF are:
     Max number of different atomic species (ntypx) = 10
     Max number of k-points (npk) =  40000
     Max angular momentum in pseudopotentials (lmaxx) =  4
     file Ga.pbe-dn-kjpaw_psl.1.0.0.UPF: wavefunction(s)  4S renormalized
     file N.pbe-n-kjpaw_psl.1.0.0.UPF: wavefunction(s)  2S renormalized

     Atomic positions and unit cell read from directory:
     ./tmp/GaN.save/
 
 
     R & G space division:  proc/nbgrp/npool/nimage =      12
     Subspace diagonalization in iterative solution of the eigenvalue problem:
     a serial algorithm will be used

 
     Parallelization info
     --------------------
     sticks:   dense  smooth     PW     G-vecs:    dense   smooth      PW
     Min         149      59     16                 8301     2091     322
     Max         150      61     17                 8308     2094     331
     Sum        1789     721    199                99623    25109    3935
 
     Using Slab Decomposition
 


     bravais-lattice index     =            4
     lattice parameter (alat)  =       6.0849  a.u.
     unit-cell volume          =     318.1254 (a.u.)^3
     number of atoms/cell      =            4
     number of atomic types    =            2
     number of electrons       =        36.00
     number of Kohn-Sham states=           37
     kinetic-energy cutoff     =      70.0000  Ry
     charge density cutoff     =     700.0000  Ry
     Exchange-correlation= SLA  PW   PBX  PBC
                           (   1   4   3   4   0   0   0)

     celldm(1)=   6.084918  celldm(2)=   0.000000  celldm(3)=   1.630435
     celldm(4)=   0.000000  celldm(5)=   0.000000  celldm(6)=   0.000000

     crystal axes: (cart. coord. in units of alat)
               a(1) = (   1.000000   0.000000   0.000000 )  
               a(2) = (  -0.500000   0.866025   0.000000 )  
               a(3) = (   0.000000   0.000000   1.630435 )  

     reciprocal axes: (cart. coord. in units 2 pi/alat)
               b(1) = (  1.000000  0.577350  0.000000 )  
               b(2) = (  0.000000  1.154701  0.000000 )  
               b(3) = (  0.000000  0.000000  0.613333 )  


     PseudoPot. # 1 for Ga read from file:
     /data-fast/greenano/Students/cohort2/rojassan/Project_GaN/PSEUDO/Ga.pbe-dn-kjpaw_psl.1.0.0.UPF
     MD5 check sum: 93aceff68ec27daa0acc11ebb2e245f0
     Pseudo is Projector augmented-wave + core cor, Zval = 13.0
     Generated using 'atomic' code by A. Dal Corso  v.7.3.1
     Shape of augmentation charge: PSQ
     Using radial grid of 1205 points,  6 beta functions with: 
                l(1) =   0
                l(2) =   0
                l(3) =   1
                l(4) =   1
                l(5) =   2
                l(6) =   2
     Q(r) pseudized with 0 coefficients 


     PseudoPot. # 2 for N  read from file:
     /data-fast/greenano/Students/cohort2/rojassan/Project_GaN/PSEUDO/N.pbe-n-kjpaw_psl.1.0.0.UPF
     MD5 check sum: 86f48117b7e7b472c01f85d0863ba463
     Pseudo is Projector augmented-wave + core cor, Zval =  5.0
     Generated using 'atomic' code by A. Dal Corso  v.7.3.1
     Shape of augmentation charge: PSQ
     Using radial grid of 1085 points,  4 beta functions with: 
                l(1) =   0
                l(2) =   0
                l(3) =   1
                l(4) =   1
     Q(r) pseudized with 0 coefficients 


     atomic species   valence    mass     pseudopotential
     Ga               13.00    69.72300     Ga( 1.00)
     N                 5.00    14.00700     N ( 1.00)

     12 Sym. Ops. (no inversion) found ( 6 have fractional translation)


                                    s                        frac. trans.

      isym =  1     identity                                     

 cryst.   s( 1) = (     1          0          0      )
                  (     0          1          0      )
                  (     0          0          1      )

 cart.    s( 1) = (  1.0000000  0.0000000  0.0000000 )
                  (  0.0000000  1.0000000  0.0000000 )
                  (  0.0000000  0.0000000  1.0000000 )


      isym =  2     180 deg rotation - cart. axis [0,0,1]        

 cryst.   s( 2) = (    -1          0          0      )    f =(  0.0000000 )
                  (     0         -1          0      )       (  0.0000000 )
                  (     0          0          1      )       ( -0.5000000 )

 cart.    s( 2) = ( -1.0000000  0.0000000  0.0000000 )    f =(  0.0000000 )
                  (  0.0000000 -1.0000000  0.0000000 )       (  0.0000000 )
                  (  0.0000000  0.0000000  1.0000000 )       ( -0.8152174 )


      isym =  3      60 deg rotation - cryst. axis [0,0,1]       

 cryst.   s( 3) = (     1          1          0      )    f =( -0.0000000 )
                  (    -1          0          0      )       ( -0.0000000 )
                  (     0          0          1      )       ( -0.5000000 )

 cart.    s( 3) = (  0.5000000 -0.8660254  0.0000000 )    f =( -0.0000000 )
                  (  0.8660254  0.5000000  0.0000000 )       ( -0.0000000 )
                  (  0.0000000  0.0000000  1.0000000 )       ( -0.8152174 )


      isym =  4      60 deg rotation - cryst. axis [0,0,-1]      

 cryst.   s( 4) = (     0         -1          0      )    f =(  0.0000000 )
                  (     1          1          0      )       (  0.0000000 )
                  (     0          0          1      )       ( -0.5000000 )

 cart.    s( 4) = (  0.5000000  0.8660254  0.0000000 )    f =( -0.0000000 )
                  ( -0.8660254  0.5000000  0.0000000 )       (  0.0000000 )
                  (  0.0000000  0.0000000  1.0000000 )       ( -0.8152174 )


      isym =  5     120 deg rotation - cryst. axis [0,0,1]       

 cryst.   s( 5) = (     0          1          0      )
                  (    -1         -1          0      )
                  (     0          0          1      )

 cart.    s( 5) = ( -0.5000000 -0.8660254  0.0000000 )
                  (  0.8660254 -0.5000000  0.0000000 )
                  (  0.0000000  0.0000000  1.0000000 )


      isym =  6     120 deg rotation - cryst. axis [0,0,-1]      

 cryst.   s( 6) = (    -1         -1          0      )
                  (     1          0          0      )
                  (     0          0          1      )

 cart.    s( 6) = ( -0.5000000  0.8660254  0.0000000 )
                  ( -0.8660254 -0.5000000  0.0000000 )
                  (  0.0000000  0.0000000  1.0000000 )


      isym =  7     inv. 180 deg rotation - cart. axis [0,1,0]   

 cryst.   s( 7) = (     1          0          0      )    f =( -0.0000000 )
                  (    -1         -1          0      )       (  0.0000000 )
                  (     0          0          1      )       ( -0.5000000 )

 cart.    s( 7) = (  1.0000000  0.0000000  0.0000000 )    f =( -0.0000000 )
                  (  0.0000000 -1.0000000  0.0000000 )       (  0.0000000 )
                  (  0.0000000  0.0000000  1.0000000 )       ( -0.8152174 )


      isym =  8     inv. 180 deg rotation - cart. axis [1,0,0]   

 cryst.   s( 8) = (    -1          0          0      )
                  (     1          1          0      )
                  (     0          0          1      )

 cart.    s( 8) = ( -1.0000000  0.0000000  0.0000000 )
                  (  0.0000000  1.0000000  0.0000000 )
                  (  0.0000000  0.0000000  1.0000000 )


      isym =  9     inv. 180 deg rotation - cryst. axis [1,-1,0] 

 cryst.   s( 9) = (     0          1          0      )    f =(  0.0000000 )
                  (     1          0          0      )       ( -0.0000000 )
                  (     0          0          1      )       ( -0.5000000 )

 cart.    s( 9) = ( -0.5000000  0.8660254  0.0000000 )    f =(  0.0000000 )
                  (  0.8660254  0.5000000  0.0000000 )       ( -0.0000000 )
                  (  0.0000000  0.0000000  1.0000000 )       ( -0.8152174 )


      isym = 10     inv. 180 deg rotation - cryst. axis [2,1,0]  

 cryst.   s(10) = (    -1         -1          0      )    f =(  0.0000000 )
                  (     0          1          0      )       (  0.0000000 )
                  (     0          0          1      )       ( -0.5000000 )

 cart.    s(10) = ( -0.5000000 -0.8660254  0.0000000 )    f =(  0.0000000 )
                  ( -0.8660254  0.5000000  0.0000000 )       (  0.0000000 )
                  (  0.0000000  0.0000000  1.0000000 )       ( -0.8152174 )


      isym = 11     inv. 180 deg rotation - cryst. axis [0,1,0]  

 cryst.   s(11) = (     1          1          0      )
                  (     0         -1          0      )
                  (     0          0          1      )

 cart.    s(11) = (  0.5000000  0.8660254  0.0000000 )
                  (  0.8660254 -0.5000000  0.0000000 )
                  (  0.0000000  0.0000000  1.0000000 )


      isym = 12     inv. 180 deg rotation - cryst. axis [1,1,0]  

 cryst.   s(12) = (     0         -1          0      )
                  (    -1          0          0      )
                  (     0          0          1      )

 cart.    s(12) = (  0.5000000 -0.8660254  0.0000000 )
                  ( -0.8660254 -0.5000000  0.0000000 )
                  (  0.0000000  0.0000000  1.0000000 )


     point group C_6v (6mm) 
     there are  6 classes
     the character table:

       E     2C6   2C3   C2    3s_v  3s_d 
A_1    1.00  1.00  1.00  1.00  1.00  1.00
A_2    1.00  1.00  1.00  1.00 -1.00 -1.00
B_1    1.00 -1.00  1.00 -1.00  1.00 -1.00
B_2    1.00 -1.00  1.00 -1.00 -1.00  1.00
E_1    2.00  1.00 -1.00 -2.00  0.00  0.00
E_2    2.00 -1.00 -1.00  2.00  0.00  0.00

     the symmetry operations in each class and the name of the first element:

     E        1
          identity                                               
     2C6      3    4
           60 deg rotation - cryst. axis [0,0,1]                 
     2C3      5    6
          120 deg rotation - cryst. axis [0,0,1]                 
     C2       2
          180 deg rotation - cart. axis [0,0,1]                  
     3s_v     8   12   11
          inv. 180 deg rotation - cart. axis [1,0,0]             
     3s_d     7    9   10
          inv. 180 deg rotation - cart. axis [0,1,0]             

   Cartesian axes

     site n.     atom                  positions (alat units)
         1        Ga     tau(   1) = (   0.0000000   0.5773503   0.0000000  )
         2        Ga     tau(   2) = (   0.5000000   0.2886751   0.8152174  )
         3        N      tau(   3) = (   0.0000000   0.5773503   0.6136663  )
         4        N      tau(   4) = (   0.5000000   0.2886751   1.4288837  )

   Crystallographic axes

     site n.     atom                  positions (cryst. coord.)
         1        Ga     tau(   1) = (  0.3333333  0.6666667  0.0000000  )
         2        Ga     tau(   2) = (  0.6666667  0.3333333  0.5000000  )
         3        N      tau(   3) = (  0.3333333  0.6666667  0.3763820  )
         4        N      tau(   4) = (  0.6666667  0.3333333  0.8763820  )

     number of k points=     8
                       cart. coord. in units 2pi/alat
        k(    1) = (   0.0000000   0.0000000   0.0000000), wk =   0.0416667
        k(    2) = (   0.0000000   0.0000000   0.2044444), wk =   0.0833333
        k(    3) = (   0.0000000   0.2886751   0.0000000), wk =   0.2500000
        k(    4) = (   0.0000000   0.2886751   0.2044444), wk =   0.5000000
        k(    5) = (   0.0000000  -0.5773503   0.0000000), wk =   0.1250000
        k(    6) = (   0.0000000  -0.5773503   0.2044444), wk =   0.2500000
        k(    7) = (   0.2500000   0.4330127   0.0000000), wk =   0.2500000
        k(    8) = (   0.2500000   0.4330127   0.2044444), wk =   0.5000000

                       cryst. coord.
        k(    1) = (   0.0000000   0.0000000   0.0000000), wk =   0.0416667
        k(    2) = (   0.0000000   0.0000000   0.3333333), wk =   0.0833333
        k(    3) = (   0.0000000   0.2500000   0.0000000), wk =   0.2500000
        k(    4) = (   0.0000000   0.2500000   0.3333333), wk =   0.5000000
        k(    5) = (   0.0000000  -0.5000000   0.0000000), wk =   0.1250000
        k(    6) = (   0.0000000  -0.5000000   0.3333333), wk =   0.2500000
        k(    7) = (   0.2500000   0.2500000   0.0000000), wk =   0.2500000
        k(    8) = (   0.2500000   0.2500000   0.3333333), wk =   0.5000000

     Dense  grid:    99623 G-vectors     FFT dimensions: (  54,  54,  90)

     Smooth grid:    25109 G-vectors     FFT dimensions: (  36,  36,  54)

     Dynamical RAM for                 wfc:       0.15 MB

     Dynamical RAM for     wfc (w. buffer):       0.15 MB

     Dynamical RAM for           str. fact:       0.25 MB

     Dynamical RAM for           local pot:       0.00 MB

     Dynamical RAM for          nlocal pot:       0.21 MB

     Dynamical RAM for                qrad:       4.24 MB

     Dynamical RAM for          rho,v,vnew:       0.91 MB

     Dynamical RAM for           G-vectors:       0.49 MB

     Dynamical RAM for          h,s,v(r/c):       0.25 MB

     Dynamical RAM for          <psi|beta>:       0.03 MB

     Dynamical RAM for                 psi:       0.30 MB

     Dynamical RAM for                hpsi:       0.30 MB

     Dynamical RAM for                spsi:       0.30 MB

     Dynamical RAM for      wfcinit/wfcrot:       0.33 MB

     Dynamical RAM for           addusdens:      23.82 MB

     Estimated static dynamical RAM per process >       7.53 MB

     Estimated max dynamical RAM per process >      31.35 MB

     Estimated total dynamical RAM >     376.16 MB

     The potential is recalculated from file :
     ./tmp/GaN.save/charge-density

     Starting wfcs are   26 randomized atomic wfcs +   11 random wfcs
     Checking if some PAW data can be deallocated... 
       PAW data deallocated on    6 nodes for type:  1
       PAW data deallocated on    6 nodes for type:  2

     Band Structure Calculation
     Davidson diagonalization with overlap

     Computing kpt #:     1  of     8
     total cpu time spent up to now is        1.5 secs

     Computing kpt #:     2  of     8
     total cpu time spent up to now is        2.2 secs

     Computing kpt #:     3  of     8
     c_bands:  1 eigenvalues not converged
     total cpu time spent up to now is        3.0 secs

     Computing kpt #:     4  of     8
     total cpu time spent up to now is        3.7 secs

     Computing kpt #:     5  of     8
     total cpu time spent up to now is        4.5 secs

     Computing kpt #:     6  of     8
     c_bands:  1 eigenvalues not converged
     total cpu time spent up to now is        5.2 secs

     Computing kpt #:     7  of     8
     total cpu time spent up to now is        5.9 secs

     Computing kpt #:     8  of     8
     c_bands:  1 eigenvalues not converged
     total cpu time spent up to now is        6.7 secs

     ethr =  2.78E-11,  avg # of iterations =111.9

     total cpu time spent up to now is        6.7 secs

     End of band structure calculation

          k = 0.0000 0.0000 0.0000 (  3141 PWs)   bands (ev):

    -6.4749  -5.6733  -4.2029  -4.1884  -4.1884  -4.1334  -4.1334  -3.9620
    -3.9620  -3.8729  -3.8729  -2.6284   2.3875   8.2541   8.2541   9.2030
     9.2463   9.2463  10.9620  13.3254  18.2614  18.9899  18.9899  19.7684
    20.7438  20.7438  23.7117  24.7394  24.7394  26.9837  26.9837  27.0199
    27.1311  30.5187  32.9859  32.9859  35.3796

     occupation numbers 
     1.0000   1.0000   1.0000   1.0000   1.0000   1.0000   1.0000   1.0000
     1.0000   1.0000   1.0000   1.0000   1.0000   1.0000   1.0000   1.0000
     1.0000   1.0000   0.0000   0.0000   0.0000   0.0000   0.0000   0.0000
     0.0000   0.0000   0.0000   0.0000   0.0000   0.0000   0.0000   0.0000
     0.0000   0.0000   0.0000   0.0000   0.0000

          k = 0.0000 0.0000 0.2044 (  3146 PWs)   bands (ev):

    -6.2030  -5.7872  -4.1815  -4.1815  -4.1536  -4.1536  -4.0786  -3.9334
    -3.9334  -3.8892  -3.8892  -3.4016   4.0020   6.9613   8.4924   8.4924
     8.9886   8.9886  12.6617  13.4640  17.6842  18.1205  19.1761  19.1761
    19.9971  19.9971  24.5186  26.0768  26.0768  26.2269  28.1180  28.1180
    30.3883  30.9146  30.9146  31.1715  33.6881

     occupation numbers 
     1.0000   1.0000   1.0000   1.0000   1.0000   1.0000   1.0000   1.0000
     1.0000   1.0000   1.0000   1.0000   1.0000   1.0000   1.0000   1.0000
     1.0000   1.0000   0.0000   0.0000   0.0000   0.0000   0.0000   0.0000
     0.0000   0.0000   0.0000   0.0000   0.0000   0.0000   0.0000   0.0000
     0.0000   0.0000   0.0000   0.0000   0.0000

          k = 0.0000 0.2887 0.0000 (  3164 PWs)   bands (ev):

    -6.0203  -5.5810  -4.1520  -4.1349  -4.0742  -4.0409  -3.9959  -3.9651
    -3.9474  -3.8634  -3.8507  -2.2629   3.1585   5.3725   6.3936   7.3444
     8.5611   8.7681  13.3553  15.0174  16.5111  17.6299  19.1889  19.7835
    20.5117  21.6973  21.7993  24.6838  25.3040  28.1652  30.4030  30.9653
    31.4220  31.9153  33.1259  34.5494  35.3425

     occupation numbers 
     1.0000   1.0000   1.0000   1.0000   1.0000   1.0000   1.0000   1.0000
     1.0000   1.0000   1.0000   1.0000   1.0000   1.0000   1.0000   1.0000
     1.0000   1.0000   0.0000   0.0000   0.0000   0.0000   0.0000   0.0000
     0.0000   0.0000   0.0000   0.0000   0.0000   0.0000   0.0000   0.0000
     0.0000   0.0000   0.0000   0.0000   0.0000

          k = 0.0000 0.2887 0.2044 (  3138 PWs)   bands (ev):

    -5.8463  -5.6267  -4.1461  -4.1127  -4.1069  -4.0655  -3.9904  -3.9715
    -3.9265  -3.8845  -3.6520  -2.9229   4.0514   5.3866   6.3585   7.6670
     8.0862   8.3743  13.6877  14.9873  16.3754  17.1483  18.8565  19.6546
    20.2011  21.1411  22.9812  25.3787  25.9261  28.5659  29.2503  29.7850
    31.6155  31.9667  33.1044  34.8380  35.5429

     occupation numbers 
     1.0000   1.0000   1.0000   1.0000   1.0000   1.0000   1.0000   1.0000
     1.0000   1.0000   1.0000   1.0000   1.0000   1.0000   1.0000   1.0000
     1.0000   1.0000   0.0000   0.0000   0.0000   0.0000   0.0000   0.0000
     0.0000   0.0000   0.0000   0.0000   0.0000   0.0000   0.0000   0.0000
     0.0000   0.0000   0.0000   0.0000   0.0000

          k = 0.0000-0.5774 0.0000 (  3118 PWs)   bands (ev):

    -5.6803  -5.5335  -4.1424  -4.1218  -4.0332  -3.9962  -3.9562  -3.9479
    -3.8800  -3.8493  -2.7231  -2.1876   2.9436   4.0633   5.1820   6.6170
     7.1309   8.2876  14.2399  14.6215  15.2251  17.5869  19.3995  19.4945
    21.5231  22.2444  22.9356  25.7413  26.3868  28.2781  30.2582  32.2335
    32.7275  32.9530  34.2403  35.2403  35.2679

     occupation numbers 
     1.0000   1.0000   1.0000   1.0000   1.0000   1.0000   1.0000   1.0000
     1.0000   1.0000   1.0000   1.0000   1.0000   1.0000   1.0000   1.0000
     1.0000   1.0000   0.0000   0.0000   0.0000   0.0000   0.0000   0.0000
     0.0000   0.0000   0.0000   0.0000   0.0000   0.0000   0.0000   0.0000
     0.0000   0.0000   0.0000   0.0000   0.0000

          k = 0.0000-0.5774 0.2044 (  3168 PWs)   bands (ev):

    -5.6089  -5.5358  -4.1552  -4.1017  -4.0776  -3.9918  -3.9745  -3.9104
    -3.8776  -3.8654  -2.6220  -2.3482   2.6652   3.2369   6.5419   6.9868
     7.7346   7.8130  13.2779  14.1420  16.6533  16.9320  19.2421  19.3280
    20.3812  22.0915  23.1153  25.6359  28.7709  29.0677  29.4152  31.4444
    32.3033  33.1853  33.2701  34.2504  37.1011

     occupation numbers 
     1.0000   1.0000   1.0000   1.0000   1.0000   1.0000   1.0000   1.0000
     1.0000   1.0000   1.0000   1.0000   1.0000   1.0000   1.0000   1.0000
     1.0000   1.0000   0.0000   0.0000   0.0000   0.0000   0.0000   0.0000
     0.0000   0.0000   0.0000   0.0000   0.0000   0.0000   0.0000   0.0000
     0.0000   0.0000   0.0000   0.0000   0.0000

          k = 0.2500 0.4330 0.0000 (  3128 PWs)   bands (ev):

    -5.6644  -5.5393  -4.1715  -4.0611  -4.0125  -4.0015  -3.9878  -3.9600
    -3.9080  -3.8839  -2.9038  -1.9589   3.6336   4.2456   5.3350   5.3992
     7.2319   7.4079  14.9990  15.6588  16.8851  16.9142  18.6602  19.4217
    20.0333  22.7077  22.7549  24.9036  28.5157  29.0279  29.6181  30.5121
    31.4075  33.6712  33.6768  35.2975  35.3055

     occupation numbers 
     1.0000   1.0000   1.0000   1.0000   1.0000   1.0000   1.0000   1.0000
     1.0000   1.0000   1.0000   1.0000   1.0000   1.0000   1.0000   1.0000
     1.0000   1.0000   0.0000   0.0000   0.0000   0.0000   0.0000   0.0000
     0.0000   0.0000   0.0000   0.0000   0.0000   0.0000   0.0000   0.0000
     0.0000   0.0000   0.0000   0.0000   0.0000

          k = 0.2500 0.4330 0.2044 (  3155 PWs)   bands (ev):

    -5.5964  -5.5352  -4.1195  -4.0961  -4.0593  -4.0238  -3.9733  -3.9596
    -3.9040  -3.8888  -2.7271  -2.2560   3.3100   3.7672   5.5499   6.5040
     6.8422   7.9484  14.9329  15.2286  16.9909  17.1246  17.8729  18.3951
    20.9710  22.2517  23.4514  24.5161  27.5372  27.8354  30.9133  30.9615
    32.8122  33.3336  34.9065  35.0201  36.9296

     occupation numbers 
     1.0000   1.0000   1.0000   1.0000   1.0000   1.0000   1.0000   1.0000
     1.0000   1.0000   1.0000   1.0000   1.0000   1.0000   1.0000   1.0000
     1.0000   1.0000   0.0000   0.0000   0.0000   0.0000   0.0000   0.0000
     0.0000   0.0000   0.0000   0.0000   0.0000   0.0000   0.0000   0.0000
     0.0000   0.0000   0.0000   0.0000   0.0000

     highest occupied, lowest unoccupied level (ev):     9.2463   10.9620

     Writing all to output data dir ./tmp/GaN.save/ :
     XML data file, pseudopotentials, collected wavefunctions
 
     init_run     :      0.29s CPU      0.33s WALL (       1 calls)
     electrons    :      5.88s CPU      6.09s WALL (       1 calls)

     Called by init_run:
     wfcinit      :      0.00s CPU      0.01s WALL (       1 calls)
     wfcinit:atom :      0.00s CPU      0.00s WALL (       8 calls)
     wfcinit:wfcr :      0.05s CPU      0.05s WALL (       8 calls)
     potinit      :      0.09s CPU      0.11s WALL (       1 calls)
     hinit0       :      0.06s CPU      0.06s WALL (       1 calls)

     Called by electrons:
     c_bands      :      5.88s CPU      6.09s WALL (       1 calls)
     v_of_rho     :      0.01s CPU      0.01s WALL (       1 calls)
     v_h          :      0.00s CPU      0.00s WALL (       1 calls)
     v_xc         :      0.01s CPU      0.01s WALL (       1 calls)
     newd         :      0.04s CPU      0.05s WALL (       1 calls)
     PAW_pot      :      0.08s CPU      0.08s WALL (       1 calls)

     Called by c_bands:
     init_us_2    :      0.00s CPU      0.00s WALL (       8 calls)
     cegterg      :      5.83s CPU      6.03s WALL (      46 calls)

     Called by sum_band:

     Called by *egterg:
     cdiaghg      :      1.66s CPU      1.71s WALL (     903 calls)
     cegterg:over :      0.28s CPU      0.29s WALL (     895 calls)
     cegterg:upda :      0.12s CPU      0.12s WALL (     895 calls)
     cegterg:last :      0.35s CPU      0.35s WALL (     661 calls)
     h_psi        :      3.27s CPU      3.41s WALL (     949 calls)
     s_psi        :      0.09s CPU      0.09s WALL (     949 calls)
     g_psi        :      0.02s CPU      0.02s WALL (     895 calls)

     Called by h_psi:
     h_psi:calbec :      0.13s CPU      0.13s WALL (     949 calls)
     vloc_psi     :      3.04s CPU      3.16s WALL (     949 calls)
     add_vuspsi   :      0.09s CPU      0.09s WALL (     949 calls)

     General routines
     calbec       :      0.13s CPU      0.13s WALL (     949 calls)
     fft          :      0.01s CPU      0.01s WALL (      13 calls)
     ffts         :      0.00s CPU      0.00s WALL (       1 calls)
     fftw         :      2.54s CPU      2.65s WALL (   46242 calls)
     interpolate  :      0.00s CPU      0.00s WALL (       1 calls)
     davcio       :      0.00s CPU      0.00s WALL (      16 calls)
 
     Parallel routines

     PAW routines
     PAW_pot      :      0.08s CPU      0.08s WALL (       1 calls)
 
     PWSCF        :      6.40s CPU      6.97s WALL

 
   This run was terminated on:  12:30:48  30Jun2026            

=------------------------------------------------------------------------------=
   JOB DONE.
=------------------------------------------------------------------------------=
