
     Program PWSCF v.7.3.1 starts on  6Aug2026 at  1:46:41 

     This program is part of the open-source Quantum ESPRESSO suite
     for quantum simulation of materials; please cite
         "P. Giannozzi et al., J. Phys.:Condens. Matter 21 395502 (2009);
         "P. Giannozzi et al., J. Phys.:Condens. Matter 29 465901 (2017);
         "P. Giannozzi et al., J. Chem. Phys. 152 154105 (2020);
          URL http://www.quantum-espresso.org", 
     in publications or presentations arising from this work. More details at
     http://www.quantum-espresso.org/quote

     Parallel version (MPI & OpenMP), running on      12 processor cores
     Number of MPI processes:                12
     Threads/MPI process:                     1

     MPI processes distributed on     1 nodes
     1375 MiB available memory on the printing compute node when the environment starts
 
     Waiting for input...
     Reading input from standard input

     Current dimensions of program PWSCF are:
     Max number of different atomic species (ntypx) = 10
     Max number of k-points (npk) =  40000
     Max angular momentum in pseudopotentials (lmaxx) =  4
     file Ga.pbe-dn-kjpaw_psl.1.0.0.UPF: wavefunction(s)  4S renormalized
     file N.pbe-n-kjpaw_psl.1.0.0.UPF: wavefunction(s)  2S renormalized
     file C.pbe-n-kjpaw_psl.1.0.0.UPF: wavefunction(s)  2S 2P renormalized
     Message from routine setup:
     using ibrav=0 with symmetry is DISCOURAGED, use correct ibrav instead
 
     R & G space division:  proc/nbgrp/npool/nimage =      12
     Subspace diagonalization in iterative solution of the eigenvalue problem:
     one sub-group per band group will be used
     custom distributed-memory algorithm (size of sub-group:  3*  3 procs)

 
     Parallelization info
     --------------------
     sticks:   dense  smooth     PW     G-vecs:    dense   smooth      PW
     Min        1339     536    139               223822    56640    7606
     Max        1341     537    141               223825    56649    7611
     Sum       16081    6433   1675              2685887   679695   91287
 
     Using Slab Decomposition
 


     bravais-lattice index     =            0
     lattice parameter (alat)  =      18.2548  a.u.
     unit-cell volume          =    8589.3845 (a.u.)^3
     number of atoms/cell      =          108
     number of atomic types    =            3
     number of electrons       =       963.00
     number of Kohn-Sham states=          513
     kinetic-energy cutoff     =      70.0000  Ry
     charge density cutoff     =     700.0000  Ry
     scf convergence threshold =      1.0E-08
     mixing beta               =       0.7000
     number of iterations used =            8  plain     mixing
     Exchange-correlation= SLA  PW   PBX  PBC
                           (   1   4   3   4   0   0   0)

     celldm(1)=  18.254754  celldm(2)=   0.000000  celldm(3)=   0.000000
     celldm(4)=   0.000000  celldm(5)=   0.000000  celldm(6)=   0.000000

     crystal axes: (cart. coord. in units of alat)
               a(1) = (   1.000000   0.000000   0.000000 )  
               a(2) = (  -0.500000   0.866025   0.000000 )  
               a(3) = (   0.000000   0.000000   1.630435 )  

     reciprocal axes: (cart. coord. in units 2 pi/alat)
               b(1) = (  1.000000  0.577350  0.000000 )  
               b(2) = (  0.000000  1.154701  0.000000 )  
               b(3) = (  0.000000  0.000000  0.613333 )  


     PseudoPot. # 1 for Ga read from file:
     /data-fast/greenano/Students/cohort2/rojassan/Project_GaN/PSEUDO/Ga.pbe-dn-kjpaw_psl.1.0.0.UPF
     MD5 check sum: 93aceff68ec27daa0acc11ebb2e245f0
     Pseudo is Projector augmented-wave + core cor, Zval = 13.0
     Generated using 'atomic' code by A. Dal Corso  v.7.3.1
     Shape of augmentation charge: PSQ
     Using radial grid of 1205 points,  6 beta functions with: 
                l(1) =   0
                l(2) =   0
                l(3) =   1
                l(4) =   1
                l(5) =   2
                l(6) =   2
     Q(r) pseudized with 0 coefficients 


     PseudoPot. # 2 for N  read from file:
     /data-fast/greenano/Students/cohort2/rojassan/Project_GaN/PSEUDO/N.pbe-n-kjpaw_psl.1.0.0.UPF
     MD5 check sum: 86f48117b7e7b472c01f85d0863ba463
     Pseudo is Projector augmented-wave + core cor, Zval =  5.0
     Generated using 'atomic' code by A. Dal Corso  v.7.3.1
     Shape of augmentation charge: PSQ
     Using radial grid of 1085 points,  4 beta functions with: 
                l(1) =   0
                l(2) =   0
                l(3) =   1
                l(4) =   1
     Q(r) pseudized with 0 coefficients 


     PseudoPot. # 3 for C  read from file:
     /data-fast/greenano/Students/cohort2/rojassan/Project_GaN/PSEUDO/C.pbe-n-kjpaw_psl.1.0.0.UPF
     MD5 check sum: 6e4988b7a1fe6f06f65aa0569fb69d66
     Pseudo is Projector augmented-wave + core cor, Zval =  4.0
     Generated using 'atomic' code by A. Dal Corso  v.7.3.1
     Shape of augmentation charge: PSQ
     Using radial grid of 1073 points,  4 beta functions with: 
                l(1) =   0
                l(2) =   0
                l(3) =   1
                l(4) =   1
     Q(r) pseudized with 0 coefficients 


     atomic species   valence    mass     pseudopotential
     Ga               13.00    69.72300     Ga( 1.00)
     N                 5.00    14.00700     N ( 1.00)
     C                 4.00    12.01100     C ( 1.00)

      6 Sym. Ops. (no inversion) found ( 4 have fractional translation)


                                    s                        frac. trans.

      isym =  1     identity                                     

 cryst.   s( 1) = (     1          0          0      )
                  (     0          1          0      )
                  (     0          0          1      )

 cart.    s( 1) = (  1.0000000  0.0000000  0.0000000 )
                  (  0.0000000  1.0000000  0.0000000 )
                  (  0.0000000  0.0000000  1.0000000 )


      isym =  2     120 deg rotation - cryst. axis [0,0,1]       

 cryst.   s( 2) = (     0          1          0      )    f =( -0.3333333 )
                  (    -1         -1          0      )       ( -0.3333333 )
                  (     0          0          1      )       (  0.0000000 )

 cart.    s( 2) = ( -0.5000000 -0.8660254  0.0000000 )    f =( -0.1666667 )
                  (  0.8660254 -0.5000000  0.0000000 )       ( -0.2886751 )
                  (  0.0000000  0.0000000  1.0000000 )       (  0.0000000 )


      isym =  3     120 deg rotation - cryst. axis [0,0,-1]      

 cryst.   s( 3) = (    -1         -1          0      )    f =(  0.0000000 )
                  (     1          0          0      )       ( -0.3333333 )
                  (     0          0          1      )       (  0.0000000 )

 cart.    s( 3) = ( -0.5000000  0.8660254  0.0000000 )    f =(  0.1666667 )
                  ( -0.8660254 -0.5000000  0.0000000 )       ( -0.2886751 )
                  (  0.0000000  0.0000000  1.0000000 )       (  0.0000000 )


      isym =  4     inv. 180 deg rotation - cart. axis [1,0,0]   

 cryst.   s( 4) = (    -1          0          0      )
                  (     1          1          0      )
                  (     0          0          1      )

 cart.    s( 4) = ( -1.0000000  0.0000000  0.0000000 )
                  (  0.0000000  1.0000000  0.0000000 )
                  (  0.0000000  0.0000000  1.0000000 )


      isym =  5     inv. 180 deg rotation - cryst. axis [0,1,0]  

 cryst.   s( 5) = (     1          1          0      )    f =(  0.0000000 )
                  (     0         -1          0      )       ( -0.3333333 )
                  (     0          0          1      )       (  0.0000000 )

 cart.    s( 5) = (  0.5000000  0.8660254  0.0000000 )    f =(  0.1666667 )
                  (  0.8660254 -0.5000000  0.0000000 )       ( -0.2886751 )
                  (  0.0000000  0.0000000  1.0000000 )       (  0.0000000 )


      isym =  6     inv. 180 deg rotation - cryst. axis [1,1,0]  

 cryst.   s( 6) = (     0         -1          0      )    f =( -0.3333333 )
                  (    -1          0          0      )       ( -0.3333333 )
                  (     0          0          1      )       (  0.0000000 )

 cart.    s( 6) = (  0.5000000 -0.8660254  0.0000000 )    f =( -0.1666667 )
                  ( -0.8660254 -0.5000000  0.0000000 )       ( -0.2886751 )
                  (  0.0000000  0.0000000  1.0000000 )       (  0.0000000 )


   Cartesian axes

     site n.     atom                  positions (alat units)
         1        C      tau(   1) = (   0.0000000   0.1924501   0.0000000  )
         2        Ga     tau(   2) = (   0.1666667   0.0962250   0.2717391  )
         3        N      tau(   3) = (   0.0000000   0.1924501   0.2045554  )
         4        N      tau(   4) = (   0.1666667   0.0962250   0.4762946  )
         5        Ga     tau(   5) = (   0.3333333   0.1924501   0.0000000  )
         6        Ga     tau(   6) = (   0.5000000   0.0962250   0.2717391  )
         7        N      tau(   7) = (   0.3333333   0.1924501   0.2045554  )
         8        N      tau(   8) = (   0.5000000   0.0962250   0.4762946  )
         9        Ga     tau(   9) = (   0.6666667   0.1924501   0.0000000  )
        10        Ga     tau(  10) = (   0.8333333   0.0962250   0.2717391  )
        11        N      tau(  11) = (   0.6666667   0.1924501   0.2045554  )
        12        N      tau(  12) = (   0.8333333   0.0962250   0.4762946  )
        13        Ga     tau(  13) = (  -0.1666667   0.4811252   0.0000000  )
        14        Ga     tau(  14) = (   0.0000000   0.3849002   0.2717391  )
        15        N      tau(  15) = (  -0.1666667   0.4811252   0.2045554  )
        16        N      tau(  16) = (   0.0000000   0.3849002   0.4762946  )
        17        Ga     tau(  17) = (   0.1666667   0.4811252   0.0000000  )
        18        Ga     tau(  18) = (   0.3333333   0.3849002   0.2717391  )
        19        N      tau(  19) = (   0.1666667   0.4811252   0.2045554  )
        20        N      tau(  20) = (   0.3333333   0.3849002   0.4762946  )
        21        Ga     tau(  21) = (   0.5000000   0.4811252   0.0000000  )
        22        Ga     tau(  22) = (   0.6666667   0.3849002   0.2717391  )
        23        N      tau(  23) = (   0.5000000   0.4811252   0.2045554  )
        24        N      tau(  24) = (   0.6666667   0.3849002   0.4762946  )
        25        Ga     tau(  25) = (  -0.3333333   0.7698004   0.0000000  )
        26        Ga     tau(  26) = (  -0.1666667   0.6735753   0.2717391  )
        27        N      tau(  27) = (  -0.3333333   0.7698004   0.2045554  )
        28        N      tau(  28) = (  -0.1666667   0.6735753   0.4762946  )
        29        Ga     tau(  29) = (   0.0000000   0.7698004   0.0000000  )
        30        Ga     tau(  30) = (   0.1666667   0.6735753   0.2717391  )
        31        N      tau(  31) = (   0.0000000   0.7698004   0.2045554  )
        32        N      tau(  32) = (   0.1666667   0.6735753   0.4762946  )
        33        Ga     tau(  33) = (   0.3333333   0.7698004   0.0000000  )
        34        Ga     tau(  34) = (   0.5000000   0.6735753   0.2717391  )
        35        N      tau(  35) = (   0.3333333   0.7698004   0.2045554  )
        36        N      tau(  36) = (   0.5000000   0.6735753   0.4762946  )
        37        Ga     tau(  37) = (   0.0000000   0.1924501   0.5434783  )
        38        Ga     tau(  38) = (   0.1666667   0.0962250   0.8152174  )
        39        N      tau(  39) = (   0.0000000   0.1924501   0.7480337  )
        40        N      tau(  40) = (   0.1666667   0.0962250   1.0197728  )
        41        Ga     tau(  41) = (   0.3333333   0.1924501   0.5434783  )
        42        Ga     tau(  42) = (   0.5000000   0.0962250   0.8152174  )
        43        N      tau(  43) = (   0.3333333   0.1924501   0.7480337  )
        44        N      tau(  44) = (   0.5000000   0.0962250   1.0197728  )
        45        Ga     tau(  45) = (   0.6666667   0.1924501   0.5434783  )
        46        Ga     tau(  46) = (   0.8333333   0.0962250   0.8152174  )
        47        N      tau(  47) = (   0.6666667   0.1924501   0.7480337  )
        48        N      tau(  48) = (   0.8333333   0.0962250   1.0197728  )
        49        Ga     tau(  49) = (  -0.1666667   0.4811252   0.5434783  )
        50        Ga     tau(  50) = (   0.0000000   0.3849002   0.8152174  )
        51        N      tau(  51) = (  -0.1666667   0.4811252   0.7480337  )
        52        N      tau(  52) = (   0.0000000   0.3849002   1.0197728  )
        53        Ga     tau(  53) = (   0.1666667   0.4811252   0.5434783  )
        54        Ga     tau(  54) = (   0.3333333   0.3849002   0.8152174  )
        55        N      tau(  55) = (   0.1666667   0.4811252   0.7480337  )
        56        N      tau(  56) = (   0.3333333   0.3849002   1.0197728  )
        57        Ga     tau(  57) = (   0.5000000   0.4811252   0.5434783  )
        58        Ga     tau(  58) = (   0.6666667   0.3849002   0.8152174  )
        59        N      tau(  59) = (   0.5000000   0.4811252   0.7480337  )
        60        N      tau(  60) = (   0.6666667   0.3849002   1.0197728  )
        61        Ga     tau(  61) = (  -0.3333333   0.7698004   0.5434783  )
        62        Ga     tau(  62) = (  -0.1666667   0.6735753   0.8152174  )
        63        N      tau(  63) = (  -0.3333333   0.7698004   0.7480337  )
        64        N      tau(  64) = (  -0.1666667   0.6735753   1.0197728  )
        65        Ga     tau(  65) = (   0.0000000   0.7698004   0.5434783  )
        66        Ga     tau(  66) = (   0.1666667   0.6735753   0.8152174  )
        67        N      tau(  67) = (   0.0000000   0.7698004   0.7480337  )
        68        N      tau(  68) = (   0.1666667   0.6735753   1.0197728  )
        69        Ga     tau(  69) = (   0.3333333   0.7698004   0.5434783  )
        70        Ga     tau(  70) = (   0.5000000   0.6735753   0.8152174  )
        71        N      tau(  71) = (   0.3333333   0.7698004   0.7480337  )
        72        N      tau(  72) = (   0.5000000   0.6735753   1.0197728  )
        73        Ga     tau(  73) = (   0.0000000   0.1924501   1.0869565  )
        74        Ga     tau(  74) = (   0.1666667   0.0962250   1.3586957  )
        75        N      tau(  75) = (   0.0000000   0.1924501   1.2915120  )
        76        N      tau(  76) = (   0.1666667   0.0962250   1.5632511  )
        77        Ga     tau(  77) = (   0.3333333   0.1924501   1.0869565  )
        78        Ga     tau(  78) = (   0.5000000   0.0962250   1.3586957  )
        79        N      tau(  79) = (   0.3333333   0.1924501   1.2915120  )
        80        N      tau(  80) = (   0.5000000   0.0962250   1.5632511  )
        81        Ga     tau(  81) = (   0.6666667   0.1924501   1.0869565  )
        82        Ga     tau(  82) = (   0.8333333   0.0962250   1.3586957  )
        83        N      tau(  83) = (   0.6666667   0.1924501   1.2915120  )
        84        N      tau(  84) = (   0.8333333   0.0962250   1.5632511  )
        85        Ga     tau(  85) = (  -0.1666667   0.4811252   1.0869565  )
        86        Ga     tau(  86) = (   0.0000000   0.3849002   1.3586957  )
        87        N      tau(  87) = (  -0.1666667   0.4811252   1.2915120  )
        88        N      tau(  88) = (   0.0000000   0.3849002   1.5632511  )
        89        Ga     tau(  89) = (   0.1666667   0.4811252   1.0869565  )
        90        Ga     tau(  90) = (   0.3333333   0.3849002   1.3586957  )
        91        N      tau(  91) = (   0.1666667   0.4811252   1.2915120  )
        92        N      tau(  92) = (   0.3333333   0.3849002   1.5632511  )
        93        Ga     tau(  93) = (   0.5000000   0.4811252   1.0869565  )
        94        Ga     tau(  94) = (   0.6666667   0.3849002   1.3586957  )
        95        N      tau(  95) = (   0.5000000   0.4811252   1.2915120  )
        96        N      tau(  96) = (   0.6666667   0.3849002   1.5632511  )
        97        Ga     tau(  97) = (  -0.3333333   0.7698004   1.0869565  )
        98        Ga     tau(  98) = (  -0.1666667   0.6735753   1.3586957  )
        99        N      tau(  99) = (  -0.3333333   0.7698004   1.2915120  )
       100        N      tau( 100) = (  -0.1666667   0.6735753   1.5632511  )
       101        Ga     tau( 101) = (   0.0000000   0.7698004   1.0869565  )
       102        Ga     tau( 102) = (   0.1666667   0.6735753   1.3586957  )
       103        N      tau( 103) = (   0.0000000   0.7698004   1.2915120  )
       104        N      tau( 104) = (   0.1666667   0.6735753   1.5632511  )
       105        Ga     tau( 105) = (   0.3333333   0.7698004   1.0869565  )
       106        Ga     tau( 106) = (   0.5000000   0.6735753   1.3586957  )
       107        N      tau( 107) = (   0.3333333   0.7698004   1.2915120  )
       108        N      tau( 108) = (   0.5000000   0.6735753   1.5632511  )

   Crystallographic axes

     site n.     atom                  positions (cryst. coord.)
         1        C      tau(   1) = (  0.1111111  0.2222222  0.0000000  )
         2        Ga     tau(   2) = (  0.2222222  0.1111111  0.1666667  )
         3        N      tau(   3) = (  0.1111111  0.2222222  0.1254607  )
         4        N      tau(   4) = (  0.2222222  0.1111111  0.2921273  )
         5        Ga     tau(   5) = (  0.4444444  0.2222222  0.0000000  )
         6        Ga     tau(   6) = (  0.5555556  0.1111111  0.1666667  )
         7        N      tau(   7) = (  0.4444444  0.2222222  0.1254607  )
         8        N      tau(   8) = (  0.5555556  0.1111111  0.2921273  )
         9        Ga     tau(   9) = (  0.7777778  0.2222222  0.0000000  )
        10        Ga     tau(  10) = (  0.8888889  0.1111111  0.1666667  )
        11        N      tau(  11) = (  0.7777778  0.2222222  0.1254607  )
        12        N      tau(  12) = (  0.8888889  0.1111111  0.2921273  )
        13        Ga     tau(  13) = (  0.1111111  0.5555556  0.0000000  )
        14        Ga     tau(  14) = (  0.2222222  0.4444444  0.1666667  )
        15        N      tau(  15) = (  0.1111111  0.5555556  0.1254607  )
        16        N      tau(  16) = (  0.2222222  0.4444444  0.2921273  )
        17        Ga     tau(  17) = (  0.4444444  0.5555556  0.0000000  )
        18        Ga     tau(  18) = (  0.5555556  0.4444444  0.1666667  )
        19        N      tau(  19) = (  0.4444444  0.5555556  0.1254607  )
        20        N      tau(  20) = (  0.5555556  0.4444444  0.2921273  )
        21        Ga     tau(  21) = (  0.7777778  0.5555556  0.0000000  )
        22        Ga     tau(  22) = (  0.8888889  0.4444444  0.1666667  )
        23        N      tau(  23) = (  0.7777778  0.5555556  0.1254607  )
        24        N      tau(  24) = (  0.8888889  0.4444444  0.2921273  )
        25        Ga     tau(  25) = (  0.1111111  0.8888889  0.0000000  )
        26        Ga     tau(  26) = (  0.2222222  0.7777778  0.1666667  )
        27        N      tau(  27) = (  0.1111111  0.8888889  0.1254607  )
        28        N      tau(  28) = (  0.2222222  0.7777778  0.2921273  )
        29        Ga     tau(  29) = (  0.4444444  0.8888889  0.0000000  )
        30        Ga     tau(  30) = (  0.5555556  0.7777778  0.1666667  )
        31        N      tau(  31) = (  0.4444444  0.8888889  0.1254607  )
        32        N      tau(  32) = (  0.5555556  0.7777778  0.2921273  )
        33        Ga     tau(  33) = (  0.7777778  0.8888889  0.0000000  )
        34        Ga     tau(  34) = (  0.8888889  0.7777778  0.1666667  )
        35        N      tau(  35) = (  0.7777778  0.8888889  0.1254607  )
        36        N      tau(  36) = (  0.8888889  0.7777778  0.2921273  )
        37        Ga     tau(  37) = (  0.1111111  0.2222222  0.3333333  )
        38        Ga     tau(  38) = (  0.2222222  0.1111111  0.5000000  )
        39        N      tau(  39) = (  0.1111111  0.2222222  0.4587940  )
        40        N      tau(  40) = (  0.2222222  0.1111111  0.6254607  )
        41        Ga     tau(  41) = (  0.4444444  0.2222222  0.3333333  )
        42        Ga     tau(  42) = (  0.5555556  0.1111111  0.5000000  )
        43        N      tau(  43) = (  0.4444444  0.2222222  0.4587940  )
        44        N      tau(  44) = (  0.5555556  0.1111111  0.6254607  )
        45        Ga     tau(  45) = (  0.7777778  0.2222222  0.3333333  )
        46        Ga     tau(  46) = (  0.8888889  0.1111111  0.5000000  )
        47        N      tau(  47) = (  0.7777778  0.2222222  0.4587940  )
        48        N      tau(  48) = (  0.8888889  0.1111111  0.6254607  )
        49        Ga     tau(  49) = (  0.1111111  0.5555556  0.3333333  )
        50        Ga     tau(  50) = (  0.2222222  0.4444444  0.5000000  )
        51        N      tau(  51) = (  0.1111111  0.5555556  0.4587940  )
        52        N      tau(  52) = (  0.2222222  0.4444444  0.6254607  )
        53        Ga     tau(  53) = (  0.4444444  0.5555556  0.3333333  )
        54        Ga     tau(  54) = (  0.5555556  0.4444444  0.5000000  )
        55        N      tau(  55) = (  0.4444444  0.5555556  0.4587940  )
        56        N      tau(  56) = (  0.5555556  0.4444444  0.6254607  )
        57        Ga     tau(  57) = (  0.7777778  0.5555556  0.3333333  )
        58        Ga     tau(  58) = (  0.8888889  0.4444444  0.5000000  )
        59        N      tau(  59) = (  0.7777778  0.5555556  0.4587940  )
        60        N      tau(  60) = (  0.8888889  0.4444444  0.6254607  )
        61        Ga     tau(  61) = (  0.1111111  0.8888889  0.3333333  )
        62        Ga     tau(  62) = (  0.2222222  0.7777778  0.5000000  )
        63        N      tau(  63) = (  0.1111111  0.8888889  0.4587940  )
        64        N      tau(  64) = (  0.2222222  0.7777778  0.6254607  )
        65        Ga     tau(  65) = (  0.4444444  0.8888889  0.3333333  )
        66        Ga     tau(  66) = (  0.5555556  0.7777778  0.5000000  )
        67        N      tau(  67) = (  0.4444444  0.8888889  0.4587940  )
        68        N      tau(  68) = (  0.5555556  0.7777778  0.6254607  )
        69        Ga     tau(  69) = (  0.7777778  0.8888889  0.3333333  )
        70        Ga     tau(  70) = (  0.8888889  0.7777778  0.5000000  )
        71        N      tau(  71) = (  0.7777778  0.8888889  0.4587940  )
        72        N      tau(  72) = (  0.8888889  0.7777778  0.6254607  )
        73        Ga     tau(  73) = (  0.1111111  0.2222222  0.6666667  )
        74        Ga     tau(  74) = (  0.2222222  0.1111111  0.8333333  )
        75        N      tau(  75) = (  0.1111111  0.2222222  0.7921273  )
        76        N      tau(  76) = (  0.2222222  0.1111111  0.9587940  )
        77        Ga     tau(  77) = (  0.4444444  0.2222222  0.6666667  )
        78        Ga     tau(  78) = (  0.5555556  0.1111111  0.8333333  )
        79        N      tau(  79) = (  0.4444444  0.2222222  0.7921273  )
        80        N      tau(  80) = (  0.5555556  0.1111111  0.9587940  )
        81        Ga     tau(  81) = (  0.7777778  0.2222222  0.6666667  )
        82        Ga     tau(  82) = (  0.8888889  0.1111111  0.8333333  )
        83        N      tau(  83) = (  0.7777778  0.2222222  0.7921273  )
        84        N      tau(  84) = (  0.8888889  0.1111111  0.9587940  )
        85        Ga     tau(  85) = (  0.1111111  0.5555556  0.6666667  )
        86        Ga     tau(  86) = (  0.2222222  0.4444444  0.8333333  )
        87        N      tau(  87) = (  0.1111111  0.5555556  0.7921273  )
        88        N      tau(  88) = (  0.2222222  0.4444444  0.9587940  )
        89        Ga     tau(  89) = (  0.4444444  0.5555556  0.6666667  )
        90        Ga     tau(  90) = (  0.5555556  0.4444444  0.8333333  )
        91        N      tau(  91) = (  0.4444444  0.5555556  0.7921273  )
        92        N      tau(  92) = (  0.5555556  0.4444444  0.9587940  )
        93        Ga     tau(  93) = (  0.7777778  0.5555556  0.6666667  )
        94        Ga     tau(  94) = (  0.8888889  0.4444444  0.8333333  )
        95        N      tau(  95) = (  0.7777778  0.5555556  0.7921273  )
        96        N      tau(  96) = (  0.8888889  0.4444444  0.9587940  )
        97        Ga     tau(  97) = (  0.1111111  0.8888889  0.6666667  )
        98        Ga     tau(  98) = (  0.2222222  0.7777778  0.8333333  )
        99        N      tau(  99) = (  0.1111111  0.8888889  0.7921273  )
       100        N      tau( 100) = (  0.2222222  0.7777778  0.9587940  )
       101        Ga     tau( 101) = (  0.4444444  0.8888889  0.6666667  )
       102        Ga     tau( 102) = (  0.5555556  0.7777778  0.8333333  )
       103        N      tau( 103) = (  0.4444444  0.8888889  0.7921273  )
       104        N      tau( 104) = (  0.5555556  0.7777778  0.9587940  )
       105        Ga     tau( 105) = (  0.7777778  0.8888889  0.6666667  )
       106        Ga     tau( 106) = (  0.8888889  0.7777778  0.8333333  )
       107        N      tau( 107) = (  0.7777778  0.8888889  0.7921273  )
       108        N      tau( 108) = (  0.8888889  0.7777778  0.9587940  )

     number of k points=     2  Gaussian smearing, width (Ry)=  0.0050
                       cart. coord. in units 2pi/alat
        k(    1) = (   0.2500000   0.4330127  -0.3066667), wk =   1.0000000
        k(    2) = (   0.2500000  -0.1443376  -0.3066667), wk =   1.0000000

                       cryst. coord.
        k(    1) = (   0.2500000   0.2500000  -0.5000000), wk =   1.0000000
        k(    2) = (   0.2500000  -0.2500000  -0.5000000), wk =   1.0000000

     Dense  grid:  2685887 G-vectors     FFT dimensions: ( 162, 162, 256)

     Smooth grid:   679695 G-vectors     FFT dimensions: ( 108, 108, 160)

     Dynamical RAM for                 wfc:      55.41 MB

     Dynamical RAM for     wfc (w. buffer):     166.24 MB

     Dynamical RAM for           str. fact:      10.25 MB

     Dynamical RAM for           local pot:       0.00 MB

     Dynamical RAM for          nlocal pot:     150.58 MB

     Dynamical RAM for                qrad:       6.37 MB

     Dynamical RAM for          rho,v,vnew:      23.46 MB

     Dynamical RAM for               rhoin:       7.82 MB

     Dynamical RAM for            rho*nmix:      54.64 MB

     Dynamical RAM for           G-vectors:      13.24 MB

     Dynamical RAM for          h,s,v(r/c):       5.35 MB

     Dynamical RAM for          <psi|beta>:      10.91 MB

     Dynamical RAM for                 psi:     110.83 MB

     Dynamical RAM for                hpsi:     110.83 MB

     Dynamical RAM for                spsi:     110.83 MB

     Dynamical RAM for      wfcinit/wfcrot:     161.70 MB

     Dynamical RAM for           addusdens:     819.67 MB

     Dynamical RAM for          addusforce:    1183.61 MB

     Dynamical RAM for         addusstress:     686.47 MB

     Estimated static dynamical RAM per process >     413.63 MB

     Estimated max dynamical RAM per process >       1.61 GB

     Estimated total dynamical RAM >      19.36 GB

     Initial potential from superposition of free atoms

     starting charge     962.8430, renormalised to     963.0000
     Starting wfcs are  697 randomized atomic wfcs
     Checking if some PAW data can be deallocated... 
       PAW data deallocated on   11 nodes for type:  3

     total cpu time spent up to now is       28.8 secs

     Self-consistent Calculation

     iteration #  1     ecut=    70.00 Ry     beta= 0.70
     Davidson diagonalization with overlap

---- Real-time Memory Report at c_bands before calling an iterative solver
          1043 MiB given to the printing process from OS
             0 MiB allocation reported by mallinfo(arena+hblkhd)
          6191 MiB available memory on the node where the printing process lives
------------------
     ethr =  1.00E-02,  avg # of iterations =  2.0

     total cpu time spent up to now is       85.4 secs

     total energy              =  -16255.06271423 Ry
     estimated scf accuracy    <      30.00056843 Ry

     iteration #  2     ecut=    70.00 Ry     beta= 0.70
     Davidson diagonalization with overlap

---- Real-time Memory Report at c_bands before calling an iterative solver
          1523 MiB given to the printing process from OS
             0 MiB allocation reported by mallinfo(arena+hblkhd)
         11043 MiB available memory on the node where the printing process lives
------------------
     ethr =  3.12E-03,  avg # of iterations =  6.5

     total cpu time spent up to now is      167.6 secs

     total energy              =  -16264.96774438 Ry
     estimated scf accuracy    <      42.20609634 Ry

     iteration #  3     ecut=    70.00 Ry     beta= 0.70
     Davidson diagonalization with overlap

---- Real-time Memory Report at c_bands before calling an iterative solver
          1591 MiB given to the printing process from OS
             0 MiB allocation reported by mallinfo(arena+hblkhd)
         10608 MiB available memory on the node where the printing process lives
------------------
     ethr =  3.12E-03,  avg # of iterations =  4.5

     total cpu time spent up to now is      232.6 secs

     total energy              =  -16273.06096762 Ry
     estimated scf accuracy    <       5.61605815 Ry

     iteration #  4     ecut=    70.00 Ry     beta= 0.70
     Davidson diagonalization with overlap

---- Real-time Memory Report at c_bands before calling an iterative solver
          1596 MiB given to the printing process from OS
             0 MiB allocation reported by mallinfo(arena+hblkhd)
         10680 MiB available memory on the node where the printing process lives
------------------
     ethr =  5.83E-04,  avg # of iterations =  8.5

     total cpu time spent up to now is      318.5 secs

     total energy              =  -16275.04226050 Ry
     estimated scf accuracy    <       0.84473654 Ry

     iteration #  5     ecut=    70.00 Ry     beta= 0.70
     Davidson diagonalization with overlap

---- Real-time Memory Report at c_bands before calling an iterative solver
          1649 MiB given to the printing process from OS
             0 MiB allocation reported by mallinfo(arena+hblkhd)
         10829 MiB available memory on the node where the printing process lives
------------------
     c_bands:  1 eigenvalues not converged
     ethr =  8.77E-05,  avg # of iterations = 15.5

     total cpu time spent up to now is      429.3 secs

     total energy              =  -16275.49843889 Ry
     estimated scf accuracy    <       0.71199275 Ry

     iteration #  6     ecut=    70.00 Ry     beta= 0.70
     Davidson diagonalization with overlap

---- Real-time Memory Report at c_bands before calling an iterative solver
          1660 MiB given to the printing process from OS
             0 MiB allocation reported by mallinfo(arena+hblkhd)
         10796 MiB available memory on the node where the printing process lives
------------------
     ethr =  7.39E-05,  avg # of iterations =  2.0

     total cpu time spent up to now is      483.5 secs

     total energy              =  -16275.50825135 Ry
     estimated scf accuracy    <       0.83660761 Ry

     iteration #  7     ecut=    70.00 Ry     beta= 0.70
     Davidson diagonalization with overlap

---- Real-time Memory Report at c_bands before calling an iterative solver
          1661 MiB given to the printing process from OS
             0 MiB allocation reported by mallinfo(arena+hblkhd)
         10772 MiB available memory on the node where the printing process lives
------------------
     ethr =  7.39E-05,  avg # of iterations =  3.0

     total cpu time spent up to now is      540.0 secs

     total energy              =  -16275.50595385 Ry
     estimated scf accuracy    <       0.17375032 Ry

     iteration #  8     ecut=    70.00 Ry     beta= 0.70
     Davidson diagonalization with overlap

---- Real-time Memory Report at c_bands before calling an iterative solver
          1662 MiB given to the printing process from OS
             0 MiB allocation reported by mallinfo(arena+hblkhd)
         10748 MiB available memory on the node where the printing process lives
------------------
     c_bands:  3 eigenvalues not converged
     ethr =  1.80E-05,  avg # of iterations = 16.5

     total cpu time spent up to now is      625.1 secs

     total energy              =  -16275.54699821 Ry
     estimated scf accuracy    <       0.05534861 Ry

     iteration #  9     ecut=    70.00 Ry     beta= 0.70
     Davidson diagonalization with overlap

---- Real-time Memory Report at c_bands before calling an iterative solver
          1719 MiB given to the printing process from OS
             0 MiB allocation reported by mallinfo(arena+hblkhd)
         10966 MiB available memory on the node where the printing process lives
------------------
     ethr =  5.75E-06,  avg # of iterations =  9.0

     total cpu time spent up to now is      711.4 secs

     total energy              =  -16275.56414362 Ry
     estimated scf accuracy    <       0.02473400 Ry

     iteration # 10     ecut=    70.00 Ry     beta= 0.70
     Davidson diagonalization with overlap

---- Real-time Memory Report at c_bands before calling an iterative solver
          1719 MiB given to the printing process from OS
             0 MiB allocation reported by mallinfo(arena+hblkhd)
         10912 MiB available memory on the node where the printing process lives
------------------
     ethr =  2.57E-06,  avg # of iterations =  2.5

     total cpu time spent up to now is      768.1 secs

     total energy              =  -16275.56529530 Ry
     estimated scf accuracy    <       0.01351020 Ry

     iteration # 11     ecut=    70.00 Ry     beta= 0.70
     Davidson diagonalization with overlap

---- Real-time Memory Report at c_bands before calling an iterative solver
          1719 MiB given to the printing process from OS
             0 MiB allocation reported by mallinfo(arena+hblkhd)
         10815 MiB available memory on the node where the printing process lives
------------------
     ethr =  1.40E-06,  avg # of iterations =  8.5

     total cpu time spent up to now is      843.1 secs

     total energy              =  -16275.56811814 Ry
     estimated scf accuracy    <       0.00185930 Ry

     iteration # 12     ecut=    70.00 Ry     beta= 0.70
     Davidson diagonalization with overlap

---- Real-time Memory Report at c_bands before calling an iterative solver
          1724 MiB given to the printing process from OS
             0 MiB allocation reported by mallinfo(arena+hblkhd)
         10778 MiB available memory on the node where the printing process lives
------------------
     ethr =  1.93E-07,  avg # of iterations =  7.5

     total cpu time spent up to now is      951.0 secs

     total energy              =  -16275.56962470 Ry
     estimated scf accuracy    <       0.00009616 Ry

     iteration # 13     ecut=    70.00 Ry     beta= 0.70
     Davidson diagonalization with overlap

---- Real-time Memory Report at c_bands before calling an iterative solver
          1724 MiB given to the printing process from OS
             0 MiB allocation reported by mallinfo(arena+hblkhd)
         10710 MiB available memory on the node where the printing process lives
------------------
     ethr =  9.99E-09,  avg # of iterations = 11.5

     total cpu time spent up to now is     1121.0 secs

     total energy              =  -16275.56981348 Ry
     estimated scf accuracy    <       0.00002366 Ry

     iteration # 14     ecut=    70.00 Ry     beta= 0.70
     Davidson diagonalization with overlap

---- Real-time Memory Report at c_bands before calling an iterative solver
          1739 MiB given to the printing process from OS
             0 MiB allocation reported by mallinfo(arena+hblkhd)
         10606 MiB available memory on the node where the printing process lives
------------------
     ethr =  2.46E-09,  avg # of iterations =  7.0

     total cpu time spent up to now is     1202.3 secs

     total energy              =  -16275.56982307 Ry
     estimated scf accuracy    <       0.00000732 Ry

     iteration # 15     ecut=    70.00 Ry     beta= 0.70
     Davidson diagonalization with overlap

---- Real-time Memory Report at c_bands before calling an iterative solver
          1742 MiB given to the printing process from OS
             0 MiB allocation reported by mallinfo(arena+hblkhd)
         10589 MiB available memory on the node where the printing process lives
------------------
     ethr =  7.60E-10,  avg # of iterations =  5.5

     total cpu time spent up to now is     1267.7 secs

     total energy              =  -16275.56982403 Ry
     estimated scf accuracy    <       0.00000256 Ry

     iteration # 16     ecut=    70.00 Ry     beta= 0.70
     Davidson diagonalization with overlap

---- Real-time Memory Report at c_bands before calling an iterative solver
          1759 MiB given to the printing process from OS
             0 MiB allocation reported by mallinfo(arena+hblkhd)
         10530 MiB available memory on the node where the printing process lives
------------------
     ethr =  2.65E-10,  avg # of iterations =  6.5

     total cpu time spent up to now is     1345.5 secs

     total energy              =  -16275.56982513 Ry
     estimated scf accuracy    <       0.00000133 Ry

     iteration # 17     ecut=    70.00 Ry     beta= 0.70
     Davidson diagonalization with overlap

---- Real-time Memory Report at c_bands before calling an iterative solver
          1762 MiB given to the printing process from OS
             0 MiB allocation reported by mallinfo(arena+hblkhd)
         10869 MiB available memory on the node where the printing process lives
------------------
     ethr =  1.38E-10,  avg # of iterations =  3.0

     total cpu time spent up to now is     1408.6 secs

     total energy              =  -16275.56982544 Ry
     estimated scf accuracy    <       0.00000011 Ry

     iteration # 18     ecut=    70.00 Ry     beta= 0.70
     Davidson diagonalization with overlap

---- Real-time Memory Report at c_bands before calling an iterative solver
          1762 MiB given to the printing process from OS
             0 MiB allocation reported by mallinfo(arena+hblkhd)
         10806 MiB available memory on the node where the printing process lives
------------------
     ethr =  1.19E-11,  avg # of iterations = 12.5

     total cpu time spent up to now is     1626.6 secs

     total energy              =  -16275.56982568 Ry
     estimated scf accuracy    <       0.00000008 Ry

     iteration # 19     ecut=    70.00 Ry     beta= 0.70
     Davidson diagonalization with overlap

---- Real-time Memory Report at c_bands before calling an iterative solver
          1762 MiB given to the printing process from OS
             0 MiB allocation reported by mallinfo(arena+hblkhd)
         11062 MiB available memory on the node where the printing process lives
------------------
     ethr =  7.85E-12,  avg # of iterations =  5.0

     total cpu time spent up to now is     1688.3 secs

     total energy              =  -16275.56982569 Ry
     estimated scf accuracy    <       0.00000005 Ry

     iteration # 20     ecut=    70.00 Ry     beta= 0.70
     Davidson diagonalization with overlap

---- Real-time Memory Report at c_bands before calling an iterative solver
          1762 MiB given to the printing process from OS
             0 MiB allocation reported by mallinfo(arena+hblkhd)
         11107 MiB available memory on the node where the printing process lives
------------------
     ethr =  5.60E-12,  avg # of iterations =  5.0

     total cpu time spent up to now is     1752.3 secs

     End of self-consistent calculation

          k = 0.2500 0.4330-0.3067 ( 84950 PWs)   bands (ev):

    -6.3398  -6.3347  -6.1562  -6.1558  -6.1496  -6.1456  -5.9738  -5.9613
    -5.8748  -5.8661  -5.8611  -5.8539  -5.8497  -5.8473  -5.8443  -5.8267
    -5.7721  -5.7703  -5.7691  -5.7648  -5.7590  -5.7568  -5.7534  -5.7429
    -5.7342  -5.7256  -5.7206  -5.7182  -5.7163  -5.7112  -5.7049  -5.7007
    -5.6939  -5.6902  -5.6749  -5.6707  -5.6676  -5.6666  -5.6629  -5.6622
    -5.6607  -5.6595  -5.6568  -5.6531  -5.6514  -5.6482  -5.6478  -5.6472
    -5.6427  -5.6415  -5.6345  -5.4954  -5.4830  -5.4820  -4.2940  -4.2894
    -4.2804  -4.2760  -4.2753  -4.2727  -4.2724  -4.2721  -4.2718  -4.2706
    -4.2687  -4.2668  -4.2656  -4.2635  -4.2622  -4.2619  -4.2611  -4.2606
    -4.2595  -4.2591  -4.2574  -4.2566  -4.2561  -4.2557  -4.2548  -4.2521
    -4.2512  -4.2504  -4.2494  -4.2486  -4.2456  -4.2455  -4.2449  -4.2422
    -4.2413  -4.2392  -4.2365  -4.2349  -4.2337  -4.2326  -4.2321  -4.2313
    -4.2290  -4.2284  -4.2280  -4.2267  -4.2258  -4.2255  -4.2250  -4.2244
    -4.2220  -4.2214  -4.2206  -4.2202  -4.2191  -4.2164  -4.2155  -4.2139
    -4.2133  -4.2122  -4.2107  -4.2096  -4.2070  -4.2061  -4.2026  -4.2001
    -4.1970  -4.1948  -4.1926  -4.1915  -4.1907  -4.1894  -4.1832  -4.1807
    -4.1789  -4.1775  -4.1743  -4.1734  -4.1713  -4.1672  -4.1647  -4.1637
    -4.1628  -4.1610  -4.1602  -4.1583  -4.1570  -4.1551  -4.1542  -4.1529
    -4.1516  -4.1500  -4.1477  -4.1453  -4.1434  -4.1421  -4.1385  -4.1380
    -4.1347  -4.1330  -4.1284  -4.1268  -4.1239  -4.1233  -4.1227  -4.1209
    -4.1187  -4.1183  -4.1149  -4.1126  -4.1110  -4.1069  -4.1063  -4.1048
    -4.1033  -4.1018  -4.1012  -4.1000  -4.0983  -4.0978  -4.0972  -4.0964
    -4.0958  -4.0943  -4.0938  -4.0916  -4.0913  -4.0898  -4.0891  -4.0886
    -4.0883  -4.0873  -4.0858  -4.0850  -4.0839  -4.0825  -4.0822  -4.0801
    -4.0795  -4.0776  -4.0766  -4.0760  -4.0748  -4.0743  -4.0739  -4.0732
    -4.0708  -4.0655  -4.0634  -4.0622  -4.0602  -4.0573  -4.0564  -4.0556
    -4.0544  -4.0537  -4.0535  -4.0487  -4.0482  -4.0474  -4.0471  -4.0459
    -4.0441  -4.0419  -4.0387  -4.0307  -4.0291  -4.0277  -4.0270  -4.0261
    -4.0254  -4.0249  -4.0236  -4.0232  -4.0226  -4.0222  -4.0219  -4.0211
    -4.0203  -4.0188  -4.0180  -4.0177  -4.0164  -4.0151  -4.0137  -4.0132
    -4.0116  -4.0107  -4.0106  -4.0101  -4.0094  -4.0083  -4.0073  -4.0065
    -4.0062  -4.0054  -4.0042  -4.0038  -4.0022  -4.0011  -3.9998  -3.9988
    -3.9983  -3.9962  -3.9956  -3.9942  -3.9941  -3.9901  -3.9890  -3.9806
    -3.9799  -3.9791  -3.9763  -3.9693  -3.9680  -3.9670  -3.9651  -3.7913
    -3.7743  -3.6046  -3.5868  -3.5770  -3.5709  -3.4407  -3.4059  -3.3978
    -3.3966  -3.0398  -2.9928  -2.9830  -2.9741  -2.9658  -2.9546  -2.9242
    -2.8863  -2.8759  -2.8670  -2.8650  -2.8491  -2.7255  -2.7148  -2.6728
    -2.6660  -2.6640  -2.6630  -2.6585  -2.6371  -2.6247  -2.6198  -2.6141
    -2.6106  -2.4982  -2.4774  -2.3332  -2.3087  -2.2950  -2.2853  -2.2845
    -2.2751  -2.2720  -2.2683  -2.2617  -2.2575  -2.1748  -2.1575   0.8758
     2.7946   2.7960   2.8064   2.8111   2.8313   2.8364   2.8423   2.8759
     2.8984   2.9346   2.9606   2.9753   2.9872   3.0942   3.2332   3.2351
     3.2429   3.2825   3.3212   3.3290   3.3446   3.3695   3.3819   3.3864
     3.3918   3.5994   3.7027   3.7163   3.7213   3.7361   3.7601   3.7669
     3.7704   3.7730   3.7784   3.9893   4.0062   4.4530   4.5306   4.5332
     4.5367   4.7883   4.8897   4.8963   4.8994   5.1341   5.1887   5.2038
     5.2138   5.2397   5.2548   5.3107   5.3383   5.3548   5.3587   5.4115
     5.4440   5.4523   5.4541   5.6749   5.6992   5.7851   5.8734   5.8927
     5.9250   5.9616   5.9633   5.9968   6.0358   6.0618   6.0732   6.0881
     6.0918   6.0962   6.1117   6.2610   6.3045   6.3188   6.3423   6.3453
     6.3520   6.3568   6.3578   6.5225   6.5895   6.5966   6.6018   6.7220
     6.7913   6.8141   6.8160   6.8883   6.9276   6.9323   6.9907   7.0055
     7.0165   7.0903   7.1706   7.2140   7.2334   7.2530   7.2707   7.2732
     7.2751   7.2875   7.3196   7.3394   7.3440   7.3517   7.3644   7.3872
     7.3910   7.3936   7.3979   7.4003   7.4053   7.4494   7.4651   7.4808
     7.4843   7.5032   7.5310   7.5355   7.5370   7.5389   7.5423   7.5487
     7.5493   7.5937   7.6002   7.7031   7.7328   7.7649   7.7879   7.7898
     7.7920   7.8364   7.8651   7.8751   7.8894   7.9021   7.9033   7.9192
     7.9482   7.9494   7.9544   8.2581   8.2955   8.4520   8.4776   8.4812
     8.4898   8.5279   8.5461   8.5594   8.5622   8.7258   8.7363   8.8009
     8.8163  10.8746  12.4043  12.5171  12.7649  12.8985  13.0512  13.1818
    13.2472  13.3397  13.3813  13.7791  13.8114  13.8346  13.8594  13.9592
    13.9905  14.0076  14.0644  14.0745  14.1580  14.3395  14.3855  14.3874
    14.3973  14.4151  14.4224  14.4243  14.4366  14.4387  14.4519  14.5045
    14.5320

     occupation numbers 
     1.0000   1.0000   1.0000   1.0000   1.0000   1.0000   1.0000   1.0000
     1.0000   1.0000   1.0000   1.0000   1.0000   1.0000   1.0000   1.0000
     1.0000   1.0000   1.0000   1.0000   1.0000   1.0000   1.0000   1.0000
     1.0000   1.0000   1.0000   1.0000   1.0000   1.0000   1.0000   1.0000
     1.0000   1.0000   1.0000   1.0000   1.0000   1.0000   1.0000   1.0000
     1.0000   1.0000   1.0000   1.0000   1.0000   1.0000   1.0000   1.0000
     1.0000   1.0000   1.0000   1.0000   1.0000   1.0000   1.0000   1.0000
     1.0000   1.0000   1.0000   1.0000   1.0000   1.0000   1.0000   1.0000
     1.0000   1.0000   1.0000   1.0000   1.0000   1.0000   1.0000   1.0000
     1.0000   1.0000   1.0000   1.0000   1.0000   1.0000   1.0000   1.0000
     1.0000   1.0000   1.0000   1.0000   1.0000   1.0000   1.0000   1.0000
     1.0000   1.0000   1.0000   1.0000   1.0000   1.0000   1.0000   1.0000
     1.0000   1.0000   1.0000   1.0000   1.0000   1.0000   1.0000   1.0000
     1.0000   1.0000   1.0000   1.0000   1.0000   1.0000   1.0000   1.0000
     1.0000   1.0000   1.0000   1.0000   1.0000   1.0000   1.0000   1.0000
     1.0000   1.0000   1.0000   1.0000   1.0000   1.0000   1.0000   1.0000
     1.0000   1.0000   1.0000   1.0000   1.0000   1.0000   1.0000   1.0000
     1.0000   1.0000   1.0000   1.0000   1.0000   1.0000   1.0000   1.0000
     1.0000   1.0000   1.0000   1.0000   1.0000   1.0000   1.0000   1.0000
     1.0000   1.0000   1.0000   1.0000   1.0000   1.0000   1.0000   1.0000
     1.0000   1.0000   1.0000   1.0000   1.0000   1.0000   1.0000   1.0000
     1.0000   1.0000   1.0000   1.0000   1.0000   1.0000   1.0000   1.0000
     1.0000   1.0000   1.0000   1.0000   1.0000   1.0000   1.0000   1.0000
     1.0000   1.0000   1.0000   1.0000   1.0000   1.0000   1.0000   1.0000
     1.0000   1.0000   1.0000   1.0000   1.0000   1.0000   1.0000   1.0000
     1.0000   1.0000   1.0000   1.0000   1.0000   1.0000   1.0000   1.0000
     1.0000   1.0000   1.0000   1.0000   1.0000   1.0000   1.0000   1.0000
     1.0000   1.0000   1.0000   1.0000   1.0000   1.0000   1.0000   1.0000
     1.0000   1.0000   1.0000   1.0000   1.0000   1.0000   1.0000   1.0000
     1.0000   1.0000   1.0000   1.0000   1.0000   1.0000   1.0000   1.0000
     1.0000   1.0000   1.0000   1.0000   1.0000   1.0000   1.0000   1.0000
     1.0000   1.0000   1.0000   1.0000   1.0000   1.0000   1.0000   1.0000
     1.0000   1.0000   1.0000   1.0000   1.0000   1.0000   1.0000   1.0000
     1.0000   1.0000   1.0000   1.0000   1.0000   1.0000   1.0000   1.0000
     1.0000   1.0000   1.0000   1.0000   1.0000   1.0000   1.0000   1.0000
     1.0000   1.0000   1.0000   1.0000   1.0000   1.0000   1.0000   1.0000
     1.0000   1.0000   1.0000   1.0000   1.0000   1.0000   1.0000   1.0000
     1.0000   1.0000   1.0000   1.0000   1.0000   1.0000   1.0000   1.0000
     1.0000   1.0000   1.0000   1.0000   1.0000   1.0000   1.0000   1.0000
     1.0000   1.0000   1.0000   1.0000   1.0000   1.0000   1.0000   1.0000
     1.0000   1.0000   1.0000   1.0000   1.0000   1.0000   1.0000   1.0000
     1.0000   1.0000   1.0000   1.0000   1.0000   1.0000   1.0000   1.0000
     1.0000   1.0000   1.0000   1.0000   1.0000   1.0000   1.0000   1.0000
     1.0000   1.0000   1.0000   1.0000   1.0000   1.0000   1.0000   1.0000
     1.0000   1.0000   1.0000   1.0000   1.0000   1.0000   1.0000   1.0000
     1.0000   1.0000   1.0000   1.0000   1.0000   1.0000   1.0000   1.0000
     1.0000   1.0000   1.0000   1.0000   1.0000   1.0000   1.0000   1.0000
     1.0000   1.0000   1.0000   1.0000   1.0000   1.0000   1.0000   1.0000
     1.0000   1.0000   1.0000   1.0000   1.0000   1.0000   1.0000   1.0000
     1.0000   1.0000   1.0000   1.0000   1.0000   1.0000   1.0000   1.0000
     1.0000   1.0000   1.0000   1.0000   1.0000   1.0000   1.0000   1.0000
     1.0000   1.0000   1.0000   1.0000   1.0000   1.0000   1.0000   1.0000
     1.0000   1.0000   1.0000   1.0000   1.0000   1.0000   1.0000   1.0000
     1.0000   1.0000   1.0000   1.0000   1.0000   1.0000   1.0000   1.0000
     1.0000   1.0000   1.0000   1.0000   1.0000   1.0000   1.0000   1.0000
     1.0000   1.0000   1.0000   1.0000   1.0000   1.0000   1.0000   1.0000
     1.0000   1.0000   1.0000   1.0000   1.0000   1.0000   1.0000   1.0000
     1.0000   1.0000   1.0000   1.0000   1.0000   1.0000   1.0000   1.0000
     1.0000   1.0000   1.0000   1.0000   1.0000   1.0000   1.0000   1.0000
     1.0000   1.0000   1.0000   1.0000   1.0000   1.0000   1.0000   1.0000
     1.0000   0.0269   0.0000   0.0000   0.0000   0.0000   0.0000   0.0000
     0.0000   0.0000   0.0000   0.0000   0.0000   0.0000   0.0000   0.0000
     0.0000   0.0000   0.0000   0.0000   0.0000   0.0000   0.0000   0.0000
     0.0000   0.0000   0.0000   0.0000   0.0000   0.0000   0.0000   0.0000
     0.0000

          k = 0.2500-0.1443-0.3067 ( 84970 PWs)   bands (ev):

    -6.4515  -6.4473  -6.0831  -6.0761  -6.0428  -6.0292  -5.9679  -5.9677
    -5.9640  -5.9504  -5.8397  -5.8338  -5.8326  -5.8238  -5.8203  -5.8181
    -5.8052  -5.7961  -5.7916  -5.7809  -5.7663  -5.7629  -5.7594  -5.7532
    -5.7136  -5.7103  -5.7071  -5.7062  -5.7050  -5.6999  -5.6983  -5.6934
    -5.6913  -5.6883  -5.6834  -5.6809  -5.6772  -5.6760  -5.6703  -5.6613
    -5.6576  -5.6564  -5.6556  -5.6541  -5.6521  -5.6496  -5.6495  -5.6481
    -5.6456  -5.6375  -5.6327  -5.4955  -5.4825  -5.4822  -4.3056  -4.2999
    -4.2963  -4.2896  -4.2849  -4.2849  -4.2816  -4.2797  -4.2785  -4.2763
    -4.2736  -4.2709  -4.2699  -4.2688  -4.2655  -4.2639  -4.2630  -4.2598
    -4.2577  -4.2575  -4.2565  -4.2556  -4.2548  -4.2537  -4.2536  -4.2509
    -4.2507  -4.2484  -4.2477  -4.2471  -4.2468  -4.2461  -4.2457  -4.2454
    -4.2444  -4.2437  -4.2436  -4.2427  -4.2425  -4.2407  -4.2404  -4.2391
    -4.2376  -4.2373  -4.2368  -4.2356  -4.2354  -4.2335  -4.2292  -4.2289
    -4.2246  -4.2185  -4.2167  -4.2151  -4.2080  -4.2066  -4.2059  -4.2037
    -4.2033  -4.2000  -4.2000  -4.1957  -4.1911  -4.1883  -4.1880  -4.1868
    -4.1841  -4.1835  -4.1813  -4.1810  -4.1793  -4.1758  -4.1757  -4.1741
    -4.1734  -4.1730  -4.1717  -4.1686  -4.1666  -4.1655  -4.1652  -4.1645
    -4.1640  -4.1636  -4.1627  -4.1619  -4.1581  -4.1569  -4.1531  -4.1526
    -4.1494  -4.1481  -4.1470  -4.1462  -4.1403  -4.1379  -4.1372  -4.1327
    -4.1290  -4.1271  -4.1223  -4.1196  -4.1167  -4.1164  -4.1138  -4.1135
    -4.1121  -4.1096  -4.1087  -4.1085  -4.1076  -4.1070  -4.1067  -4.1055
    -4.1052  -4.1039  -4.1014  -4.1007  -4.0996  -4.0974  -4.0968  -4.0950
    -4.0946  -4.0926  -4.0917  -4.0906  -4.0886  -4.0870  -4.0850  -4.0845
    -4.0823  -4.0804  -4.0801  -4.0786  -4.0785  -4.0761  -4.0753  -4.0751
    -4.0740  -4.0737  -4.0727  -4.0712  -4.0707  -4.0695  -4.0683  -4.0675
    -4.0666  -4.0654  -4.0653  -4.0642  -4.0633  -4.0621  -4.0616  -4.0613
    -4.0598  -4.0590  -4.0586  -4.0583  -4.0564  -4.0525  -4.0495  -4.0474
    -4.0465  -4.0428  -4.0417  -4.0397  -4.0350  -4.0327  -4.0317  -4.0309
    -4.0280  -4.0275  -4.0262  -4.0249  -4.0245  -4.0229  -4.0220  -4.0214
    -4.0207  -4.0195  -4.0192  -4.0180  -4.0175  -4.0164  -4.0163  -4.0157
    -4.0148  -4.0129  -4.0125  -4.0110  -4.0097  -4.0085  -4.0065  -4.0049
    -4.0043  -4.0023  -4.0018  -4.0004  -3.9971  -3.9950  -3.9943  -3.9942
    -3.9924  -3.9915  -3.9907  -3.9873  -3.9854  -3.9845  -3.9838  -3.9826
    -3.9820  -3.9744  -3.9718  -3.9290  -3.9236  -3.8934  -3.8798  -3.7449
    -3.7417  -3.7296  -3.7282  -3.4998  -3.4756  -3.3430  -3.3391  -3.3078
    -3.3046  -3.2880  -3.2786  -3.2669  -3.2613  -3.1410  -3.1167  -2.9928
    -2.9503  -2.9236  -2.9179  -2.9013  -2.8908  -2.7963  -2.7738  -2.6365
    -2.6167  -2.6163  -2.5857  -2.5840  -2.5826  -2.4771  -2.4675  -2.4419
    -2.4396  -2.4226  -2.4137  -2.4017  -2.3933  -2.3175  -2.2860  -2.2813
    -2.2749  -2.2723  -2.2714  -2.2182  -2.2020  -2.1922  -2.1920   0.9115
     2.8220   2.8486   2.8695   2.9051   3.0168   3.0249   3.0819   3.0898
     3.0902   3.1083   3.1260   3.1300   3.1347   3.2105   3.3069   3.3070
     3.3145   3.3153   3.3249   3.3525   3.3660   3.3775   3.3778   3.3902
     3.3987   3.4096   3.4158   3.6979   3.7750   3.7765   3.7807   3.9445
     3.9733   4.0975   4.1750   4.1874   4.1903   4.2527   4.2796   4.2833
     4.2863   4.5562   4.6271   4.6474   4.6477   4.6553   4.6560   4.9289
     4.9810   4.9839   4.9911   5.1802   5.2272   5.2381   5.2523   5.2665
     5.3008   5.3139   5.3211   5.3665   5.4041   5.4191   5.4272   5.4444
     5.4446   5.4848   5.5194   5.5223   5.5267   6.0196   6.0617   6.0944
     6.1694   6.1728   6.1807   6.3743   6.4318   6.4959   6.4964   6.5315
     6.5469   6.5621   6.5647   6.6562   6.6904   6.7780   6.8413   6.8449
     6.8752   6.8753   6.9259   6.9424   6.9508   6.9676   7.0643   7.0646
     7.0704   7.0791   7.1074   7.1088   7.1147   7.1215   7.1268   7.2132
     7.2341   7.2470   7.3164   7.3343   7.3373   7.3582   7.4202   7.4234
     7.4282   7.4787   7.5113   7.5131   7.5379   7.5399   7.5524   7.6150
     7.6462   7.6556   7.6638   7.6808   7.6996   7.7256   7.7285   7.7506
     7.7518   7.8479   7.8940   7.9040   7.9396   7.9443   7.9493   7.9563
     7.9570   8.0316   8.0695   8.1006   8.1097   8.1100   8.1327   8.1399
     8.1427   8.2054   8.2539   8.2568   8.2628   8.2653   8.2660   8.3812
     8.3935   8.4817   8.5266   8.5415   8.5484   8.8662   8.8786   8.9833
     8.9989  10.6891  11.9224  12.0808  12.6638  12.8508  12.9027  13.3045
    13.3840  13.5405  13.5763  13.5954  13.6251  13.6880  13.6944  13.7050
    13.7179  13.7609  13.7743  13.8439  13.9199  13.9272  13.9488  13.9582
    13.9899  14.0048  14.1593  14.1653  14.1831  14.2692  14.3078  14.3260
    14.3643

     occupation numbers 
     1.0000   1.0000   1.0000   1.0000   1.0000   1.0000   1.0000   1.0000
     1.0000   1.0000   1.0000   1.0000   1.0000   1.0000   1.0000   1.0000
     1.0000   1.0000   1.0000   1.0000   1.0000   1.0000   1.0000   1.0000
     1.0000   1.0000   1.0000   1.0000   1.0000   1.0000   1.0000   1.0000
     1.0000   1.0000   1.0000   1.0000   1.0000   1.0000   1.0000   1.0000
     1.0000   1.0000   1.0000   1.0000   1.0000   1.0000   1.0000   1.0000
     1.0000   1.0000   1.0000   1.0000   1.0000   1.0000   1.0000   1.0000
     1.0000   1.0000   1.0000   1.0000   1.0000   1.0000   1.0000   1.0000
     1.0000   1.0000   1.0000   1.0000   1.0000   1.0000   1.0000   1.0000
     1.0000   1.0000   1.0000   1.0000   1.0000   1.0000   1.0000   1.0000
     1.0000   1.0000   1.0000   1.0000   1.0000   1.0000   1.0000   1.0000
     1.0000   1.0000   1.0000   1.0000   1.0000   1.0000   1.0000   1.0000
     1.0000   1.0000   1.0000   1.0000   1.0000   1.0000   1.0000   1.0000
     1.0000   1.0000   1.0000   1.0000   1.0000   1.0000   1.0000   1.0000
     1.0000   1.0000   1.0000   1.0000   1.0000   1.0000   1.0000   1.0000
     1.0000   1.0000   1.0000   1.0000   1.0000   1.0000   1.0000   1.0000
     1.0000   1.0000   1.0000   1.0000   1.0000   1.0000   1.0000   1.0000
     1.0000   1.0000   1.0000   1.0000   1.0000   1.0000   1.0000   1.0000
     1.0000   1.0000   1.0000   1.0000   1.0000   1.0000   1.0000   1.0000
     1.0000   1.0000   1.0000   1.0000   1.0000   1.0000   1.0000   1.0000
     1.0000   1.0000   1.0000   1.0000   1.0000   1.0000   1.0000   1.0000
     1.0000   1.0000   1.0000   1.0000   1.0000   1.0000   1.0000   1.0000
     1.0000   1.0000   1.0000   1.0000   1.0000   1.0000   1.0000   1.0000
     1.0000   1.0000   1.0000   1.0000   1.0000   1.0000   1.0000   1.0000
     1.0000   1.0000   1.0000   1.0000   1.0000   1.0000   1.0000   1.0000
     1.0000   1.0000   1.0000   1.0000   1.0000   1.0000   1.0000   1.0000
     1.0000   1.0000   1.0000   1.0000   1.0000   1.0000   1.0000   1.0000
     1.0000   1.0000   1.0000   1.0000   1.0000   1.0000   1.0000   1.0000
     1.0000   1.0000   1.0000   1.0000   1.0000   1.0000   1.0000   1.0000
     1.0000   1.0000   1.0000   1.0000   1.0000   1.0000   1.0000   1.0000
     1.0000   1.0000   1.0000   1.0000   1.0000   1.0000   1.0000   1.0000
     1.0000   1.0000   1.0000   1.0000   1.0000   1.0000   1.0000   1.0000
     1.0000   1.0000   1.0000   1.0000   1.0000   1.0000   1.0000   1.0000
     1.0000   1.0000   1.0000   1.0000   1.0000   1.0000   1.0000   1.0000
     1.0000   1.0000   1.0000   1.0000   1.0000   1.0000   1.0000   1.0000
     1.0000   1.0000   1.0000   1.0000   1.0000   1.0000   1.0000   1.0000
     1.0000   1.0000   1.0000   1.0000   1.0000   1.0000   1.0000   1.0000
     1.0000   1.0000   1.0000   1.0000   1.0000   1.0000   1.0000   1.0000
     1.0000   1.0000   1.0000   1.0000   1.0000   1.0000   1.0000   1.0000
     1.0000   1.0000   1.0000   1.0000   1.0000   1.0000   1.0000   1.0000
     1.0000   1.0000   1.0000   1.0000   1.0000   1.0000   1.0000   1.0000
     1.0000   1.0000   1.0000   1.0000   1.0000   1.0000   1.0000   1.0000
     1.0000   1.0000   1.0000   1.0000   1.0000   1.0000   1.0000   1.0000
     1.0000   1.0000   1.0000   1.0000   1.0000   1.0000   1.0000   1.0000
     1.0000   1.0000   1.0000   1.0000   1.0000   1.0000   1.0000   1.0000
     1.0000   1.0000   1.0000   1.0000   1.0000   1.0000   1.0000   1.0000
     1.0000   1.0000   1.0000   1.0000   1.0000   1.0000   1.0000   1.0000
     1.0000   1.0000   1.0000   1.0000   1.0000   1.0000   1.0000   1.0000
     1.0000   1.0000   1.0000   1.0000   1.0000   1.0000   1.0000   1.0000
     1.0000   1.0000   1.0000   1.0000   1.0000   1.0000   1.0000   1.0000
     1.0000   1.0000   1.0000   1.0000   1.0000   1.0000   1.0000   1.0000
     1.0000   1.0000   1.0000   1.0000   1.0000   1.0000   1.0000   1.0000
     1.0000   1.0000   1.0000   1.0000   1.0000   1.0000   1.0000   1.0000
     1.0000   1.0000   1.0000   1.0000   1.0000   1.0000   1.0000   1.0000
     1.0000   1.0000   1.0000   1.0000   1.0000   1.0000   1.0000   1.0000
     1.0000   1.0000   1.0000   1.0000   1.0000   1.0000   1.0000   1.0000
     1.0000   1.0000   1.0000   1.0000   1.0000   1.0000   1.0000   1.0000
     1.0000   1.0000   1.0000   1.0000   1.0000   1.0000   1.0000   1.0000
     1.0000   1.0000   1.0000   1.0000   1.0000   1.0000   1.0000   1.0000
     1.0000   1.0000   1.0000   1.0000   1.0000   1.0000   1.0000   1.0000
     1.0000   0.9731   0.0000   0.0000   0.0000   0.0000   0.0000   0.0000
     0.0000   0.0000   0.0000   0.0000   0.0000   0.0000   0.0000   0.0000
     0.0000   0.0000   0.0000   0.0000   0.0000   0.0000   0.0000   0.0000
     0.0000   0.0000   0.0000   0.0000   0.0000   0.0000   0.0000   0.0000
     0.0000

     the Fermi energy is    10.7818 ev

!    total energy              =  -16275.56982571 Ry
     total all-electron energy =   -212062.196063 Ry
     estimated scf accuracy    <          8.3E-09 Ry
     smearing contrib. (-TS)   =      -0.00043985 Ry
     internal energy E=F+TS    =  -16275.56938586 Ry

     The total energy is F=E-TS. E is the sum of the following terms:
     one-electron contribution =   -4960.70303835 Ry
     hartree contribution      =    3513.28866592 Ry
     xc contribution           =   -2351.15802398 Ry
     ewald contribution        =   -6109.17167773 Ry
     one-center paw contrib.   =   -6367.82531171 Ry
      -> PAW hartree energy AE =     647.67680992 Ry
      -> PAW hartree energy PS =    -643.37684957 Ry
      -> PAW xc energy AE      =    -667.08815511 Ry
      -> PAW xc energy PS      =     177.08278317 Ry
      -> total E_H with PAW    =    3517.58862627 Ry
      -> total E_XC with PAW   =   -2841.16339593 Ry

     convergence has been achieved in  20 iterations

     Forces acting on atoms (cartesian axes, Ry/au):

     atom    1 type  3   force =     0.00000000   -0.00000000    0.00030656
     atom    2 type  1   force =     0.00312964   -0.00180690   -0.01070457
     atom    3 type  2   force =     0.00000000   -0.00000000   -0.05054156
     atom    4 type  2   force =    -0.00109704    0.00063338   -0.00013180
     atom    5 type  1   force =    -0.00762357    0.00771635    0.00505819
     atom    6 type  1   force =     0.00000000    0.00071713   -0.00086719
     atom    7 type  2   force =     0.00034806   -0.00066672    0.00085514
     atom    8 type  2   force =     0.00000000   -0.00016859    0.00090035
     atom    9 type  1   force =     0.00762357    0.00771635    0.00505819
     atom   10 type  1   force =    -0.00312964   -0.00180690   -0.01070457
     atom   11 type  2   force =    -0.00034806   -0.00066672    0.00085514
     atom   12 type  2   force =     0.00109704    0.00063338   -0.00013180
     atom   13 type  1   force =    -0.00287077   -0.01046038    0.00505819
     atom   14 type  1   force =    -0.00000000    0.00361379   -0.01070457
     atom   15 type  2   force =     0.00040336    0.00063479    0.00085514
     atom   16 type  2   force =     0.00000000   -0.00126675   -0.00013180
     atom   17 type  1   force =     0.00287077   -0.01046038    0.00505819
     atom   18 type  1   force =    -0.00042797   -0.00024709   -0.00144672
     atom   19 type  2   force =    -0.00040336    0.00063479    0.00085514
     atom   20 type  2   force =    -0.00019349   -0.00011171    0.00087644
     atom   21 type  1   force =     0.00000000    0.00000000   -0.00107860
     atom   22 type  1   force =     0.00042797   -0.00024709   -0.00144672
     atom   23 type  2   force =     0.00000000   -0.00000000    0.00089036
     atom   24 type  2   force =     0.00019349   -0.00011171    0.00087644
     atom   25 type  1   force =    -0.01049434    0.00274403    0.00505819
     atom   26 type  1   force =    -0.00062105   -0.00035856   -0.00086719
     atom   27 type  2   force =     0.00075142    0.00003193    0.00085514
     atom   28 type  2   force =     0.00014601    0.00008430    0.00090035
     atom   29 type  1   force =     0.00000000    0.00000000    0.00100933
     atom   30 type  1   force =     0.00062105   -0.00035856   -0.00086719
     atom   31 type  2   force =     0.00000000   -0.00000000   -0.00003858
     atom   32 type  2   force =    -0.00014601    0.00008430    0.00090035
     atom   33 type  1   force =     0.01049434    0.00274403    0.00505819
     atom   34 type  1   force =     0.00000000    0.00049418   -0.00144672
     atom   35 type  2   force =    -0.00075142    0.00003193    0.00085514
     atom   36 type  2   force =     0.00000000    0.00022342    0.00087644
     atom   37 type  1   force =     0.00000000    0.00000000    0.00078149
     atom   38 type  1   force =     0.00008870   -0.00005121    0.00001142
     atom   39 type  2   force =     0.00000000   -0.00000000    0.00000625
     atom   40 type  2   force =     0.00030649   -0.00017695   -0.00005409
     atom   41 type  1   force =     0.00098498    0.00075250   -0.00049797
     atom   42 type  1   force =     0.00000000   -0.00014932   -0.00044962
     atom   43 type  2   force =    -0.00007636   -0.00004669    0.00024235
     atom   44 type  2   force =     0.00000000    0.00002546    0.00050285
     atom   45 type  1   force =    -0.00098498    0.00075250   -0.00049797
     atom   46 type  1   force =    -0.00008870   -0.00005121    0.00001142
     atom   47 type  2   force =     0.00007636   -0.00004669    0.00024235
     atom   48 type  2   force =    -0.00030649   -0.00017695   -0.00005409
     atom   49 type  1   force =    -0.00114417    0.00047676   -0.00049797
     atom   50 type  1   force =     0.00000000    0.00010242    0.00001142
     atom   51 type  2   force =     0.00007862   -0.00004278    0.00024235
     atom   52 type  2   force =     0.00000000    0.00035390   -0.00005409
     atom   53 type  1   force =     0.00114417    0.00047676   -0.00049797
     atom   54 type  1   force =     0.00004494    0.00002594   -0.00046792
     atom   55 type  2   force =    -0.00007862   -0.00004278    0.00024235
     atom   56 type  2   force =     0.00006826    0.00003941    0.00036682
     atom   57 type  1   force =     0.00000000    0.00000000   -0.00052369
     atom   58 type  1   force =    -0.00004494    0.00002594   -0.00046792
     atom   59 type  2   force =     0.00000000    0.00000000    0.00052329
     atom   60 type  2   force =    -0.00006826    0.00003941    0.00036682
     atom   61 type  1   force =    -0.00015920   -0.00122927   -0.00049797
     atom   62 type  1   force =     0.00012931    0.00007466   -0.00044962
     atom   63 type  2   force =     0.00000226    0.00008948    0.00024235
     atom   64 type  2   force =    -0.00002205   -0.00001273    0.00050285
     atom   65 type  1   force =     0.00000000    0.00000000   -0.00049091
     atom   66 type  1   force =    -0.00012931    0.00007466   -0.00044962
     atom   67 type  2   force =     0.00000000   -0.00000000    0.00052027
     atom   68 type  2   force =     0.00002205   -0.00001273    0.00050285
     atom   69 type  1   force =     0.00015920   -0.00122927   -0.00049797
     atom   70 type  1   force =     0.00000000   -0.00005189   -0.00046792
     atom   71 type  2   force =    -0.00000226    0.00008948    0.00024235
     atom   72 type  2   force =     0.00000000   -0.00007882    0.00036682
     atom   73 type  1   force =     0.00000000    0.00000000    0.00197338
     atom   74 type  1   force =    -0.00974998    0.00562915   -0.00047729
     atom   75 type  2   force =     0.00000000   -0.00000000   -0.00268838
     atom   76 type  2   force =    -0.04079642    0.02355382    0.01865956
     atom   77 type  1   force =    -0.00030654   -0.00017403   -0.00078443
     atom   78 type  1   force =    -0.00000000   -0.00013732   -0.00183438
     atom   79 type  2   force =     0.00053193    0.00009244    0.00114104
     atom   80 type  2   force =     0.00000000   -0.00269028   -0.00105358
     atom   81 type  1   force =     0.00030654   -0.00017403   -0.00078443
     atom   82 type  1   force =     0.00974998    0.00562915   -0.00047729
     atom   83 type  2   force =    -0.00053193    0.00009244    0.00114104
     atom   84 type  2   force =     0.04079642    0.02355382    0.01865956
     atom   85 type  1   force =     0.00030399   -0.00017845   -0.00078443
     atom   86 type  1   force =     0.00000000   -0.01125830   -0.00047729
     atom   87 type  2   force =    -0.00034602    0.00041445    0.00114104
     atom   88 type  2   force =    -0.00000000   -0.04710765    0.01865956
     atom   89 type  1   force =    -0.00030399   -0.00017845   -0.00078443
     atom   90 type  1   force =    -0.00003202   -0.00001849    0.00049387
     atom   91 type  2   force =     0.00034602    0.00041445    0.00114104
     atom   92 type  2   force =     0.00035204    0.00020325    0.00024042
     atom   93 type  1   force =     0.00000000    0.00000000   -0.00024850
     atom   94 type  1   force =     0.00003202   -0.00001849    0.00049387
     atom   95 type  2   force =     0.00000000   -0.00000000   -0.00013690
     atom   96 type  2   force =    -0.00035204    0.00020325    0.00024042
     atom   97 type  1   force =    -0.00000255    0.00035249   -0.00078443
     atom   98 type  1   force =     0.00011892    0.00006866   -0.00183438
     atom   99 type  2   force =     0.00018591   -0.00050689    0.00114104
     atom  100 type  2   force =     0.00232985    0.00134514   -0.00105358
     atom  101 type  1   force =     0.00000000    0.00000000   -0.00058442
     atom  102 type  1   force =    -0.00011892    0.00006866   -0.00183438
     atom  103 type  2   force =     0.00000000   -0.00000000    0.00054097
     atom  104 type  2   force =    -0.00232985    0.00134514   -0.00105358
     atom  105 type  1   force =     0.00000255    0.00035249   -0.00078443
     atom  106 type  1   force =     0.00000000    0.00003698    0.00049387
     atom  107 type  2   force =    -0.00018591   -0.00050689    0.00114104
     atom  108 type  2   force =     0.00000000   -0.00040650    0.00024042
     The non-local contrib.  to forces
     atom    1 type  3   force =     0.00000000   -0.00000000    0.03225298
     atom    2 type  1   force =    -0.02047362    0.01182045    0.03212713
     atom    3 type  2   force =     0.00000000    0.00000000    0.00361330
     atom    4 type  2   force =    -0.00360336    0.00208040    0.01084076
     atom    5 type  1   force =     0.01794608   -0.02547063   -0.01440646
     atom    6 type  1   force =     0.00000000   -0.00533422    0.00794929
     atom    7 type  2   force =     0.00237564   -0.00217958    0.01634969
     atom    8 type  2   force =     0.00000000   -0.00033326    0.01664684
     atom    9 type  1   force =    -0.01794608   -0.02547063   -0.01440646
     atom   10 type  1   force =     0.02047362    0.01182045    0.03212713
     atom   11 type  2   force =    -0.00237564   -0.00217958    0.01634969
     atom   12 type  2   force =     0.00360336    0.00208040    0.01084076
     atom   13 type  1   force =     0.01308517    0.02827708   -0.01440646
     atom   14 type  1   force =     0.00000000   -0.02364090    0.03212713
     atom   15 type  2   force =     0.00069975    0.00314715    0.01634969
     atom   16 type  2   force =    -0.00000000   -0.00416081    0.01084076
     atom   17 type  1   force =    -0.01308517    0.02827708   -0.01440646
     atom   18 type  1   force =     0.00133268    0.00076942    0.00859768
     atom   19 type  2   force =    -0.00069975    0.00314715    0.01634969
     atom   20 type  2   force =    -0.00051437   -0.00029697    0.01688748
     atom   21 type  1   force =     0.00000000    0.00000000    0.00843927
     atom   22 type  1   force =    -0.00133268    0.00076942    0.00859768
     atom   23 type  2   force =     0.00000000    0.00000000    0.01585902
     atom   24 type  2   force =     0.00051437   -0.00029697    0.01688748
     atom   25 type  1   force =     0.03103125   -0.00280644   -0.01440646
     atom   26 type  1   force =     0.00461957    0.00266711    0.00794929
     atom   27 type  2   force =     0.00307539   -0.00096757    0.01634969
     atom   28 type  2   force =     0.00028861    0.00016663    0.01664684
     atom   29 type  1   force =     0.00000000    0.00000000   -0.00561196
     atom   30 type  1   force =    -0.00461957    0.00266711    0.00794929
     atom   31 type  2   force =     0.00000000    0.00000000    0.01169828
     atom   32 type  2   force =    -0.00028861    0.00016663    0.01664684
     atom   33 type  1   force =    -0.03103125   -0.00280644   -0.01440646
     atom   34 type  1   force =     0.00000000   -0.00153885    0.00859768
     atom   35 type  2   force =    -0.00307539   -0.00096757    0.01634969
     atom   36 type  2   force =     0.00000000    0.00059395    0.01688748
     atom   37 type  1   force =     0.00000000    0.00000000   -0.00248373
     atom   38 type  1   force =    -0.00071918    0.00041522    0.00069033
     atom   39 type  2   force =     0.00000000    0.00000000    0.01191839
     atom   40 type  2   force =     0.00189614   -0.00109474    0.01211769
     atom   41 type  1   force =    -0.00603311   -0.00451270    0.00300371
     atom   42 type  1   force =     0.00000000    0.00102469    0.00347236
     atom   43 type  2   force =    -0.00055095   -0.00028685    0.01342063
     atom   44 type  2   force =     0.00000000    0.00022594    0.01347429
     atom   45 type  1   force =     0.00603311   -0.00451270    0.00300371
     atom   46 type  1   force =     0.00071918    0.00041522    0.00069033
     atom   47 type  2   force =     0.00055095   -0.00028685    0.01342063
     atom   48 type  2   force =    -0.00189614   -0.00109474    0.01211769
     atom   49 type  1   force =     0.00692467   -0.00296848    0.00300371
     atom   50 type  1   force =     0.00000000   -0.00083044    0.00069033
     atom   51 type  2   force =     0.00052389   -0.00033372    0.01342063
     atom   52 type  2   force =    -0.00000000    0.00218948    0.01211769
     atom   53 type  1   force =    -0.00692467   -0.00296848    0.00300371
     atom   54 type  1   force =    -0.00058735   -0.00033910    0.00339745
     atom   55 type  2   force =    -0.00052389   -0.00033372    0.01342063
     atom   56 type  2   force =    -0.00003156   -0.00001822    0.01219680
     atom   57 type  1   force =     0.00000000    0.00000000    0.00406872
     atom   58 type  1   force =     0.00058735   -0.00033910    0.00339745
     atom   59 type  2   force =     0.00000000    0.00000000    0.01498228
     atom   60 type  2   force =     0.00003156   -0.00001822    0.01219680
     atom   61 type  1   force =     0.00089156    0.00748118    0.00300371
     atom   62 type  1   force =    -0.00088740   -0.00051234    0.00347236
     atom   63 type  2   force =    -0.00002706    0.00062056    0.01342063
     atom   64 type  2   force =    -0.00019567   -0.00011297    0.01347429
     atom   65 type  1   force =     0.00000000    0.00000000    0.00364230
     atom   66 type  1   force =     0.00088740   -0.00051234    0.00347236
     atom   67 type  2   force =     0.00000000    0.00000000    0.01460034
     atom   68 type  2   force =     0.00019567   -0.00011297    0.01347429
     atom   69 type  1   force =    -0.00089156    0.00748118    0.00300371
     atom   70 type  1   force =     0.00000000    0.00067821    0.00339745
     atom   71 type  2   force =     0.00002706    0.00062056    0.01342063
     atom   72 type  2   force =     0.00000000    0.00003644    0.01219680
     atom   73 type  1   force =     0.00000000   -0.00000000   -0.01613003
     atom   74 type  1   force =     0.03078570   -0.01777413    0.01570154
     atom   75 type  2   force =     0.00000000    0.00000000    0.00249699
     atom   76 type  2   force =     0.01320247   -0.00762245    0.00524993
     atom   77 type  1   force =     0.00129668    0.00088518    0.00597886
     atom   78 type  1   force =     0.00000000    0.00051840    0.01194178
     atom   79 type  2   force =     0.00093955   -0.00058865    0.01449808
     atom   80 type  2   force =     0.00000000   -0.00281802    0.01036822
     atom   81 type  1   force =    -0.00129668    0.00088518    0.00597886
     atom   82 type  1   force =    -0.03078570   -0.01777413    0.01570154
     atom   83 type  2   force =    -0.00093955   -0.00058865    0.01449808
     atom   84 type  2   force =    -0.01320247   -0.00762245    0.00524993
     atom   85 type  1   force =    -0.00141493    0.00068037    0.00597886
     atom   86 type  1   force =     0.00000000    0.03554827    0.01570154
     atom   87 type  2   force =     0.00004001    0.00110800    0.01449808
     atom   88 type  2   force =     0.00000000    0.01524490    0.00524993
     atom   89 type  1   force =     0.00141493    0.00068037    0.00597886
     atom   90 type  1   force =    -0.00102712   -0.00059301   -0.00153417
     atom   91 type  2   force =    -0.00004001    0.00110800    0.01449808
     atom   92 type  2   force =     0.00121863    0.00070358    0.01335943
     atom   93 type  1   force =     0.00000000   -0.00000000    0.00190132
     atom   94 type  1   force =     0.00102712   -0.00059301   -0.00153417
     atom   95 type  2   force =     0.00000000    0.00000000    0.01193746
     atom   96 type  2   force =    -0.00121863    0.00070358    0.01335943
     atom   97 type  1   force =    -0.00011825   -0.00156555    0.00597886
     atom   98 type  1   force =    -0.00044895   -0.00025920    0.01194178
     atom   99 type  2   force =     0.00097956   -0.00051935    0.01449808
     atom  100 type  2   force =     0.00244048    0.00140901    0.01036822
     atom  101 type  1   force =     0.00000000    0.00000000    0.00403830
     atom  102 type  1   force =     0.00044895   -0.00025920    0.01194178
     atom  103 type  2   force =     0.00000000    0.00000000    0.01291753
     atom  104 type  2   force =    -0.00244048    0.00140901    0.01036822
     atom  105 type  1   force =     0.00011825   -0.00156555    0.00597886
     atom  106 type  1   force =    -0.00000000    0.00118602   -0.00153417
     atom  107 type  2   force =    -0.00097956   -0.00051935    0.01449808
     atom  108 type  2   force =    -0.00000000   -0.00140716    0.01335943
     The ionic contribution  to forces
     atom    1 type  3   force =     0.00000000   -0.00000006    0.04845553
     atom    2 type  1   force =    -2.63557081    1.52164750   -5.37032123
     atom    3 type  2   force =     0.00000000   -0.00000010   -6.70725547
     atom    4 type  2   force =    -0.19293307    0.11138994   -1.17815333
     atom    5 type  1   force =    -4.86803703   -0.00000020    0.15748047
     atom    6 type  1   force =     0.00000000    0.22018219   -1.91252924
     atom    7 type  2   force =    -1.02412784   -0.00000010   -1.27067014
     atom    8 type  2   force =     0.00000000    0.02884549   -0.84142090
     atom    9 type  1   force =     4.86803703   -0.00000020    0.15748047
     atom   10 type  1   force =     2.63557081    1.52164750   -5.37032123
     atom   11 type  2   force =     1.02412784   -0.00000010   -1.27067014
     atom   12 type  2   force =     0.19293307    0.11138994   -1.17815333
     atom   13 type  1   force =     2.43401851   -4.21584393    0.15748046
     atom   14 type  1   force =    -0.00000000   -3.04329508   -5.37032121
     atom   15 type  2   force =     0.51206392   -0.88692083   -1.27067013
     atom   16 type  2   force =    -0.00000000   -0.22277991   -1.17815338
     atom   17 type  1   force =    -2.43401851   -4.21584393    0.15748046
     atom   18 type  1   force =    -1.18356777   -0.68333321   -2.31310055
     atom   19 type  2   force =    -0.51206392   -0.88692083   -1.27067013
     atom   20 type  2   force =    -0.12962402   -0.07483845   -0.89624078
     atom   21 type  1   force =     0.00000000   -0.00000020    0.15748046
     atom   22 type  1   force =     1.18356777   -0.68333321   -2.31310055
     atom   23 type  2   force =     0.00000000   -0.00000010   -0.79637431
     atom   24 type  2   force =     0.12962402   -0.07483845   -0.89624078
     atom   25 type  1   force =    -2.43401849    4.21584399    0.15748047
     atom   26 type  1   force =    -0.19068339   -0.11009094   -1.91252915
     atom   27 type  2   force =    -0.51206392    0.88692083   -1.27067013
     atom   28 type  2   force =    -0.02498095   -0.01442266   -0.84142099
     atom   29 type  1   force =     0.00000000    0.00000028    0.15748047
     atom   30 type  1   force =     0.19068339   -0.11009094   -1.91252915
     atom   31 type  2   force =     0.00000000    0.00000010   -0.79637432
     atom   32 type  2   force =     0.02498095   -0.01442266   -0.84142099
     atom   33 type  1   force =     2.43401849    4.21584399    0.15748047
     atom   34 type  1   force =     0.00000000    1.36666650   -2.31310050
     atom   35 type  2   force =     0.51206392    0.88692083   -1.27067013
     atom   36 type  2   force =     0.00000000    0.14967703   -0.89624082
     atom   37 type  1   force =     0.00000000   -0.00000020   -2.16854176
     atom   38 type  1   force =    -0.07866396    0.04541663    0.15748042
     atom   39 type  2   force =     0.00000000   -0.00000010   -0.35214996
     atom   40 type  2   force =    -0.07218693    0.04167712    0.40930015
     atom   41 type  1   force =    -0.29618711   -0.00000020   -1.52442655
     atom   42 type  1   force =     0.00000000    0.01570114    0.15748042
     atom   43 type  2   force =    -0.03545673   -0.00000010   -0.31856925
     atom   44 type  2   force =     0.00000000    0.01290124    0.28580346
     atom   45 type  1   force =     0.29618711   -0.00000020   -1.52442655
     atom   46 type  1   force =     0.07866396    0.04541663    0.15748042
     atom   47 type  2   force =     0.03545673   -0.00000010   -0.31856925
     atom   48 type  2   force =     0.07218693    0.04167712    0.40930015
     atom   49 type  1   force =     0.14809355   -0.25650575   -1.52442657
     atom   50 type  1   force =    -0.00000000   -0.09083336    0.15748047
     atom   51 type  2   force =     0.01772837   -0.03070653   -0.31856923
     atom   52 type  2   force =    -0.00000000   -0.08335427    0.40930011
     atom   53 type  1   force =    -0.14809355   -0.25650575   -1.52442657
     atom   54 type  1   force =    -0.06224246   -0.03593574    0.15748047
     atom   55 type  2   force =    -0.01772837   -0.03070653   -0.31856923
     atom   56 type  2   force =    -0.05387646   -0.03110558    0.30744765
     atom   57 type  1   force =     0.00000000   -0.00000020   -1.27674324
     atom   58 type  1   force =     0.06224246   -0.03593574    0.15748047
     atom   59 type  2   force =    -0.00000000   -0.00000010   -0.30356284
     atom   60 type  2   force =     0.05387646   -0.03110558    0.30744765
     atom   61 type  1   force =    -0.14809355    0.25650585   -1.52442656
     atom   62 type  1   force =    -0.01359761   -0.00785041    0.15748051
     atom   63 type  2   force =    -0.01772837    0.03070654   -0.31856924
     atom   64 type  2   force =    -0.01117283   -0.00645053    0.28580337
     atom   65 type  1   force =     0.00000000    0.00000029   -1.27674323
     atom   66 type  1   force =     0.01359761   -0.00785041    0.15748051
     atom   67 type  2   force =     0.00000000    0.00000011   -0.30356285
     atom   68 type  2   force =     0.01117283   -0.00645053    0.28580337
     atom   69 type  1   force =     0.14809355    0.25650585   -1.52442656
     atom   70 type  1   force =     0.00000000    0.07187157    0.15748051
     atom   71 type  2   force =     0.01772837    0.03070654   -0.31856924
     atom   72 type  2   force =     0.00000000    0.06221129    0.30744761
     atom   73 type  1   force =     0.00000000   -0.00000020    2.48350271
     atom   74 type  1   force =    -2.63557081    1.52164750    5.68528207
     atom   75 type  2   force =    -0.00000000   -0.00000010    2.29385341
     atom   76 type  2   force =    -5.06418480    2.92380845    2.03327346
     atom   77 type  1   force =    -0.29618711   -0.00000020    1.83938750
     atom   78 type  1   force =     0.00000000    0.22018219    2.22749008
     atom   79 type  2   force =    -0.45816865   -0.00000010    0.91031996
     atom   80 type  2   force =     0.00000000    0.15412318    0.12974260
     atom   81 type  1   force =     0.29618711   -0.00000020    1.83938750
     atom   82 type  1   force =     2.63557081    1.52164750    5.68528207
     atom   83 type  2   force =     0.45816865   -0.00000010    0.91031996
     atom   84 type  2   force =     5.06418480    2.92380845    2.03327346
     atom   85 type  1   force =     0.14809355   -0.25650575    1.83938749
     atom   86 type  1   force =    -0.00000000   -3.04329508    5.68528215
     atom   87 type  2   force =     0.22908432   -0.39678578    0.91031997
     atom   88 type  2   force =     0.00000000   -5.84761697    2.03327344
     atom   89 type  1   force =    -0.14809355   -0.25650575    1.83938749
     atom   90 type  1   force =    -1.18356777   -0.68333321    2.62806149
     atom   91 type  2   force =    -0.22908432   -0.39678578    0.91031997
     atom   92 type  2   force =    -0.99679002   -0.57549697    0.23261275
     atom   93 type  1   force =     0.00000000   -0.00000020    1.59170416
     atom   94 type  1   force =     1.18356777   -0.68333321    2.62806149
     atom   95 type  2   force =     0.00000000   -0.00000010    0.59846407
     atom   96 type  2   force =     0.99679002   -0.57549697    0.23261275
     atom   97 type  1   force =    -0.14809355    0.25650585    1.83938749
     atom   98 type  1   force =    -0.19068339   -0.11009094    2.22749017
     atom   99 type  2   force =    -0.22908432    0.39678579    0.91031996
     atom  100 type  2   force =    -0.13347461   -0.07706150    0.12974251
     atom  101 type  1   force =    -0.00000000    0.00000029    1.59170417
     atom  102 type  1   force =     0.19068339   -0.11009094    2.22749017
     atom  103 type  2   force =     0.00000000    0.00000010    0.59846407
     atom  104 type  2   force =     0.13347461   -0.07706150    0.12974251
     atom  105 type  1   force =     0.14809355    0.25650585    1.83938749
     atom  106 type  1   force =     0.00000000    1.36666650    2.62806152
     atom  107 type  2   force =     0.22908432    0.39678579    0.91031996
     atom  108 type  2   force =     0.00000000    1.15099406    0.23261271
     The local contribution  to forces
     atom    1 type  3   force =    -0.00000000    0.00000000   -0.07976004
     atom    2 type  1   force =     2.65926545   -1.53532533    5.32705347
     atom    3 type  2   force =     0.00000000    0.00000000    6.65193867
     atom    4 type  2   force =     0.19538585   -0.11280589    1.16735906
     atom    5 type  1   force =     4.84241332    0.03337920   -0.13815653
     atom    6 type  1   force =     0.00000000   -0.21417408    1.90348916
     atom    7 type  2   force =     1.02214398    0.00147463    1.25541550
     atom    8 type  2   force =    -0.00000000   -0.02868627    0.82595544
     atom    9 type  1   force =    -4.84241332    0.03337920   -0.13815653
     atom   10 type  1   force =    -2.65926545   -1.53532533    5.32705347
     atom   11 type  2   force =    -1.02214398    0.00147463    1.25541550
     atom   12 type  2   force =    -0.19538585   -0.11280589    1.16735906
     atom   13 type  1   force =    -2.45011390    4.17696335   -0.13815653
     atom   14 type  1   force =    -0.00000000    3.07065756    5.32705350
     atom   15 type  2   force =    -0.51234905    0.88446534    1.25541550
     atom   16 type  2   force =    -0.00000000    0.22561233    1.16735906
     atom   17 type  1   force =     2.45011390    4.17696335   -0.13815653
     atom   18 type  1   force =     1.18181050    0.68232091    2.30280632
     atom   19 type  2   force =     0.51234905    0.88446534    1.25541550
     atom   20 type  2   force =     0.12993981    0.07502097    0.88051342
     atom   21 type  1   force =    -0.00000000    0.00000000   -0.16723825
     atom   22 type  1   force =    -1.18181050    0.68232091    2.30280632
     atom   23 type  2   force =     0.00000000    0.00000000    0.78164143
     atom   24 type  2   force =    -0.12993981    0.07502097    0.88051342
     atom   25 type  1   force =     2.39229940   -4.21033906   -0.13815653
     atom   26 type  1   force =     0.18548219    0.10709050    1.90348916
     atom   27 type  2   force =     0.50979492   -0.88593968    1.25541550
     atom   28 type  2   force =     0.02484320    0.01434341    0.82595544
     atom   29 type  1   force =     0.00000000    0.00000347   -0.15119952
     atom   30 type  1   force =    -0.18548219    0.10709050    1.90348916
     atom   31 type  2   force =     0.00000000    0.00000028    0.78479855
     atom   32 type  2   force =    -0.02484320    0.01434341    0.82595544
     atom   33 type  1   force =    -2.39229940   -4.21033906   -0.13815653
     atom   34 type  1   force =    -0.00000000   -1.36463491    2.30280631
     atom   35 type  2   force =    -0.50979492   -0.88593968    1.25541550
     atom   36 type  2   force =    -0.00000000   -0.15004139    0.88051342
     atom   37 type  1   force =    -0.00000000    0.00000000    2.17160474
     atom   38 type  1   force =     0.07948010   -0.04588555   -0.15835321
     atom   39 type  2   force =     0.00000000    0.00000000    0.34044094
     atom   40 type  2   force =     0.07063749   -0.04078239   -0.42127515
     atom   41 type  1   force =     0.30318072    0.00523073    1.52070949
     atom   42 type  1   force =    -0.00000000   -0.01686498   -0.16157448
     atom   43 type  2   force =     0.03592841    0.00023315    0.30562368
     atom   44 type  2   force =    -0.00000000   -0.01310111   -0.29856103
     atom   45 type  1   force =    -0.30318072    0.00523073    1.52070949
     atom   46 type  1   force =    -0.07948010   -0.04588555   -0.15835321
     atom   47 type  2   force =    -0.03592841    0.00023315    0.30562368
     atom   48 type  2   force =    -0.07063749   -0.04078239   -0.42127515
     atom   49 type  1   force =    -0.15612031    0.25994684    1.52070949
     atom   50 type  1   force =     0.00000000    0.09177801   -0.15835321
     atom   51 type  2   force =    -0.01816611    0.03099834    0.30562368
     atom   52 type  2   force =    -0.00000000    0.08156533   -0.42127515
     atom   53 type  1   force =     0.15612031    0.25994684    1.52070949
     atom   54 type  1   force =     0.06287827    0.03630509   -0.16152409
     atom   55 type  2   force =     0.01816611    0.03099834    0.30562368
     atom   56 type  2   force =     0.05397800    0.03116440   -0.31908482
     atom   57 type  1   force =    -0.00000000    0.00000000    1.27195555
     atom   58 type  1   force =    -0.06287827    0.03630509   -0.16152409
     atom   59 type  2   force =     0.00000000    0.00000000    0.28936505
     atom   60 type  2   force =    -0.05397800    0.03116440   -0.31908482
     atom   61 type  1   force =     0.14706041   -0.26517412    1.52070949
     atom   62 type  1   force =     0.01460749    0.00843594   -0.16157448
     atom   63 type  2   force =     0.01776229   -0.03123121    0.30562368
     atom   64 type  2   force =     0.01134605    0.00655083   -0.29856103
     atom   65 type  1   force =    -0.00000000    0.00000346    1.27241628
     atom   66 type  1   force =    -0.01460749    0.00843594   -0.16157448
     atom   67 type  2   force =     0.00000000    0.00000028    0.28973888
     atom   68 type  2   force =    -0.01134605    0.00655083   -0.29856103
     atom   69 type  1   force =    -0.14706041   -0.26517412    1.52070949
     atom   70 type  1   force =     0.00000000   -0.07260327   -0.16152409
     atom   71 type  2   force =    -0.01776229   -0.03123121    0.30562368
     atom   72 type  2   force =    -0.00000000   -0.06232824   -0.31908482
     atom   73 type  1   force =    -0.00000000    0.00000000   -2.46580358
     atom   74 type  1   force =     2.59494225   -1.49818832   -5.70164529
     atom   75 type  2   force =     0.00000000    0.00000000   -2.29896724
     atom   76 type  2   force =     5.00946887   -2.89221805   -2.01946459
     atom   77 type  1   force =     0.29459547   -0.00106070   -1.84632553
     atom   78 type  1   force =     0.00000000   -0.22085625   -2.24140835
     atom   79 type  2   force =     0.45777566    0.00067001   -0.92345394
     atom   80 type  2   force =     0.00000000   -0.15403593   -0.14102615
     atom   81 type  1   force =    -0.29459547   -0.00106070   -1.84632553
     atom   82 type  1   force =    -2.59494225   -1.49818832   -5.70164529
     atom   83 type  2   force =    -0.45777566    0.00067001   -0.92345394
     atom   84 type  2   force =    -5.00946887   -2.89221805   -2.01946459
     atom   85 type  1   force =    -0.14637914    0.25565751   -1.84632553
     atom   86 type  1   force =    -0.00000000    2.99638353   -5.70164531
     atom   87 type  2   force =    -0.22946808    0.39611035   -0.92345394
     atom   88 type  2   force =    -0.00000000    5.78443666   -2.01946462
     atom   89 type  1   force =     0.14637914    0.25565751   -1.84632553
     atom   90 type  1   force =     1.18454550    0.68389997   -2.62629204
     atom   91 type  2   force =     0.22946808    0.39611035   -0.92345394
     atom   92 type  2   force =     0.99593703    0.57500470   -0.24554089
     atom   93 type  1   force =    -0.00000000    0.00000000   -1.59407803
     atom   94 type  1   force =    -1.18454550    0.68389997   -2.62629204
     atom   95 type  2   force =     0.00000000    0.00000000   -0.61036011
     atom   96 type  2   force =    -0.99593703    0.57500470   -0.24554089
     atom   97 type  1   force =     0.14821633   -0.25459335   -1.84632552
     atom   98 type  1   force =     0.19126911    0.11043158   -2.24140835
     atom   99 type  2   force =     0.22830758   -0.39678008   -0.92345394
     atom  100 type  2   force =     0.13339918    0.07701824   -0.14102615
     atom  101 type  1   force =    -0.00000000    0.00000346   -1.59652966
     atom  102 type  1   force =    -0.19126911    0.11043158   -2.24140835
     atom  103 type  2   force =     0.00000000    0.00000028   -0.61064963
     atom  104 type  2   force =    -0.13339918    0.07701824   -0.14102615
     atom  105 type  1   force =    -0.14821633   -0.25459335   -1.84632552
     atom  106 type  1   force =    -0.00000000   -1.36779302   -2.62629203
     atom  107 type  2   force =    -0.22830758   -0.39678008   -0.92345394
     atom  108 type  2   force =    -0.00000000   -1.15000883   -0.24554089
     The core correction contribution to forces
     atom    1 type  3   force =    -0.00000000   -0.00000000   -0.00070589
     atom    2 type  1   force =    -0.00001642    0.00000965    0.00041347
     atom    3 type  2   force =    -0.00000000   -0.00000000    0.00116625
     atom    4 type  2   force =     0.00006088   -0.00003515   -0.00016303
     atom    5 type  1   force =     0.00007239   -0.00020610    0.00007272
     atom    6 type  1   force =     0.00000000    0.00005359    0.00017313
     atom    7 type  2   force =    -0.00003138    0.00003729   -0.00025602
     atom    8 type  2   force =    -0.00000000    0.00000563   -0.00026853
     atom    9 type  1   force =    -0.00007239   -0.00020610    0.00007272
     atom   10 type  1   force =     0.00001642    0.00000965    0.00041347
     atom   11 type  2   force =     0.00003138    0.00003729   -0.00025602
     atom   12 type  2   force =    -0.00006088   -0.00003515   -0.00016303
     atom   13 type  1   force =     0.00014229    0.00016574    0.00007272
     atom   14 type  1   force =     0.00000000   -0.00001879    0.00041347
     atom   15 type  2   force =    -0.00001661   -0.00004582   -0.00025602
     atom   16 type  2   force =    -0.00000000    0.00007029   -0.00016303
     atom   17 type  1   force =    -0.00014229    0.00016574    0.00007272
     atom   18 type  1   force =     0.00000659    0.00000398    0.00020685
     atom   19 type  2   force =     0.00001661   -0.00004582   -0.00025602
     atom   20 type  2   force =     0.00000826    0.00000477   -0.00027328
     atom   21 type  1   force =    -0.00000000    0.00000000    0.00018227
     atom   22 type  1   force =    -0.00000659    0.00000398    0.00020685
     atom   23 type  2   force =    -0.00000000   -0.00000000   -0.00025339
     atom   24 type  2   force =    -0.00000826    0.00000477   -0.00027328
     atom   25 type  1   force =     0.00021468    0.00004061    0.00007272
     atom   26 type  1   force =    -0.00004627   -0.00002654    0.00017313
     atom   27 type  2   force =    -0.00004799    0.00000852   -0.00025602
     atom   28 type  2   force =    -0.00000488   -0.00000282   -0.00026853
     atom   29 type  1   force =     0.00000000    0.00000026    0.00028984
     atom   30 type  1   force =     0.00004627   -0.00002654    0.00017313
     atom   31 type  2   force =    -0.00000000   -0.00000000   -0.00017969
     atom   32 type  2   force =     0.00000488   -0.00000282   -0.00026853
     atom   33 type  1   force =    -0.00021468    0.00004061    0.00007272
     atom   34 type  1   force =    -0.00000000   -0.00000744    0.00020685
     atom   35 type  2   force =     0.00004799    0.00000852   -0.00025602
     atom   36 type  2   force =    -0.00000000   -0.00000954   -0.00027328
     atom   37 type  1   force =    -0.00000000    0.00000000    0.00024970
     atom   38 type  1   force =     0.00000628   -0.00000345    0.00024338
     atom   39 type  2   force =    -0.00000000   -0.00000000   -0.00018358
     atom   40 type  2   force =    -0.00003432    0.00001981   -0.00018720
     atom   41 type  1   force =     0.00004087    0.00003000    0.00023998
     atom   42 type  1   force =    -0.00000000   -0.00000776    0.00022877
     atom   43 type  2   force =     0.00000988    0.00000515   -0.00021084
     atom   44 type  2   force =    -0.00000000   -0.00000408   -0.00020969
     atom   45 type  1   force =    -0.00004087    0.00003000    0.00023998
     atom   46 type  1   force =    -0.00000628   -0.00000345    0.00024338
     atom   47 type  2   force =    -0.00000988    0.00000515   -0.00021084
     atom   48 type  2   force =     0.00003432    0.00001981   -0.00018720
     atom   49 type  1   force =    -0.00004641    0.00002040    0.00023998
     atom   50 type  1   force =     0.00000000    0.00000742    0.00024338
     atom   51 type  2   force =    -0.00000940    0.00000599   -0.00021084
     atom   52 type  2   force =    -0.00000000   -0.00003964   -0.00018720
     atom   53 type  1   force =     0.00004641    0.00002040    0.00023998
     atom   54 type  1   force =     0.00000604    0.00000366    0.00023331
     atom   55 type  2   force =     0.00000940    0.00000599   -0.00021084
     atom   56 type  2   force =     0.00000090    0.00000052   -0.00018568
     atom   57 type  1   force =    -0.00000000    0.00000000    0.00022403
     atom   58 type  1   force =    -0.00000604    0.00000366    0.00023331
     atom   59 type  2   force =    -0.00000000   -0.00000000   -0.00023920
     atom   60 type  2   force =    -0.00000090    0.00000052   -0.00018568
     atom   61 type  1   force =    -0.00000554   -0.00005013    0.00023998
     atom   62 type  1   force =     0.00000687    0.00000414    0.00022877
     atom   63 type  2   force =     0.00000048   -0.00001114   -0.00021084
     atom   64 type  2   force =     0.00000353    0.00000204   -0.00020969
     atom   65 type  1   force =    -0.00000000    0.00000026    0.00022874
     atom   66 type  1   force =    -0.00000687    0.00000414    0.00022877
     atom   67 type  2   force =    -0.00000000   -0.00000000   -0.00023168
     atom   68 type  2   force =    -0.00000353    0.00000204   -0.00020969
     atom   69 type  1   force =     0.00000554   -0.00005013    0.00023998
     atom   70 type  1   force =     0.00000000   -0.00000680    0.00023331
     atom   71 type  2   force =    -0.00000048   -0.00001114   -0.00021084
     atom   72 type  2   force =    -0.00000000   -0.00000104   -0.00018568
     atom   73 type  1   force =    -0.00000000    0.00000000    0.00044382
     atom   74 type  1   force =     0.00009668   -0.00005565    0.00018516
     atom   75 type  2   force =    -0.00000000   -0.00000000   -0.00007273
     atom   76 type  2   force =     0.00073003   -0.00042149   -0.00043463
     atom   77 type  1   force =    -0.00000421   -0.00000697    0.00020494
     atom   78 type  1   force =     0.00000000    0.00001887    0.00014218
     atom   79 type  2   force =    -0.00001334    0.00001013   -0.00022667
     atom   80 type  2   force =    -0.00000000    0.00003998   -0.00015757
     atom   81 type  1   force =     0.00000421   -0.00000697    0.00020494
     atom   82 type  1   force =    -0.00009668   -0.00005565    0.00018516
     atom   83 type  2   force =     0.00001334    0.00001013   -0.00022667
     atom   84 type  2   force =    -0.00073003   -0.00042149   -0.00043463
     atom   85 type  1   force =     0.00000814   -0.00000017    0.00020494
     atom   86 type  1   force =    -0.00000000    0.00011181    0.00018516
     atom   87 type  2   force =    -0.00000211   -0.00001662   -0.00022667
     atom   88 type  2   force =    -0.00000000    0.00084297   -0.00043463
     atom   89 type  1   force =    -0.00000814   -0.00000017    0.00020494
     atom   90 type  1   force =     0.00002186    0.00001279    0.00025046
     atom   91 type  2   force =     0.00000211   -0.00001662   -0.00022667
     atom   92 type  2   force =    -0.00000935   -0.00000540   -0.00021193
     atom   93 type  1   force =    -0.00000000    0.00000000    0.00024603
     atom   94 type  1   force =    -0.00002186    0.00001279    0.00025046
     atom   95 type  2   force =    -0.00000000   -0.00000000   -0.00018382
     atom   96 type  2   force =     0.00000935   -0.00000540   -0.00021193
     atom   97 type  1   force =     0.00000393    0.00000739    0.00020494
     atom   98 type  1   force =    -0.00001619   -0.00000918    0.00014218
     atom   99 type  2   force =    -0.00001545    0.00000648   -0.00022667
     atom  100 type  2   force =    -0.00003462   -0.00001999   -0.00015757
     atom  101 type  1   force =    -0.00000000    0.00000026    0.00023140
     atom  102 type  1   force =     0.00001619   -0.00000918    0.00014218
     atom  103 type  2   force =    -0.00000000   -0.00000000   -0.00019708
     atom  104 type  2   force =     0.00003462   -0.00001999   -0.00015757
     atom  105 type  1   force =    -0.00000393    0.00000739    0.00020494
     atom  106 type  1   force =     0.00000000   -0.00002507    0.00025046
     atom  107 type  2   force =     0.00001545    0.00000648   -0.00022667
     atom  108 type  2   force =    -0.00000000    0.00001079   -0.00021193
     The Hubbard contrib.    to forces
     atom    1 type  3   force =     0.00000000    0.00000000    0.00000000
     atom    2 type  1   force =     0.00000000    0.00000000    0.00000000
     atom    3 type  2   force =     0.00000000    0.00000000    0.00000000
     atom    4 type  2   force =     0.00000000    0.00000000    0.00000000
     atom    5 type  1   force =     0.00000000    0.00000000    0.00000000
     atom    6 type  1   force =     0.00000000    0.00000000    0.00000000
     atom    7 type  2   force =     0.00000000    0.00000000    0.00000000
     atom    8 type  2   force =     0.00000000    0.00000000    0.00000000
     atom    9 type  1   force =     0.00000000    0.00000000    0.00000000
     atom   10 type  1   force =     0.00000000    0.00000000    0.00000000
     atom   11 type  2   force =     0.00000000    0.00000000    0.00000000
     atom   12 type  2   force =     0.00000000    0.00000000    0.00000000
     atom   13 type  1   force =     0.00000000    0.00000000    0.00000000
     atom   14 type  1   force =     0.00000000    0.00000000    0.00000000
     atom   15 type  2   force =     0.00000000    0.00000000    0.00000000
     atom   16 type  2   force =     0.00000000    0.00000000    0.00000000
     atom   17 type  1   force =     0.00000000    0.00000000    0.00000000
     atom   18 type  1   force =     0.00000000    0.00000000    0.00000000
     atom   19 type  2   force =     0.00000000    0.00000000    0.00000000
     atom   20 type  2   force =     0.00000000    0.00000000    0.00000000
     atom   21 type  1   force =     0.00000000    0.00000000    0.00000000
     atom   22 type  1   force =     0.00000000    0.00000000    0.00000000
     atom   23 type  2   force =     0.00000000    0.00000000    0.00000000
     atom   24 type  2   force =     0.00000000    0.00000000    0.00000000
     atom   25 type  1   force =     0.00000000    0.00000000    0.00000000
     atom   26 type  1   force =     0.00000000    0.00000000    0.00000000
     atom   27 type  2   force =     0.00000000    0.00000000    0.00000000
     atom   28 type  2   force =     0.00000000    0.00000000    0.00000000
     atom   29 type  1   force =     0.00000000    0.00000000    0.00000000
     atom   30 type  1   force =     0.00000000    0.00000000    0.00000000
     atom   31 type  2   force =     0.00000000    0.00000000    0.00000000
     atom   32 type  2   force =     0.00000000    0.00000000    0.00000000
     atom   33 type  1   force =     0.00000000    0.00000000    0.00000000
     atom   34 type  1   force =     0.00000000    0.00000000    0.00000000
     atom   35 type  2   force =     0.00000000    0.00000000    0.00000000
     atom   36 type  2   force =     0.00000000    0.00000000    0.00000000
     atom   37 type  1   force =     0.00000000    0.00000000    0.00000000
     atom   38 type  1   force =     0.00000000    0.00000000    0.00000000
     atom   39 type  2   force =     0.00000000    0.00000000    0.00000000
     atom   40 type  2   force =     0.00000000    0.00000000    0.00000000
     atom   41 type  1   force =     0.00000000    0.00000000    0.00000000
     atom   42 type  1   force =     0.00000000    0.00000000    0.00000000
     atom   43 type  2   force =     0.00000000    0.00000000    0.00000000
     atom   44 type  2   force =     0.00000000    0.00000000    0.00000000
     atom   45 type  1   force =     0.00000000    0.00000000    0.00000000
     atom   46 type  1   force =     0.00000000    0.00000000    0.00000000
     atom   47 type  2   force =     0.00000000    0.00000000    0.00000000
     atom   48 type  2   force =     0.00000000    0.00000000    0.00000000
     atom   49 type  1   force =     0.00000000    0.00000000    0.00000000
     atom   50 type  1   force =     0.00000000    0.00000000    0.00000000
     atom   51 type  2   force =     0.00000000    0.00000000    0.00000000
     atom   52 type  2   force =     0.00000000    0.00000000    0.00000000
     atom   53 type  1   force =     0.00000000    0.00000000    0.00000000
     atom   54 type  1   force =     0.00000000    0.00000000    0.00000000
     atom   55 type  2   force =     0.00000000    0.00000000    0.00000000
     atom   56 type  2   force =     0.00000000    0.00000000    0.00000000
     atom   57 type  1   force =     0.00000000    0.00000000    0.00000000
     atom   58 type  1   force =     0.00000000    0.00000000    0.00000000
     atom   59 type  2   force =     0.00000000    0.00000000    0.00000000
     atom   60 type  2   force =     0.00000000    0.00000000    0.00000000
     atom   61 type  1   force =     0.00000000    0.00000000    0.00000000
     atom   62 type  1   force =     0.00000000    0.00000000    0.00000000
     atom   63 type  2   force =     0.00000000    0.00000000    0.00000000
     atom   64 type  2   force =     0.00000000    0.00000000    0.00000000
     atom   65 type  1   force =     0.00000000    0.00000000    0.00000000
     atom   66 type  1   force =     0.00000000    0.00000000    0.00000000
     atom   67 type  2   force =     0.00000000    0.00000000    0.00000000
     atom   68 type  2   force =     0.00000000    0.00000000    0.00000000
     atom   69 type  1   force =     0.00000000    0.00000000    0.00000000
     atom   70 type  1   force =     0.00000000    0.00000000    0.00000000
     atom   71 type  2   force =     0.00000000    0.00000000    0.00000000
     atom   72 type  2   force =     0.00000000    0.00000000    0.00000000
     atom   73 type  1   force =     0.00000000    0.00000000    0.00000000
     atom   74 type  1   force =     0.00000000    0.00000000    0.00000000
     atom   75 type  2   force =     0.00000000    0.00000000    0.00000000
     atom   76 type  2   force =     0.00000000    0.00000000    0.00000000
     atom   77 type  1   force =     0.00000000    0.00000000    0.00000000
     atom   78 type  1   force =     0.00000000    0.00000000    0.00000000
     atom   79 type  2   force =     0.00000000    0.00000000    0.00000000
     atom   80 type  2   force =     0.00000000    0.00000000    0.00000000
     atom   81 type  1   force =     0.00000000    0.00000000    0.00000000
     atom   82 type  1   force =     0.00000000    0.00000000    0.00000000
     atom   83 type  2   force =     0.00000000    0.00000000    0.00000000
     atom   84 type  2   force =     0.00000000    0.00000000    0.00000000
     atom   85 type  1   force =     0.00000000    0.00000000    0.00000000
     atom   86 type  1   force =     0.00000000    0.00000000    0.00000000
     atom   87 type  2   force =     0.00000000    0.00000000    0.00000000
     atom   88 type  2   force =     0.00000000    0.00000000    0.00000000
     atom   89 type  1   force =     0.00000000    0.00000000    0.00000000
     atom   90 type  1   force =     0.00000000    0.00000000    0.00000000
     atom   91 type  2   force =     0.00000000    0.00000000    0.00000000
     atom   92 type  2   force =     0.00000000    0.00000000    0.00000000
     atom   93 type  1   force =     0.00000000    0.00000000    0.00000000
     atom   94 type  1   force =     0.00000000    0.00000000    0.00000000
     atom   95 type  2   force =     0.00000000    0.00000000    0.00000000
     atom   96 type  2   force =     0.00000000    0.00000000    0.00000000
     atom   97 type  1   force =     0.00000000    0.00000000    0.00000000
     atom   98 type  1   force =     0.00000000    0.00000000    0.00000000
     atom   99 type  2   force =     0.00000000    0.00000000    0.00000000
     atom  100 type  2   force =     0.00000000    0.00000000    0.00000000
     atom  101 type  1   force =     0.00000000    0.00000000    0.00000000
     atom  102 type  1   force =     0.00000000    0.00000000    0.00000000
     atom  103 type  2   force =     0.00000000    0.00000000    0.00000000
     atom  104 type  2   force =     0.00000000    0.00000000    0.00000000
     atom  105 type  1   force =     0.00000000    0.00000000    0.00000000
     atom  106 type  1   force =     0.00000000    0.00000000    0.00000000
     atom  107 type  2   force =     0.00000000    0.00000000    0.00000000
     atom  108 type  2   force =     0.00000000    0.00000000    0.00000000
     The SCF correction term to forces
     atom    1 type  3   force =     0.00000000    0.00000000    0.00006337
     atom    2 type  1   force =    -0.00007496    0.00004328    0.00002196
     atom    3 type  2   force =    -0.00000000    0.00000000   -0.00000492
     atom    4 type  2   force =    -0.00000734    0.00000424   -0.00001587
     atom    5 type  1   force =    -0.00001712    0.00001458    0.00006737
     atom    6 type  1   force =     0.00000000   -0.00000785    0.00004979
     atom    7 type  2   force =    -0.00001220    0.00000102    0.00001549
     atom    8 type  2   force =     0.00000000    0.00000001   -0.00001305
     atom    9 type  1   force =     0.00001712    0.00001458    0.00006737
     atom   10 type  1   force =     0.00007496    0.00004328    0.00002196
     atom   11 type  2   force =     0.00001220    0.00000102    0.00001549
     atom   12 type  2   force =     0.00000734    0.00000424   -0.00001587
     atom   13 type  1   force =    -0.00000406   -0.00002212    0.00006737
     atom   14 type  1   force =     0.00000000   -0.00008656    0.00002196
     atom   15 type  2   force =     0.00000522   -0.00001108    0.00001549
     atom   16 type  2   force =     0.00000000   -0.00000848   -0.00001587
     atom   17 type  1   force =     0.00000406   -0.00002212    0.00006737
     atom   18 type  1   force =    -0.00000992   -0.00000573    0.00004236
     atom   19 type  2   force =    -0.00000522   -0.00001108    0.00001549
     atom   20 type  2   force =    -0.00000315   -0.00000182   -0.00001099
     atom   21 type  1   force =    -0.00000000    0.00000000    0.00005703
     atom   22 type  1   force =     0.00000992   -0.00000573    0.00004236
     atom   23 type  2   force =    -0.00000000    0.00000000    0.00001701
     atom   24 type  2   force =     0.00000315   -0.00000182   -0.00001099
     atom   25 type  1   force =    -0.00002118    0.00000754    0.00006737
     atom   26 type  1   force =     0.00000680    0.00000392    0.00004979
     atom   27 type  2   force =    -0.00000699    0.00001006    0.00001549
     atom   28 type  2   force =    -0.00000001   -0.00000001   -0.00001305
     atom   29 type  1   force =    -0.00000000   -0.00000000    0.00004989
     atom   30 type  1   force =    -0.00000680    0.00000392    0.00004979
     atom   31 type  2   force =    -0.00000000    0.00000000    0.00001798
     atom   32 type  2   force =     0.00000001   -0.00000001   -0.00001305
     atom   33 type  1   force =     0.00002118    0.00000754    0.00006737
     atom   34 type  1   force =     0.00000000    0.00001145    0.00004236
     atom   35 type  2   force =     0.00000699    0.00001006    0.00001549
     atom   36 type  2   force =     0.00000000    0.00000363   -0.00001099
     atom   37 type  1   force =    -0.00000000    0.00000000   -0.00004806
     atom   38 type  1   force =    -0.00001454    0.00000839   -0.00005013
     atom   39 type  2   force =    -0.00000000    0.00000000   -0.00002015
     atom   40 type  2   force =    -0.00000590    0.00000341   -0.00001019
     atom   41 type  1   force =    -0.00001518    0.00000518   -0.00002521
     atom   42 type  1   force =    -0.00000000    0.00000011   -0.00005736
     atom   43 type  2   force =    -0.00000683    0.00000194   -0.00002249
     atom   44 type  2   force =     0.00000000    0.00000366   -0.00000473
     atom   45 type  1   force =     0.00001518    0.00000518   -0.00002521
     atom   46 type  1   force =     0.00001454    0.00000839   -0.00005013
     atom   47 type  2   force =     0.00000683    0.00000194   -0.00002249
     atom   48 type  2   force =     0.00000590    0.00000341   -0.00001019
     atom   49 type  1   force =     0.00000311   -0.00001574   -0.00002521
     atom   50 type  1   force =    -0.00000000   -0.00001678   -0.00005013
     atom   51 type  2   force =     0.00000174   -0.00000688   -0.00002249
     atom   52 type  2   force =     0.00000000   -0.00000681   -0.00001019
     atom   53 type  1   force =    -0.00000311   -0.00001574   -0.00002521
     atom   54 type  1   force =    -0.00000951   -0.00000549   -0.00005570
     atom   55 type  2   force =    -0.00000174   -0.00000688   -0.00002249
     atom   56 type  2   force =    -0.00000260   -0.00000150   -0.00000773
     atom   57 type  1   force =     0.00000000    0.00000000   -0.00002936
     atom   58 type  1   force =     0.00000951   -0.00000549   -0.00005570
     atom   59 type  2   force =    -0.00000000    0.00000000   -0.00002262
     atom   60 type  2   force =     0.00000260   -0.00000150   -0.00000773
     atom   61 type  1   force =    -0.00001207    0.00001056   -0.00002521
     atom   62 type  1   force =    -0.00000009   -0.00000005   -0.00005736
     atom   63 type  2   force =    -0.00000509    0.00000494   -0.00002249
     atom   64 type  2   force =    -0.00000317   -0.00000183   -0.00000473
     atom   65 type  1   force =    -0.00000000   -0.00000000   -0.00003561
     atom   66 type  1   force =     0.00000009   -0.00000005   -0.00005736
     atom   67 type  2   force =    -0.00000000    0.00000000   -0.00002505
     atom   68 type  2   force =     0.00000317   -0.00000183   -0.00000473
     atom   69 type  1   force =     0.00001207    0.00001056   -0.00002521
     atom   70 type  1   force =     0.00000000    0.00001098   -0.00005570
     atom   71 type  2   force =     0.00000509    0.00000494   -0.00002249
     atom   72 type  2   force =     0.00000000    0.00000300   -0.00000773
     atom   73 type  1   force =     0.00000000    0.00000000   -0.00004016
     atom   74 type  1   force =    -0.00000380    0.00000219   -0.00000141
     atom   75 type  2   force =    -0.00000000    0.00000000    0.00000056
     atom   76 type  2   force =    -0.00001301    0.00000751    0.00003479
     atom   77 type  1   force =    -0.00000616    0.00000916   -0.00003080
     atom   78 type  1   force =     0.00000000    0.00000198   -0.00000075
     atom   79 type  2   force =    -0.00000116    0.00000102    0.00000298
     atom   80 type  2   force =     0.00000000    0.00000072    0.00001877
     atom   81 type  1   force =     0.00000616    0.00000916   -0.00003080
     atom   82 type  1   force =     0.00000380    0.00000219   -0.00000141
     atom   83 type  2   force =     0.00000116    0.00000102    0.00000298
     atom   84 type  2   force =     0.00001301    0.00000751    0.00003479
     atom   85 type  1   force =    -0.00000485   -0.00000991   -0.00003080
     atom   86 type  1   force =    -0.00000000   -0.00000439   -0.00000141
     atom   87 type  2   force =    -0.00000030   -0.00000152    0.00000298
     atom   88 type  2   force =     0.00000000   -0.00001502    0.00003479
     atom   89 type  1   force =     0.00000485   -0.00000991   -0.00003080
     atom   90 type  1   force =    -0.00000444   -0.00000256    0.00000749
     atom   91 type  2   force =     0.00000030   -0.00000152    0.00000298
     atom   92 type  2   force =    -0.00000424   -0.00000245    0.00002046
     atom   93 type  1   force =     0.00000000    0.00000000   -0.00002260
     atom   94 type  1   force =     0.00000444   -0.00000256    0.00000749
     atom   95 type  2   force =    -0.00000000    0.00000000    0.00000488
     atom   96 type  2   force =     0.00000424   -0.00000245    0.00002046
     atom   97 type  1   force =    -0.00001101    0.00000075   -0.00003080
     atom   98 type  1   force =    -0.00000171   -0.00000099   -0.00000075
     atom   99 type  2   force =    -0.00000146    0.00000050    0.00000298
     atom  100 type  2   force =    -0.00000062   -0.00000036    0.00001877
     atom  101 type  1   force =     0.00000000   -0.00000000   -0.00002925
     atom  102 type  1   force =     0.00000171   -0.00000099   -0.00000075
     atom  103 type  2   force =    -0.00000000   -0.00000000    0.00000546
     atom  104 type  2   force =     0.00000062   -0.00000036    0.00001877
     atom  105 type  1   force =     0.00001101    0.00000075   -0.00003080
     atom  106 type  1   force =     0.00000000    0.00000512    0.00000749
     atom  107 type  2   force =     0.00000146    0.00000050    0.00000298
     atom  108 type  2   force =     0.00000000    0.00000489    0.00002046

     Total force =     0.109496     Total SCF correction =     0.000377


     Computing stress (Cartesian axis) and pressure

          total   stress  (Ry/bohr**3)                   (kbar)     P=      -13.17
  -0.00008721   0.00000000   0.00000000          -12.83        0.00        0.00
   0.00000000  -0.00008721   0.00000000            0.00      -12.83        0.00
   0.00000000   0.00000000  -0.00009412            0.00        0.00      -13.85

     kinetic stress (kbar)  19631.72      0.00      0.00
                                0.00  19631.72      0.00
                                0.00      0.00  19617.67

     local   stress (kbar)   5554.09      0.00      0.00
                                0.00   5554.09     -0.00
                                0.00     -0.00   4100.03

     nonloc. stress (kbar)  -1146.91      0.00      0.00
                                0.00  -1146.91      0.00
                                0.00      0.00  -1132.03

     hartree stress (kbar)  19841.55     -0.00     -0.00
                               -0.00  19841.55      0.00
                               -0.00      0.00  20486.83

     exc-cor stress (kbar)   5034.75     -0.00      0.00
                               -0.00   5034.75      0.00
                                0.00      0.00   5035.18

     corecor stress (kbar) -13783.38      0.00      0.00
                                0.00 -13783.38     -0.00
                                0.00     -0.00 -13782.82

     ewald   stress (kbar) -35144.65      0.00     -0.00
                                0.00 -35144.65      0.00
                               -0.00      0.00 -34338.70

     hubbard stress (kbar)      0.00      0.00      0.00
                                0.00      0.00      0.00
                                0.00      0.00      0.00

     DFT-D   stress (kbar)      0.00      0.00      0.00
                                0.00      0.00      0.00
                                0.00      0.00      0.00

     XDM     stress (kbar)      0.00      0.00      0.00
                                0.00      0.00      0.00
                                0.00      0.00      0.00

     dft-nl  stress (kbar)      0.00      0.00      0.00
                                0.00      0.00      0.00
                                0.00      0.00      0.00

     TS-vdW  stress (kbar)      0.00      0.00      0.00
                                0.00      0.00      0.00
                                0.00      0.00      0.00

     MDB     stress (kbar)      0.00      0.00      0.00
                                0.00      0.00      0.00
                                0.00      0.00      0.00

     3D-RISM stress (kbar)      0.00      0.00      0.00
                                0.00      0.00      0.00
                                0.00      0.00      0.00


     Writing all to output data dir ./tmp/GaN.save/ :
     XML data file, charge density, pseudopotentials, collected wavefunctions
 
     init_run     :     25.98s CPU     28.27s WALL (       1 calls)
     electrons    :   1659.77s CPU   1723.88s WALL (       1 calls)
     forces       :     13.38s CPU     15.10s WALL (       1 calls)
     stress       :    317.58s CPU    320.72s WALL (       1 calls)

     Called by init_run:
     wfcinit      :     21.45s CPU     22.10s WALL (       1 calls)
     wfcinit:atom :      0.07s CPU      0.15s WALL (       2 calls)
     wfcinit:wfcr :     20.77s CPU     21.17s WALL (       2 calls)
     potinit      :      1.40s CPU      1.58s WALL (       1 calls)
     hinit0       :      0.37s CPU      0.51s WALL (       1 calls)

     Called by electrons:
     c_bands      :   1427.49s CPU   1455.32s WALL (      20 calls)
     sum_band     :    180.07s CPU    198.94s WALL (      20 calls)
     v_of_rho     :      8.10s CPU      8.77s WALL (      21 calls)
     v_h          :      0.75s CPU      0.76s WALL (      21 calls)
     v_xc         :      8.04s CPU      8.73s WALL (      23 calls)
     newd         :     28.91s CPU     46.38s WALL (      21 calls)
     PAW_pot      :     15.32s CPU     15.62s WALL (      21 calls)
     mix_rho      :      1.66s CPU      1.71s WALL (      20 calls)

     Called by c_bands:
     init_us_2    :      7.80s CPU      7.89s WALL (      86 calls)
     cegterg      :   1413.13s CPU   1440.66s WALL (      40 calls)

     Called by sum_band:
     sum_band:wei :      0.02s CPU      0.02s WALL (      20 calls)
     sum_band:loo :    144.78s CPU    145.99s WALL (      20 calls)
     sum_band:buf :      0.95s CPU      0.96s WALL (      40 calls)
     sum_band:ini :      3.63s CPU      3.63s WALL (      40 calls)
     sum_band:cal :     44.12s CPU     44.31s WALL (      40 calls)
     sum_band:bec :      0.29s CPU      0.29s WALL (      40 calls)
     addusdens    :     32.88s CPU     50.01s WALL (      20 calls)
                                        0.00s GPU  (      20 calls)
     addusd:skk   :      2.37s CPU      6.20s WALL (      60 calls)
                                        0.00s GPU  (      60 calls)

     Called by *egterg:
     cdiaghg      :    127.65s CPU    132.71s WALL (     324 calls)
     cegterg:over :    129.87s CPU    132.13s WALL (     284 calls)
     cegterg:upda :     89.37s CPU     92.18s WALL (     284 calls)
     cegterg:last :    217.96s CPU    218.70s WALL (     120 calls)
     cdiaghg:chol :      3.50s CPU      4.62s WALL (     324 calls)
     cdiaghg:inve :      1.44s CPU      1.84s WALL (     324 calls)
     cdiaghg:para :     23.52s CPU     24.26s WALL (     648 calls)
     h_psi        :    689.32s CPU    698.87s WALL (     326 calls)
     s_psi        :    144.27s CPU    145.15s WALL (     326 calls)
     g_psi        :      1.42s CPU      1.42s WALL (     284 calls)

     Called by h_psi:
     h_psi:calbec :    146.55s CPU    147.06s WALL (     326 calls)
     vloc_psi     :    395.87s CPU    401.50s WALL (     326 calls)
     add_vuspsi   :    144.44s CPU    145.58s WALL (     326 calls)

     General routines
     calbec       :    202.31s CPU    203.09s WALL (     376 calls)
     fft          :      5.94s CPU      6.25s WALL (     296 calls)
     ffts         :      0.15s CPU      0.15s WALL (      41 calls)
     fftw         :    248.38s CPU    252.06s WALL (  153862 calls)
     interpolate  :      0.55s CPU      0.59s WALL (      21 calls)
 
     Parallel routines

     PAW routines
     PAW_pot      :     15.32s CPU     15.62s WALL (      21 calls)
     PAW_symme    :      0.02s CPU      0.02s WALL (      41 calls)
 
     PWSCF        :  33m38.12s CPU  34m52.95s WALL

 
   This run was terminated on:   2:21:34   6Aug2026            

=------------------------------------------------------------------------------=
   JOB DONE.
=------------------------------------------------------------------------------=
