
     Program PWSCF v.7.3.1 starts on 30Aug2026 at 11:51:57 

     This program is part of the open-source Quantum ESPRESSO suite
     for quantum simulation of materials; please cite
         "P. Giannozzi et al., J. Phys.:Condens. Matter 21 395502 (2009);
         "P. Giannozzi et al., J. Phys.:Condens. Matter 29 465901 (2017);
         "P. Giannozzi et al., J. Chem. Phys. 152 154105 (2020);
          URL http://www.quantum-espresso.org", 
     in publications or presentations arising from this work. More details at
     http://www.quantum-espresso.org/quote

     Parallel version (MPI & OpenMP), running on      12 processor cores
     Number of MPI processes:                12
     Threads/MPI process:                     1

     MPI processes distributed on     1 nodes
     120682 MiB available memory on the printing compute node when the environment starts
 
     Waiting for input...
     Reading input from standard input

     Current dimensions of program PWSCF are:
     Max number of different atomic species (ntypx) = 10
     Max number of k-points (npk) =  40000
     Max angular momentum in pseudopotentials (lmaxx) =  4
     file Ga.pbe-dn-kjpaw_psl.1.0.0.UPF: wavefunction(s)  4S renormalized
     file N.pbe-n-kjpaw_psl.1.0.0.UPF: wavefunction(s)  2S renormalized
     file C.pbe-n-kjpaw_psl.1.0.0.UPF: wavefunction(s)  2S 2P renormalized
     Message from routine setup:
     using ibrav=0 with symmetry is DISCOURAGED, use correct ibrav instead
 
     R & G space division:  proc/nbgrp/npool/nimage =      12
     Subspace diagonalization in iterative solution of the eigenvalue problem:
     one sub-group per band group will be used
     custom distributed-memory algorithm (size of sub-group:  3*  3 procs)

 
     Parallelization info
     --------------------
     sticks:   dense  smooth     PW     G-vecs:    dense   smooth      PW
     Min         955     382    102               135143    34186    4687
     Max         956     383    104               135146    34191    4688
     Sum       11461    4591   1237              1621723   410263   56253
 
     Using Slab Decomposition
 


     bravais-lattice index     =            0
     lattice parameter (alat)  =      18.2548  a.u.
     unit-cell volume          =    8589.3845 (a.u.)^3
     number of atoms/cell      =          108
     number of atomic types    =            3
     number of electrons       =       971.00
     number of Kohn-Sham states=          513
     kinetic-energy cutoff     =      50.0000  Ry
     charge density cutoff     =     500.0000  Ry
     scf convergence threshold =      1.0E-08
     mixing beta               =       0.7000
     number of iterations used =            8  plain     mixing
     Exchange-correlation= SLA  PW   PBX  PBC
                           (   1   4   3   4   0   0   0)

     celldm(1)=  18.254754  celldm(2)=   0.000000  celldm(3)=   0.000000
     celldm(4)=   0.000000  celldm(5)=   0.000000  celldm(6)=   0.000000

     crystal axes: (cart. coord. in units of alat)
               a(1) = (   1.000000   0.000000   0.000000 )  
               a(2) = (  -0.500000   0.866025   0.000000 )  
               a(3) = (   0.000000   0.000000   1.630435 )  

     reciprocal axes: (cart. coord. in units 2 pi/alat)
               b(1) = (  1.000000  0.577350  0.000000 )  
               b(2) = (  0.000000  1.154701  0.000000 )  
               b(3) = (  0.000000  0.000000  0.613333 )  


     PseudoPot. # 1 for Ga read from file:
     /data-fast/greenano/Students/cohort2/rojassan/Project_GaN/PSEUDO/Ga.pbe-dn-kjpaw_psl.1.0.0.UPF
     MD5 check sum: 93aceff68ec27daa0acc11ebb2e245f0
     Pseudo is Projector augmented-wave + core cor, Zval = 13.0
     Generated using 'atomic' code by A. Dal Corso  v.7.3.1
     Shape of augmentation charge: PSQ
     Using radial grid of 1205 points,  6 beta functions with: 
                l(1) =   0
                l(2) =   0
                l(3) =   1
                l(4) =   1
                l(5) =   2
                l(6) =   2
     Q(r) pseudized with 0 coefficients 


     PseudoPot. # 2 for N  read from file:
     /data-fast/greenano/Students/cohort2/rojassan/Project_GaN/PSEUDO/N.pbe-n-kjpaw_psl.1.0.0.UPF
     MD5 check sum: 86f48117b7e7b472c01f85d0863ba463
     Pseudo is Projector augmented-wave + core cor, Zval =  5.0
     Generated using 'atomic' code by A. Dal Corso  v.7.3.1
     Shape of augmentation charge: PSQ
     Using radial grid of 1085 points,  4 beta functions with: 
                l(1) =   0
                l(2) =   0
                l(3) =   1
                l(4) =   1
     Q(r) pseudized with 0 coefficients 


     PseudoPot. # 3 for C  read from file:
     /data-fast/greenano/Students/cohort2/rojassan/Project_GaN/PSEUDO/C.pbe-n-kjpaw_psl.1.0.0.UPF
     MD5 check sum: 6e4988b7a1fe6f06f65aa0569fb69d66
     Pseudo is Projector augmented-wave + core cor, Zval =  4.0
     Generated using 'atomic' code by A. Dal Corso  v.7.3.1
     Shape of augmentation charge: PSQ
     Using radial grid of 1073 points,  4 beta functions with: 
                l(1) =   0
                l(2) =   0
                l(3) =   1
                l(4) =   1
     Q(r) pseudized with 0 coefficients 


     atomic species   valence    mass     pseudopotential
     Ga               13.00    69.72300     Ga( 1.00)
     N                 5.00    14.00700     N ( 1.00)
     C                 4.00    12.01100     C ( 1.00)

     Starting magnetic structure 
     atomic species   magnetization
     Ga              0.000
     N               0.000
     C               0.500

      6 Sym. Ops. (no inversion) found ( 4 have fractional translation)


                                    s                        frac. trans.

      isym =  1     identity                                     

 cryst.   s( 1) = (     1          0          0      )
                  (     0          1          0      )
                  (     0          0          1      )

 cart.    s( 1) = (  1.0000000  0.0000000  0.0000000 )
                  (  0.0000000  1.0000000  0.0000000 )
                  (  0.0000000  0.0000000  1.0000000 )


      isym =  2     120 deg rotation - cryst. axis [0,0,1]       

 cryst.   s( 2) = (     0          1          0      )    f =( -0.3333333 )
                  (    -1         -1          0      )       ( -0.3333333 )
                  (     0          0          1      )       (  0.0000000 )

 cart.    s( 2) = ( -0.5000000 -0.8660254  0.0000000 )    f =( -0.1666667 )
                  (  0.8660254 -0.5000000  0.0000000 )       ( -0.2886751 )
                  (  0.0000000  0.0000000  1.0000000 )       (  0.0000000 )


      isym =  3     120 deg rotation - cryst. axis [0,0,-1]      

 cryst.   s( 3) = (    -1         -1          0      )    f =(  0.0000000 )
                  (     1          0          0      )       ( -0.3333333 )
                  (     0          0          1      )       (  0.0000000 )

 cart.    s( 3) = ( -0.5000000  0.8660254  0.0000000 )    f =(  0.1666667 )
                  ( -0.8660254 -0.5000000  0.0000000 )       ( -0.2886751 )
                  (  0.0000000  0.0000000  1.0000000 )       (  0.0000000 )


      isym =  4     inv. 180 deg rotation - cart. axis [1,0,0]   

 cryst.   s( 4) = (    -1          0          0      )
                  (     1          1          0      )
                  (     0          0          1      )

 cart.    s( 4) = ( -1.0000000  0.0000000  0.0000000 )
                  (  0.0000000  1.0000000  0.0000000 )
                  (  0.0000000  0.0000000  1.0000000 )


      isym =  5     inv. 180 deg rotation - cryst. axis [0,1,0]  

 cryst.   s( 5) = (     1          1          0      )    f =(  0.0000000 )
                  (     0         -1          0      )       ( -0.3333333 )
                  (     0          0          1      )       (  0.0000000 )

 cart.    s( 5) = (  0.5000000  0.8660254  0.0000000 )    f =(  0.1666667 )
                  (  0.8660254 -0.5000000  0.0000000 )       ( -0.2886751 )
                  (  0.0000000  0.0000000  1.0000000 )       (  0.0000000 )


      isym =  6     inv. 180 deg rotation - cryst. axis [1,1,0]  

 cryst.   s( 6) = (     0         -1          0      )    f =( -0.3333333 )
                  (    -1          0          0      )       ( -0.3333333 )
                  (     0          0          1      )       (  0.0000000 )

 cart.    s( 6) = (  0.5000000 -0.8660254  0.0000000 )    f =( -0.1666667 )
                  ( -0.8660254 -0.5000000  0.0000000 )       ( -0.2886751 )
                  (  0.0000000  0.0000000  1.0000000 )       (  0.0000000 )


   Cartesian axes

     site n.     atom                  positions (alat units)
         1        Ga     tau(   1) = (   0.0000000   0.1924501   0.0000000  )
         2        Ga     tau(   2) = (   0.1666667   0.0962250   0.2717391  )
         3        C      tau(   3) = (   0.0000000   0.1924501   0.2045554  )
         4        N      tau(   4) = (   0.1666667   0.0962250   0.4762946  )
         5        Ga     tau(   5) = (   0.3333333   0.1924501   0.0000000  )
         6        Ga     tau(   6) = (   0.5000000   0.0962250   0.2717391  )
         7        N      tau(   7) = (   0.3333333   0.1924501   0.2045554  )
         8        N      tau(   8) = (   0.5000000   0.0962250   0.4762946  )
         9        Ga     tau(   9) = (   0.6666667   0.1924501   0.0000000  )
        10        Ga     tau(  10) = (   0.8333333   0.0962250   0.2717391  )
        11        N      tau(  11) = (   0.6666667   0.1924501   0.2045554  )
        12        N      tau(  12) = (   0.8333333   0.0962250   0.4762946  )
        13        Ga     tau(  13) = (  -0.1666667   0.4811252   0.0000000  )
        14        Ga     tau(  14) = (   0.0000000   0.3849002   0.2717391  )
        15        N      tau(  15) = (  -0.1666667   0.4811252   0.2045554  )
        16        N      tau(  16) = (   0.0000000   0.3849002   0.4762946  )
        17        Ga     tau(  17) = (   0.1666667   0.4811252   0.0000000  )
        18        Ga     tau(  18) = (   0.3333333   0.3849002   0.2717391  )
        19        N      tau(  19) = (   0.1666667   0.4811252   0.2045554  )
        20        N      tau(  20) = (   0.3333333   0.3849002   0.4762946  )
        21        Ga     tau(  21) = (   0.5000000   0.4811252   0.0000000  )
        22        Ga     tau(  22) = (   0.6666667   0.3849002   0.2717391  )
        23        N      tau(  23) = (   0.5000000   0.4811252   0.2045554  )
        24        N      tau(  24) = (   0.6666667   0.3849002   0.4762946  )
        25        Ga     tau(  25) = (  -0.3333333   0.7698004   0.0000000  )
        26        Ga     tau(  26) = (  -0.1666667   0.6735753   0.2717391  )
        27        N      tau(  27) = (  -0.3333333   0.7698004   0.2045554  )
        28        N      tau(  28) = (  -0.1666667   0.6735753   0.4762946  )
        29        Ga     tau(  29) = (   0.0000000   0.7698004   0.0000000  )
        30        Ga     tau(  30) = (   0.1666667   0.6735753   0.2717391  )
        31        N      tau(  31) = (   0.0000000   0.7698004   0.2045554  )
        32        N      tau(  32) = (   0.1666667   0.6735753   0.4762946  )
        33        Ga     tau(  33) = (   0.3333333   0.7698004   0.0000000  )
        34        Ga     tau(  34) = (   0.5000000   0.6735753   0.2717391  )
        35        N      tau(  35) = (   0.3333333   0.7698004   0.2045554  )
        36        N      tau(  36) = (   0.5000000   0.6735753   0.4762946  )
        37        Ga     tau(  37) = (   0.0000000   0.1924501   0.5434783  )
        38        Ga     tau(  38) = (   0.1666667   0.0962250   0.8152174  )
        39        N      tau(  39) = (   0.0000000   0.1924501   0.7480337  )
        40        N      tau(  40) = (   0.1666667   0.0962250   1.0197728  )
        41        Ga     tau(  41) = (   0.3333333   0.1924501   0.5434783  )
        42        Ga     tau(  42) = (   0.5000000   0.0962250   0.8152174  )
        43        N      tau(  43) = (   0.3333333   0.1924501   0.7480337  )
        44        N      tau(  44) = (   0.5000000   0.0962250   1.0197728  )
        45        Ga     tau(  45) = (   0.6666667   0.1924501   0.5434783  )
        46        Ga     tau(  46) = (   0.8333333   0.0962250   0.8152174  )
        47        N      tau(  47) = (   0.6666667   0.1924501   0.7480337  )
        48        N      tau(  48) = (   0.8333333   0.0962250   1.0197728  )
        49        Ga     tau(  49) = (  -0.1666667   0.4811252   0.5434783  )
        50        Ga     tau(  50) = (   0.0000000   0.3849002   0.8152174  )
        51        N      tau(  51) = (  -0.1666667   0.4811252   0.7480337  )
        52        N      tau(  52) = (   0.0000000   0.3849002   1.0197728  )
        53        Ga     tau(  53) = (   0.1666667   0.4811252   0.5434783  )
        54        Ga     tau(  54) = (   0.3333333   0.3849002   0.8152174  )
        55        N      tau(  55) = (   0.1666667   0.4811252   0.7480337  )
        56        N      tau(  56) = (   0.3333333   0.3849002   1.0197728  )
        57        Ga     tau(  57) = (   0.5000000   0.4811252   0.5434783  )
        58        Ga     tau(  58) = (   0.6666667   0.3849002   0.8152174  )
        59        N      tau(  59) = (   0.5000000   0.4811252   0.7480337  )
        60        N      tau(  60) = (   0.6666667   0.3849002   1.0197728  )
        61        Ga     tau(  61) = (  -0.3333333   0.7698004   0.5434783  )
        62        Ga     tau(  62) = (  -0.1666667   0.6735753   0.8152174  )
        63        N      tau(  63) = (  -0.3333333   0.7698004   0.7480337  )
        64        N      tau(  64) = (  -0.1666667   0.6735753   1.0197728  )
        65        Ga     tau(  65) = (   0.0000000   0.7698004   0.5434783  )
        66        Ga     tau(  66) = (   0.1666667   0.6735753   0.8152174  )
        67        N      tau(  67) = (   0.0000000   0.7698004   0.7480337  )
        68        N      tau(  68) = (   0.1666667   0.6735753   1.0197728  )
        69        Ga     tau(  69) = (   0.3333333   0.7698004   0.5434783  )
        70        Ga     tau(  70) = (   0.5000000   0.6735753   0.8152174  )
        71        N      tau(  71) = (   0.3333333   0.7698004   0.7480337  )
        72        N      tau(  72) = (   0.5000000   0.6735753   1.0197728  )
        73        Ga     tau(  73) = (   0.0000000   0.1924501   1.0869565  )
        74        Ga     tau(  74) = (   0.1666667   0.0962250   1.3586957  )
        75        N      tau(  75) = (   0.0000000   0.1924501   1.2915120  )
        76        N      tau(  76) = (   0.1666667   0.0962250   1.5632511  )
        77        Ga     tau(  77) = (   0.3333333   0.1924501   1.0869565  )
        78        Ga     tau(  78) = (   0.5000000   0.0962250   1.3586957  )
        79        N      tau(  79) = (   0.3333333   0.1924501   1.2915120  )
        80        N      tau(  80) = (   0.5000000   0.0962250   1.5632511  )
        81        Ga     tau(  81) = (   0.6666667   0.1924501   1.0869565  )
        82        Ga     tau(  82) = (   0.8333333   0.0962250   1.3586957  )
        83        N      tau(  83) = (   0.6666667   0.1924501   1.2915120  )
        84        N      tau(  84) = (   0.8333333   0.0962250   1.5632511  )
        85        Ga     tau(  85) = (  -0.1666667   0.4811252   1.0869565  )
        86        Ga     tau(  86) = (   0.0000000   0.3849002   1.3586957  )
        87        N      tau(  87) = (  -0.1666667   0.4811252   1.2915120  )
        88        N      tau(  88) = (   0.0000000   0.3849002   1.5632511  )
        89        Ga     tau(  89) = (   0.1666667   0.4811252   1.0869565  )
        90        Ga     tau(  90) = (   0.3333333   0.3849002   1.3586957  )
        91        N      tau(  91) = (   0.1666667   0.4811252   1.2915120  )
        92        N      tau(  92) = (   0.3333333   0.3849002   1.5632511  )
        93        Ga     tau(  93) = (   0.5000000   0.4811252   1.0869565  )
        94        Ga     tau(  94) = (   0.6666667   0.3849002   1.3586957  )
        95        N      tau(  95) = (   0.5000000   0.4811252   1.2915120  )
        96        N      tau(  96) = (   0.6666667   0.3849002   1.5632511  )
        97        Ga     tau(  97) = (  -0.3333333   0.7698004   1.0869565  )
        98        Ga     tau(  98) = (  -0.1666667   0.6735753   1.3586957  )
        99        N      tau(  99) = (  -0.3333333   0.7698004   1.2915120  )
       100        N      tau( 100) = (  -0.1666667   0.6735753   1.5632511  )
       101        Ga     tau( 101) = (   0.0000000   0.7698004   1.0869565  )
       102        Ga     tau( 102) = (   0.1666667   0.6735753   1.3586957  )
       103        N      tau( 103) = (   0.0000000   0.7698004   1.2915120  )
       104        N      tau( 104) = (   0.1666667   0.6735753   1.5632511  )
       105        Ga     tau( 105) = (   0.3333333   0.7698004   1.0869565  )
       106        Ga     tau( 106) = (   0.5000000   0.6735753   1.3586957  )
       107        N      tau( 107) = (   0.3333333   0.7698004   1.2915120  )
       108        N      tau( 108) = (   0.5000000   0.6735753   1.5632511  )

   Crystallographic axes

     site n.     atom                  positions (cryst. coord.)
         1        Ga     tau(   1) = (  0.1111111  0.2222222  0.0000000  )
         2        Ga     tau(   2) = (  0.2222222  0.1111111  0.1666667  )
         3        C      tau(   3) = (  0.1111111  0.2222222  0.1254607  )
         4        N      tau(   4) = (  0.2222222  0.1111111  0.2921273  )
         5        Ga     tau(   5) = (  0.4444444  0.2222222  0.0000000  )
         6        Ga     tau(   6) = (  0.5555556  0.1111111  0.1666667  )
         7        N      tau(   7) = (  0.4444444  0.2222222  0.1254607  )
         8        N      tau(   8) = (  0.5555556  0.1111111  0.2921273  )
         9        Ga     tau(   9) = (  0.7777778  0.2222222  0.0000000  )
        10        Ga     tau(  10) = (  0.8888889  0.1111111  0.1666667  )
        11        N      tau(  11) = (  0.7777778  0.2222222  0.1254607  )
        12        N      tau(  12) = (  0.8888889  0.1111111  0.2921273  )
        13        Ga     tau(  13) = (  0.1111111  0.5555556  0.0000000  )
        14        Ga     tau(  14) = (  0.2222222  0.4444444  0.1666667  )
        15        N      tau(  15) = (  0.1111111  0.5555556  0.1254607  )
        16        N      tau(  16) = (  0.2222222  0.4444444  0.2921273  )
        17        Ga     tau(  17) = (  0.4444444  0.5555556  0.0000000  )
        18        Ga     tau(  18) = (  0.5555556  0.4444444  0.1666667  )
        19        N      tau(  19) = (  0.4444444  0.5555556  0.1254607  )
        20        N      tau(  20) = (  0.5555556  0.4444444  0.2921273  )
        21        Ga     tau(  21) = (  0.7777778  0.5555556  0.0000000  )
        22        Ga     tau(  22) = (  0.8888889  0.4444444  0.1666667  )
        23        N      tau(  23) = (  0.7777778  0.5555556  0.1254607  )
        24        N      tau(  24) = (  0.8888889  0.4444444  0.2921273  )
        25        Ga     tau(  25) = (  0.1111111  0.8888889  0.0000000  )
        26        Ga     tau(  26) = (  0.2222222  0.7777778  0.1666667  )
        27        N      tau(  27) = (  0.1111111  0.8888889  0.1254607  )
        28        N      tau(  28) = (  0.2222222  0.7777778  0.2921273  )
        29        Ga     tau(  29) = (  0.4444444  0.8888889  0.0000000  )
        30        Ga     tau(  30) = (  0.5555556  0.7777778  0.1666667  )
        31        N      tau(  31) = (  0.4444444  0.8888889  0.1254607  )
        32        N      tau(  32) = (  0.5555556  0.7777778  0.2921273  )
        33        Ga     tau(  33) = (  0.7777778  0.8888889  0.0000000  )
        34        Ga     tau(  34) = (  0.8888889  0.7777778  0.1666667  )
        35        N      tau(  35) = (  0.7777778  0.8888889  0.1254607  )
        36        N      tau(  36) = (  0.8888889  0.7777778  0.2921273  )
        37        Ga     tau(  37) = (  0.1111111  0.2222222  0.3333333  )
        38        Ga     tau(  38) = (  0.2222222  0.1111111  0.5000000  )
        39        N      tau(  39) = (  0.1111111  0.2222222  0.4587940  )
        40        N      tau(  40) = (  0.2222222  0.1111111  0.6254607  )
        41        Ga     tau(  41) = (  0.4444444  0.2222222  0.3333333  )
        42        Ga     tau(  42) = (  0.5555556  0.1111111  0.5000000  )
        43        N      tau(  43) = (  0.4444444  0.2222222  0.4587940  )
        44        N      tau(  44) = (  0.5555556  0.1111111  0.6254607  )
        45        Ga     tau(  45) = (  0.7777778  0.2222222  0.3333333  )
        46        Ga     tau(  46) = (  0.8888889  0.1111111  0.5000000  )
        47        N      tau(  47) = (  0.7777778  0.2222222  0.4587940  )
        48        N      tau(  48) = (  0.8888889  0.1111111  0.6254607  )
        49        Ga     tau(  49) = (  0.1111111  0.5555556  0.3333333  )
        50        Ga     tau(  50) = (  0.2222222  0.4444444  0.5000000  )
        51        N      tau(  51) = (  0.1111111  0.5555556  0.4587940  )
        52        N      tau(  52) = (  0.2222222  0.4444444  0.6254607  )
        53        Ga     tau(  53) = (  0.4444444  0.5555556  0.3333333  )
        54        Ga     tau(  54) = (  0.5555556  0.4444444  0.5000000  )
        55        N      tau(  55) = (  0.4444444  0.5555556  0.4587940  )
        56        N      tau(  56) = (  0.5555556  0.4444444  0.6254607  )
        57        Ga     tau(  57) = (  0.7777778  0.5555556  0.3333333  )
        58        Ga     tau(  58) = (  0.8888889  0.4444444  0.5000000  )
        59        N      tau(  59) = (  0.7777778  0.5555556  0.4587940  )
        60        N      tau(  60) = (  0.8888889  0.4444444  0.6254607  )
        61        Ga     tau(  61) = (  0.1111111  0.8888889  0.3333333  )
        62        Ga     tau(  62) = (  0.2222222  0.7777778  0.5000000  )
        63        N      tau(  63) = (  0.1111111  0.8888889  0.4587940  )
        64        N      tau(  64) = (  0.2222222  0.7777778  0.6254607  )
        65        Ga     tau(  65) = (  0.4444444  0.8888889  0.3333333  )
        66        Ga     tau(  66) = (  0.5555556  0.7777778  0.5000000  )
        67        N      tau(  67) = (  0.4444444  0.8888889  0.4587940  )
        68        N      tau(  68) = (  0.5555556  0.7777778  0.6254607  )
        69        Ga     tau(  69) = (  0.7777778  0.8888889  0.3333333  )
        70        Ga     tau(  70) = (  0.8888889  0.7777778  0.5000000  )
        71        N      tau(  71) = (  0.7777778  0.8888889  0.4587940  )
        72        N      tau(  72) = (  0.8888889  0.7777778  0.6254607  )
        73        Ga     tau(  73) = (  0.1111111  0.2222222  0.6666667  )
        74        Ga     tau(  74) = (  0.2222222  0.1111111  0.8333333  )
        75        N      tau(  75) = (  0.1111111  0.2222222  0.7921273  )
        76        N      tau(  76) = (  0.2222222  0.1111111  0.9587940  )
        77        Ga     tau(  77) = (  0.4444444  0.2222222  0.6666667  )
        78        Ga     tau(  78) = (  0.5555556  0.1111111  0.8333333  )
        79        N      tau(  79) = (  0.4444444  0.2222222  0.7921273  )
        80        N      tau(  80) = (  0.5555556  0.1111111  0.9587940  )
        81        Ga     tau(  81) = (  0.7777778  0.2222222  0.6666667  )
        82        Ga     tau(  82) = (  0.8888889  0.1111111  0.8333333  )
        83        N      tau(  83) = (  0.7777778  0.2222222  0.7921273  )
        84        N      tau(  84) = (  0.8888889  0.1111111  0.9587940  )
        85        Ga     tau(  85) = (  0.1111111  0.5555556  0.6666667  )
        86        Ga     tau(  86) = (  0.2222222  0.4444444  0.8333333  )
        87        N      tau(  87) = (  0.1111111  0.5555556  0.7921273  )
        88        N      tau(  88) = (  0.2222222  0.4444444  0.9587940  )
        89        Ga     tau(  89) = (  0.4444444  0.5555556  0.6666667  )
        90        Ga     tau(  90) = (  0.5555556  0.4444444  0.8333333  )
        91        N      tau(  91) = (  0.4444444  0.5555556  0.7921273  )
        92        N      tau(  92) = (  0.5555556  0.4444444  0.9587940  )
        93        Ga     tau(  93) = (  0.7777778  0.5555556  0.6666667  )
        94        Ga     tau(  94) = (  0.8888889  0.4444444  0.8333333  )
        95        N      tau(  95) = (  0.7777778  0.5555556  0.7921273  )
        96        N      tau(  96) = (  0.8888889  0.4444444  0.9587940  )
        97        Ga     tau(  97) = (  0.1111111  0.8888889  0.6666667  )
        98        Ga     tau(  98) = (  0.2222222  0.7777778  0.8333333  )
        99        N      tau(  99) = (  0.1111111  0.8888889  0.7921273  )
       100        N      tau( 100) = (  0.2222222  0.7777778  0.9587940  )
       101        Ga     tau( 101) = (  0.4444444  0.8888889  0.6666667  )
       102        Ga     tau( 102) = (  0.5555556  0.7777778  0.8333333  )
       103        N      tau( 103) = (  0.4444444  0.8888889  0.7921273  )
       104        N      tau( 104) = (  0.5555556  0.7777778  0.9587940  )
       105        Ga     tau( 105) = (  0.7777778  0.8888889  0.6666667  )
       106        Ga     tau( 106) = (  0.8888889  0.7777778  0.8333333  )
       107        N      tau( 107) = (  0.7777778  0.8888889  0.7921273  )
       108        N      tau( 108) = (  0.8888889  0.7777778  0.9587940  )

     number of k points=     8  Gaussian smearing, width (Ry)=  0.0080
                       cart. coord. in units 2pi/alat
        k(    1) = (   0.0000000   0.0000000   0.0000000), wk =   0.0312500
        k(    2) = (   0.0000000   0.0000000  -0.3066667), wk =   0.0312500
        k(    3) = (   0.0000000   0.2886751   0.0000000), wk =   0.1875000
        k(    4) = (   0.0000000   0.2886751  -0.3066667), wk =   0.1875000
        k(    5) = (   0.0000000  -0.5773503   0.0000000), wk =   0.0937500
        k(    6) = (   0.0000000  -0.5773503  -0.3066667), wk =   0.0937500
        k(    7) = (   0.2500000   0.4330127   0.0000000), wk =   0.1875000
        k(    8) = (   0.2500000   0.4330127  -0.3066667), wk =   0.1875000

                       cryst. coord.
        k(    1) = (   0.0000000   0.0000000   0.0000000), wk =   0.0312500
        k(    2) = (   0.0000000   0.0000000  -0.5000000), wk =   0.0312500
        k(    3) = (   0.0000000   0.2500000   0.0000000), wk =   0.1875000
        k(    4) = (   0.0000000   0.2500000  -0.5000000), wk =   0.1875000
        k(    5) = (   0.0000000  -0.5000000   0.0000000), wk =   0.0937500
        k(    6) = (   0.0000000  -0.5000000  -0.5000000), wk =   0.0937500
        k(    7) = (   0.2500000   0.2500000   0.0000000), wk =   0.1875000
        k(    8) = (   0.2500000   0.2500000  -0.5000000), wk =   0.1875000

     Dense  grid:  1621723 G-vectors     FFT dimensions: ( 135, 135, 216)

     Smooth grid:   410263 G-vectors     FFT dimensions: (  90,  90, 135)

     Dynamical RAM for                 wfc:      33.45 MB

     Dynamical RAM for     wfc (w. buffer):     568.62 MB

     Dynamical RAM for           str. fact:       6.19 MB

     Dynamical RAM for           local pot:       0.00 MB

     Dynamical RAM for          nlocal pot:      91.54 MB

     Dynamical RAM for                qrad:       5.38 MB

     Dynamical RAM for          rho,v,vnew:      27.39 MB

     Dynamical RAM for               rhoin:       9.13 MB

     Dynamical RAM for            rho*nmix:      65.99 MB

     Dynamical RAM for           G-vectors:       7.99 MB

     Dynamical RAM for          h,s,v(r/c):       5.35 MB

     Dynamical RAM for          <psi|beta>:      10.99 MB

     Dynamical RAM for                 psi:      66.90 MB

     Dynamical RAM for                hpsi:      66.90 MB

     Dynamical RAM for                spsi:      66.90 MB

     Dynamical RAM for      wfcinit/wfcrot:     102.83 MB

     Dynamical RAM for           addusdens:     496.97 MB

     Dynamical RAM for          addusforce:     715.98 MB

     Estimated static dynamical RAM per process >     739.51 MB

     Estimated max dynamical RAM per process >       1.49 GB

     Estimated total dynamical RAM >      17.83 GB
     Generating pointlists ...
     new r_m :   0.0841 (alat units)  1.5349 (a.u.) for type    1
     new r_m :   0.0841 (alat units)  1.5349 (a.u.) for type    2
     new r_m :   0.0841 (alat units)  1.5349 (a.u.) for type    3

     Initial potential from superposition of free atoms

     starting charge     970.8401, renormalised to     971.0000
     Starting wfcs are  702 randomized atomic wfcs
     Checking if some PAW data can be deallocated... 
       PAW data deallocated on   11 nodes for type:  3

     total cpu time spent up to now is       98.9 secs

     Self-consistent Calculation

     iteration #  1     ecut=    50.00 Ry     beta= 0.70
     Davidson diagonalization with overlap

---- Real-time Memory Report at c_bands before calling an iterative solver
          1069 MiB given to the printing process from OS
             0 MiB allocation reported by mallinfo(arena+hblkhd)
        109353 MiB available memory on the node where the printing process lives
------------------
     ethr =  1.00E-02,  avg # of iterations =  2.0

     total cpu time spent up to now is      314.0 secs

     total energy              =  -16505.05442497 Ry
     estimated scf accuracy    <      29.93383131 Ry

     total magnetization       =     1.00 Bohr mag/cell
     absolute magnetization    =     2.54 Bohr mag/cell

     iteration #  2     ecut=    50.00 Ry     beta= 0.70
     Davidson diagonalization with overlap

---- Real-time Memory Report at c_bands before calling an iterative solver
          1550 MiB given to the printing process from OS
             0 MiB allocation reported by mallinfo(arena+hblkhd)
        110113 MiB available memory on the node where the printing process lives
------------------
     ethr =  3.08E-03,  avg # of iterations =  6.1

     total cpu time spent up to now is      675.3 secs

     total energy              =  -16517.03794067 Ry
     estimated scf accuracy    <      38.41229767 Ry

     total magnetization       =     0.12 Bohr mag/cell
     absolute magnetization    =     0.92 Bohr mag/cell

     iteration #  3     ecut=    50.00 Ry     beta= 0.70
     Davidson diagonalization with overlap

---- Real-time Memory Report at c_bands before calling an iterative solver
          1685 MiB given to the printing process from OS
             0 MiB allocation reported by mallinfo(arena+hblkhd)
        109147 MiB available memory on the node where the printing process lives
------------------
     ethr =  3.08E-03,  avg # of iterations =  2.6

     total cpu time spent up to now is      928.4 secs

     total energy              =  -16524.10062748 Ry
     estimated scf accuracy    <       1.22149628 Ry

     total magnetization       =     0.98 Bohr mag/cell
     absolute magnetization    =     1.43 Bohr mag/cell

     iteration #  4     ecut=    50.00 Ry     beta= 0.70
     Davidson diagonalization with overlap

---- Real-time Memory Report at c_bands before calling an iterative solver
          1685 MiB given to the printing process from OS
             0 MiB allocation reported by mallinfo(arena+hblkhd)
        109200 MiB available memory on the node where the printing process lives
------------------
     c_bands:  4 eigenvalues not converged
     c_bands:  3 eigenvalues not converged
     ethr =  1.26E-04,  avg # of iterations = 11.8

     total cpu time spent up to now is     1441.9 secs

     total energy              =  -16525.25978911 Ry
     estimated scf accuracy    <       0.81846583 Ry

     total magnetization       =     0.30 Bohr mag/cell
     absolute magnetization    =     0.74 Bohr mag/cell

     iteration #  5     ecut=    50.00 Ry     beta= 0.70
     Davidson diagonalization with overlap

---- Real-time Memory Report at c_bands before calling an iterative solver
          1702 MiB given to the printing process from OS
             0 MiB allocation reported by mallinfo(arena+hblkhd)
        108884 MiB available memory on the node where the printing process lives
------------------
     ethr =  8.43E-05,  avg # of iterations =  3.0

     total cpu time spent up to now is     1665.7 secs

     total energy              =  -16525.31177003 Ry
     estimated scf accuracy    <       0.32645601 Ry

     total magnetization       =     0.79 Bohr mag/cell
     absolute magnetization    =     1.09 Bohr mag/cell

     iteration #  6     ecut=    50.00 Ry     beta= 0.70
     Davidson diagonalization with overlap

---- Real-time Memory Report at c_bands before calling an iterative solver
          1702 MiB given to the printing process from OS
             0 MiB allocation reported by mallinfo(arena+hblkhd)
        108979 MiB available memory on the node where the printing process lives
------------------
     c_bands:  3 eigenvalues not converged
     c_bands:  3 eigenvalues not converged
     c_bands:  2 eigenvalues not converged
     c_bands:  4 eigenvalues not converged
     c_bands:  1 eigenvalues not converged
     c_bands:  4 eigenvalues not converged
     ethr =  3.36E-05,  avg # of iterations = 17.5

     total cpu time spent up to now is     2112.6 secs

     total energy              =  -16525.26848743 Ry
     estimated scf accuracy    <       1.08150566 Ry

     total magnetization       =     0.01 Bohr mag/cell
     absolute magnetization    =     0.34 Bohr mag/cell

     iteration #  7     ecut=    50.00 Ry     beta= 0.70
     Davidson diagonalization with overlap

---- Real-time Memory Report at c_bands before calling an iterative solver
          1763 MiB given to the printing process from OS
             0 MiB allocation reported by mallinfo(arena+hblkhd)
        108650 MiB available memory on the node where the printing process lives
------------------
     c_bands:  1 eigenvalues not converged
     c_bands:  2 eigenvalues not converged
     c_bands:  1 eigenvalues not converged
     c_bands:  1 eigenvalues not converged
     c_bands:  1 eigenvalues not converged
     ethr =  3.36E-05,  avg # of iterations = 16.4

     total cpu time spent up to now is     2510.6 secs

     total energy              =  -16525.36091022 Ry
     estimated scf accuracy    <       0.11824259 Ry

     total magnetization       =     0.46 Bohr mag/cell
     absolute magnetization    =     0.64 Bohr mag/cell

     iteration #  8     ecut=    50.00 Ry     beta= 0.70
     Davidson diagonalization with overlap

---- Real-time Memory Report at c_bands before calling an iterative solver
          1774 MiB given to the printing process from OS
             0 MiB allocation reported by mallinfo(arena+hblkhd)
        108545 MiB available memory on the node where the printing process lives
------------------
     c_bands:  4 eigenvalues not converged
     c_bands:  2 eigenvalues not converged
     ethr =  1.22E-05,  avg # of iterations = 13.7

     total cpu time spent up to now is     2825.3 secs

     total energy              =  -16525.37082109 Ry
     estimated scf accuracy    <       0.02340385 Ry

     total magnetization       =     0.55 Bohr mag/cell
     absolute magnetization    =     0.70 Bohr mag/cell

     iteration #  9     ecut=    50.00 Ry     beta= 0.70
     Davidson diagonalization with overlap

---- Real-time Memory Report at c_bands before calling an iterative solver
          1802 MiB given to the printing process from OS
             0 MiB allocation reported by mallinfo(arena+hblkhd)
        107978 MiB available memory on the node where the printing process lives
------------------
     c_bands:  1 eigenvalues not converged
     c_bands:  1 eigenvalues not converged
     c_bands:  2 eigenvalues not converged
     c_bands:  1 eigenvalues not converged
     c_bands:  5 eigenvalues not converged
     ethr =  2.41E-06,  avg # of iterations = 14.3

     total cpu time spent up to now is     3241.4 secs

     total energy              =  -16525.37806986 Ry
     estimated scf accuracy    <       0.00700837 Ry

     total magnetization       =     0.56 Bohr mag/cell
     absolute magnetization    =     0.69 Bohr mag/cell

     iteration # 10     ecut=    50.00 Ry     beta= 0.70
     Davidson diagonalization with overlap

---- Real-time Memory Report at c_bands before calling an iterative solver
          1802 MiB given to the printing process from OS
             0 MiB allocation reported by mallinfo(arena+hblkhd)
        108066 MiB available memory on the node where the printing process lives
------------------
     c_bands:  1 eigenvalues not converged
     c_bands:  1 eigenvalues not converged
     ethr =  7.22E-07,  avg # of iterations =  8.8

     total cpu time spent up to now is     3566.1 secs

     total energy              =  -16525.37967988 Ry
     estimated scf accuracy    <       0.00156939 Ry

     total magnetization       =     0.54 Bohr mag/cell
     absolute magnetization    =     0.66 Bohr mag/cell

     iteration # 11     ecut=    50.00 Ry     beta= 0.70
     Davidson diagonalization with overlap

---- Real-time Memory Report at c_bands before calling an iterative solver
          1802 MiB given to the printing process from OS
             0 MiB allocation reported by mallinfo(arena+hblkhd)
        107974 MiB available memory on the node where the printing process lives
------------------
     ethr =  1.62E-07,  avg # of iterations =  6.8

     total cpu time spent up to now is     4014.1 secs

     total energy              =  -16525.38074487 Ry
     estimated scf accuracy    <       0.00053602 Ry

     total magnetization       =     0.50 Bohr mag/cell
     absolute magnetization    =     0.60 Bohr mag/cell

     iteration # 12     ecut=    50.00 Ry     beta= 0.70
     Davidson diagonalization with overlap

---- Real-time Memory Report at c_bands before calling an iterative solver
          1822 MiB given to the printing process from OS
             0 MiB allocation reported by mallinfo(arena+hblkhd)
        107924 MiB available memory on the node where the printing process lives
------------------
     ethr =  5.52E-08,  avg # of iterations =  6.1

     total cpu time spent up to now is     4323.6 secs

     total energy              =  -16525.38093584 Ry
     estimated scf accuracy    <       0.00022650 Ry

     total magnetization       =     0.45 Bohr mag/cell
     absolute magnetization    =     0.55 Bohr mag/cell

     iteration # 13     ecut=    50.00 Ry     beta= 0.70
     Davidson diagonalization with overlap

---- Real-time Memory Report at c_bands before calling an iterative solver
          1822 MiB given to the printing process from OS
             0 MiB allocation reported by mallinfo(arena+hblkhd)
        107773 MiB available memory on the node where the printing process lives
------------------
     ethr =  2.33E-08,  avg # of iterations =  5.8

     total cpu time spent up to now is     4655.2 secs

     total energy              =  -16525.38105409 Ry
     estimated scf accuracy    <       0.00007744 Ry

     total magnetization       =     0.38 Bohr mag/cell
     absolute magnetization    =     0.47 Bohr mag/cell

     iteration # 14     ecut=    50.00 Ry     beta= 0.70
     Davidson diagonalization with overlap

---- Real-time Memory Report at c_bands before calling an iterative solver
          1822 MiB given to the printing process from OS
             0 MiB allocation reported by mallinfo(arena+hblkhd)
        107606 MiB available memory on the node where the printing process lives
------------------
     ethr =  7.98E-09,  avg # of iterations =  6.6

     total cpu time spent up to now is     5014.3 secs

     total energy              =  -16525.38109237 Ry
     estimated scf accuracy    <       0.00003530 Ry

     total magnetization       =     0.36 Bohr mag/cell
     absolute magnetization    =     0.44 Bohr mag/cell

     iteration # 15     ecut=    50.00 Ry     beta= 0.70
     Davidson diagonalization with overlap

---- Real-time Memory Report at c_bands before calling an iterative solver
          1822 MiB given to the printing process from OS
             0 MiB allocation reported by mallinfo(arena+hblkhd)
        107795 MiB available memory on the node where the printing process lives
------------------
     ethr =  3.63E-09,  avg # of iterations =  5.8

     total cpu time spent up to now is     5304.1 secs

     total energy              =  -16525.38112521 Ry
     estimated scf accuracy    <       0.00003405 Ry

     total magnetization       =     0.34 Bohr mag/cell
     absolute magnetization    =     0.42 Bohr mag/cell

     iteration # 16     ecut=    50.00 Ry     beta= 0.70
     Davidson diagonalization with overlap

---- Real-time Memory Report at c_bands before calling an iterative solver
          1825 MiB given to the printing process from OS
             0 MiB allocation reported by mallinfo(arena+hblkhd)
        107727 MiB available memory on the node where the printing process lives
------------------
     ethr =  3.51E-09,  avg # of iterations =  4.8

     total cpu time spent up to now is     5579.7 secs

     total energy              =  -16525.38115475 Ry
     estimated scf accuracy    <       0.00001819 Ry

     total magnetization       =     0.30 Bohr mag/cell
     absolute magnetization    =     0.37 Bohr mag/cell

     iteration # 17     ecut=    50.00 Ry     beta= 0.70
     Davidson diagonalization with overlap

---- Real-time Memory Report at c_bands before calling an iterative solver
          1825 MiB given to the printing process from OS
             0 MiB allocation reported by mallinfo(arena+hblkhd)
        107994 MiB available memory on the node where the printing process lives
------------------
     ethr =  1.87E-09,  avg # of iterations =  8.4

     total cpu time spent up to now is     5965.1 secs

     total energy              =  -16525.38121241 Ry
     estimated scf accuracy    <       0.00002280 Ry

     total magnetization       =     0.22 Bohr mag/cell
     absolute magnetization    =     0.27 Bohr mag/cell

     iteration # 18     ecut=    50.00 Ry     beta= 0.70
     Davidson diagonalization with overlap

---- Real-time Memory Report at c_bands before calling an iterative solver
          1825 MiB given to the printing process from OS
             0 MiB allocation reported by mallinfo(arena+hblkhd)
        107882 MiB available memory on the node where the printing process lives
------------------
     ethr =  1.87E-09,  avg # of iterations =  3.3

     total cpu time spent up to now is     6202.6 secs

     total energy              =  -16525.38120078 Ry
     estimated scf accuracy    <       0.00000959 Ry

     total magnetization       =     0.20 Bohr mag/cell
     absolute magnetization    =     0.24 Bohr mag/cell

     iteration # 19     ecut=    50.00 Ry     beta= 0.70
     Davidson diagonalization with overlap

---- Real-time Memory Report at c_bands before calling an iterative solver
          1825 MiB given to the printing process from OS
             0 MiB allocation reported by mallinfo(arena+hblkhd)
        107800 MiB available memory on the node where the printing process lives
------------------
     ethr =  9.88E-10,  avg # of iterations =  8.1

     total cpu time spent up to now is     6653.9 secs

     total energy              =  -16525.38124177 Ry
     estimated scf accuracy    <       0.00001092 Ry

     total magnetization       =     0.11 Bohr mag/cell
     absolute magnetization    =     0.14 Bohr mag/cell

     iteration # 20     ecut=    50.00 Ry     beta= 0.70
     Davidson diagonalization with overlap

---- Real-time Memory Report at c_bands before calling an iterative solver
          1825 MiB given to the printing process from OS
             0 MiB allocation reported by mallinfo(arena+hblkhd)
        107717 MiB available memory on the node where the printing process lives
------------------
     c_bands:  1 eigenvalues not converged
     ethr =  9.88E-10,  avg # of iterations =  8.4

     total cpu time spent up to now is     6964.4 secs

     total energy              =  -16525.38126053 Ry
     estimated scf accuracy    <       0.00000449 Ry

     total magnetization       =     0.06 Bohr mag/cell
     absolute magnetization    =     0.08 Bohr mag/cell

     iteration # 21     ecut=    50.00 Ry     beta= 0.70
     Davidson diagonalization with overlap

---- Real-time Memory Report at c_bands before calling an iterative solver
          1825 MiB given to the printing process from OS
             0 MiB allocation reported by mallinfo(arena+hblkhd)
        107777 MiB available memory on the node where the printing process lives
------------------
     ethr =  4.62E-10,  avg # of iterations =  5.2

     total cpu time spent up to now is     7239.6 secs

     total energy              =  -16525.38126244 Ry
     estimated scf accuracy    <       0.00000151 Ry

     total magnetization       =     0.04 Bohr mag/cell
     absolute magnetization    =     0.05 Bohr mag/cell

     iteration # 22     ecut=    50.00 Ry     beta= 0.70
     Davidson diagonalization with overlap

---- Real-time Memory Report at c_bands before calling an iterative solver
          1825 MiB given to the printing process from OS
             0 MiB allocation reported by mallinfo(arena+hblkhd)
        107721 MiB available memory on the node where the printing process lives
------------------
     ethr =  1.56E-10,  avg # of iterations =  6.2

     total cpu time spent up to now is     7581.2 secs

     total energy              =  -16525.38126474 Ry
     estimated scf accuracy    <       0.00000059 Ry

     total magnetization       =     0.03 Bohr mag/cell
     absolute magnetization    =     0.03 Bohr mag/cell

     iteration # 23     ecut=    50.00 Ry     beta= 0.70
     Davidson diagonalization with overlap

---- Real-time Memory Report at c_bands before calling an iterative solver
          1825 MiB given to the printing process from OS
             0 MiB allocation reported by mallinfo(arena+hblkhd)
        107777 MiB available memory on the node where the printing process lives
------------------
     ethr =  6.08E-11,  avg # of iterations =  6.9

     total cpu time spent up to now is     7933.3 secs

     total energy              =  -16525.38126536 Ry
     estimated scf accuracy    <       0.00000019 Ry

     total magnetization       =     0.02 Bohr mag/cell
     absolute magnetization    =     0.02 Bohr mag/cell

     iteration # 24     ecut=    50.00 Ry     beta= 0.70
     Davidson diagonalization with overlap

---- Real-time Memory Report at c_bands before calling an iterative solver
          1825 MiB given to the printing process from OS
             0 MiB allocation reported by mallinfo(arena+hblkhd)
        107782 MiB available memory on the node where the printing process lives
------------------
     ethr =  1.94E-11,  avg # of iterations =  8.6

     total cpu time spent up to now is     8424.0 secs

     total energy              =  -16525.38126566 Ry
     estimated scf accuracy    <       0.00000019 Ry

     total magnetization       =     0.01 Bohr mag/cell
     absolute magnetization    =     0.01 Bohr mag/cell

     iteration # 25     ecut=    50.00 Ry     beta= 0.70
     Davidson diagonalization with overlap

---- Real-time Memory Report at c_bands before calling an iterative solver
          1825 MiB given to the printing process from OS
             0 MiB allocation reported by mallinfo(arena+hblkhd)
        107729 MiB available memory on the node where the printing process lives
------------------
     ethr =  1.91E-11,  avg # of iterations =  7.3

     total cpu time spent up to now is     8728.4 secs

     total energy              =  -16525.38126599 Ry
     estimated scf accuracy    <       0.00000004 Ry

     total magnetization       =     0.00 Bohr mag/cell
     absolute magnetization    =     0.00 Bohr mag/cell

     iteration # 26     ecut=    50.00 Ry     beta= 0.70
     Davidson diagonalization with overlap

---- Real-time Memory Report at c_bands before calling an iterative solver
          1825 MiB given to the printing process from OS
             0 MiB allocation reported by mallinfo(arena+hblkhd)
        107716 MiB available memory on the node where the printing process lives
------------------
     ethr =  4.23E-12,  avg # of iterations =  6.5
 
     Magnetic moment per site  (integrated on atomic sphere of radius R)
     atom   1 (R=0.084)  charge= 10.0911  magn=  0.0000
     atom   2 (R=0.084)  charge= 10.0897  magn=  0.0000
     atom   3 (R=0.084)  charge=  2.9912  magn=  0.0001
     atom   4 (R=0.084)  charge=  4.2562  magn=  0.0000
     atom   5 (R=0.084)  charge= 10.0768  magn= -0.0000
     atom   6 (R=0.084)  charge= 10.0778  magn=  0.0000
     atom   7 (R=0.084)  charge=  4.2529  magn=  0.0000
     atom   8 (R=0.084)  charge=  4.2570  magn=  0.0000
     atom   9 (R=0.084)  charge= 10.0768  magn= -0.0000
     atom  10 (R=0.084)  charge= 10.0897  magn=  0.0000
     atom  11 (R=0.084)  charge=  4.2529  magn=  0.0000
     atom  12 (R=0.084)  charge=  4.2562  magn=  0.0000
     atom  13 (R=0.084)  charge= 10.0768  magn= -0.0000
     atom  14 (R=0.084)  charge= 10.0897  magn=  0.0000
     atom  15 (R=0.084)  charge=  4.2529  magn=  0.0000
     atom  16 (R=0.084)  charge=  4.2562  magn=  0.0000
     atom  17 (R=0.084)  charge= 10.0768  magn= -0.0000
     atom  18 (R=0.084)  charge= 10.0766  magn= -0.0000
     atom  19 (R=0.084)  charge=  4.2529  magn=  0.0000
     atom  20 (R=0.084)  charge=  4.2577  magn=  0.0000
     atom  21 (R=0.084)  charge= 10.0774  magn= -0.0000
     atom  22 (R=0.084)  charge= 10.0766  magn= -0.0000
     atom  23 (R=0.084)  charge=  4.2565  magn=  0.0000
     atom  24 (R=0.084)  charge=  4.2577  magn=  0.0000
     atom  25 (R=0.084)  charge= 10.0768  magn= -0.0000
     atom  26 (R=0.084)  charge= 10.0778  magn=  0.0000
     atom  27 (R=0.084)  charge=  4.2529  magn=  0.0000
     atom  28 (R=0.084)  charge=  4.2570  magn=  0.0000
     atom  29 (R=0.084)  charge= 10.0771  magn= -0.0000
     atom  30 (R=0.084)  charge= 10.0778  magn=  0.0000
     atom  31 (R=0.084)  charge=  4.2566  magn=  0.0000
     atom  32 (R=0.084)  charge=  4.2570  magn=  0.0000
     atom  33 (R=0.084)  charge= 10.0768  magn= -0.0000
     atom  34 (R=0.084)  charge= 10.0766  magn= -0.0000
     atom  35 (R=0.084)  charge=  4.2529  magn=  0.0000
     atom  36 (R=0.084)  charge=  4.2577  magn=  0.0000
     atom  37 (R=0.084)  charge= 10.0758  magn= -0.0000
     atom  38 (R=0.084)  charge= 10.0772  magn= -0.0000
     atom  39 (R=0.084)  charge=  4.2578  magn=  0.0000
     atom  40 (R=0.084)  charge=  4.2581  magn=  0.0000
     atom  41 (R=0.084)  charge= 10.0773  magn= -0.0000
     atom  42 (R=0.084)  charge= 10.0773  magn= -0.0000
     atom  43 (R=0.084)  charge=  4.2580  magn=  0.0000
     atom  44 (R=0.084)  charge=  4.2581  magn=  0.0000
     atom  45 (R=0.084)  charge= 10.0773  magn= -0.0000
     atom  46 (R=0.084)  charge= 10.0772  magn= -0.0000
     atom  47 (R=0.084)  charge=  4.2580  magn=  0.0000
     atom  48 (R=0.084)  charge=  4.2581  magn=  0.0000
     atom  49 (R=0.084)  charge= 10.0773  magn= -0.0000
     atom  50 (R=0.084)  charge= 10.0772  magn= -0.0000
     atom  51 (R=0.084)  charge=  4.2580  magn=  0.0000
     atom  52 (R=0.084)  charge=  4.2581  magn=  0.0000
     atom  53 (R=0.084)  charge= 10.0773  magn= -0.0000
     atom  54 (R=0.084)  charge= 10.0774  magn= -0.0000
     atom  55 (R=0.084)  charge=  4.2580  magn=  0.0000
     atom  56 (R=0.084)  charge=  4.2582  magn=  0.0000
     atom  57 (R=0.084)  charge= 10.0775  magn= -0.0000
     atom  58 (R=0.084)  charge= 10.0774  magn= -0.0000
     atom  59 (R=0.084)  charge=  4.2581  magn=  0.0000
     atom  60 (R=0.084)  charge=  4.2582  magn=  0.0000
     atom  61 (R=0.084)  charge= 10.0773  magn= -0.0000
     atom  62 (R=0.084)  charge= 10.0773  magn= -0.0000
     atom  63 (R=0.084)  charge=  4.2580  magn=  0.0000
     atom  64 (R=0.084)  charge=  4.2581  magn=  0.0000
     atom  65 (R=0.084)  charge= 10.0772  magn= -0.0000
     atom  66 (R=0.084)  charge= 10.0773  magn= -0.0000
     atom  67 (R=0.084)  charge=  4.2581  magn=  0.0000
     atom  68 (R=0.084)  charge=  4.2581  magn=  0.0000
     atom  69 (R=0.084)  charge= 10.0773  magn= -0.0000
     atom  70 (R=0.084)  charge= 10.0774  magn= -0.0000
     atom  71 (R=0.084)  charge=  4.2580  magn=  0.0000
     atom  72 (R=0.084)  charge=  4.2582  magn=  0.0000
     atom  73 (R=0.084)  charge= 10.0773  magn= -0.0000
     atom  74 (R=0.084)  charge= 10.0778  magn= -0.0000
     atom  75 (R=0.084)  charge=  4.2576  magn=  0.0000
     atom  76 (R=0.084)  charge=  4.2559  magn=  0.0000
     atom  77 (R=0.084)  charge= 10.0773  magn= -0.0000
     atom  78 (R=0.084)  charge= 10.0772  magn= -0.0000
     atom  79 (R=0.084)  charge=  4.2580  magn=  0.0000
     atom  80 (R=0.084)  charge=  4.2569  magn=  0.0000
     atom  81 (R=0.084)  charge= 10.0773  magn= -0.0000
     atom  82 (R=0.084)  charge= 10.0778  magn= -0.0000
     atom  83 (R=0.084)  charge=  4.2580  magn=  0.0000
     atom  84 (R=0.084)  charge=  4.2559  magn=  0.0000
     atom  85 (R=0.084)  charge= 10.0773  magn= -0.0000
     atom  86 (R=0.084)  charge= 10.0778  magn= -0.0000
     atom  87 (R=0.084)  charge=  4.2580  magn=  0.0000
     atom  88 (R=0.084)  charge=  4.2559  magn=  0.0000
     atom  89 (R=0.084)  charge= 10.0773  magn= -0.0000
     atom  90 (R=0.084)  charge= 10.0773  magn= -0.0000
     atom  91 (R=0.084)  charge=  4.2580  magn=  0.0000
     atom  92 (R=0.084)  charge=  4.2577  magn=  0.0000
     atom  93 (R=0.084)  charge= 10.0773  magn= -0.0000
     atom  94 (R=0.084)  charge= 10.0773  magn= -0.0000
     atom  95 (R=0.084)  charge=  4.2581  magn=  0.0000
     atom  96 (R=0.084)  charge=  4.2577  magn=  0.0000
     atom  97 (R=0.084)  charge= 10.0773  magn= -0.0000
     atom  98 (R=0.084)  charge= 10.0772  magn= -0.0000
     atom  99 (R=0.084)  charge=  4.2580  magn=  0.0000
     atom 100 (R=0.084)  charge=  4.2569  magn=  0.0000
     atom 101 (R=0.084)  charge= 10.0773  magn= -0.0000
     atom 102 (R=0.084)  charge= 10.0772  magn= -0.0000
     atom 103 (R=0.084)  charge=  4.2581  magn=  0.0000
     atom 104 (R=0.084)  charge=  4.2569  magn=  0.0000
     atom 105 (R=0.084)  charge= 10.0773  magn= -0.0000
     atom 106 (R=0.084)  charge= 10.0773  magn= -0.0000
     atom 107 (R=0.084)  charge=  4.2580  magn=  0.0000
     atom 108 (R=0.084)  charge=  4.2577  magn=  0.0000

     total cpu time spent up to now is     9098.8 secs

     End of self-consistent calculation

 ------ SPIN UP ------------


          k = 0.0000 0.0000 0.0000 ( 51313 PWs)   bands (ev):

    -6.4742  -6.2087  -6.1972  -5.8552  -5.8435  -5.8435  -5.8279  -5.8279
    -5.8074  -5.7945  -5.7923  -5.7390  -5.7297  -5.7277  -5.7277  -5.7191
    -5.7191  -5.7128  -5.7128  -5.7023  -5.7023  -5.6955  -5.6800  -5.6529
    -5.6013  -5.5922  -5.5901  -5.5901  -5.5845  -5.5845  -5.5822  -5.5804
    -5.5804  -5.5771  -5.5771  -5.5742  -5.5742  -5.5732  -5.5725  -5.5695
    -5.5611  -5.5611  -5.5554  -5.5554  -5.5532  -5.5463  -5.5457  -5.5400
    -5.5288  -5.5053  -5.5053  -5.4867  -5.4867  -4.2142  -4.2023  -4.2023
    -4.1991  -4.1991  -4.1907  -4.1907  -4.1904  -4.1853  -4.1853  -4.1681
    -4.1681  -4.1676  -4.1669  -4.1669  -4.1625  -4.1598  -4.1598  -4.1589
    -4.1589  -4.1580  -4.1580  -4.1579  -4.1558  -4.1545  -4.1545  -4.1478
    -4.1478  -4.1454  -4.1444  -4.1444  -4.1412  -4.1390  -4.1390  -4.1372
    -4.1372  -4.1333  -4.1333  -4.1286  -4.1276  -4.1276  -4.1276  -4.1226
    -4.1226  -4.1147  -4.1144  -4.1144  -4.1120  -4.1095  -4.1088  -4.1088
    -4.1078  -4.1078  -4.1043  -4.1034  -4.1034  -4.1027  -4.1013  -4.0988
    -4.0988  -4.0947  -4.0947  -4.0938  -4.0842  -4.0842  -4.0829  -4.0818
    -4.0787  -4.0772  -4.0772  -4.0727  -4.0697  -4.0684  -4.0672  -4.0672
    -4.0641  -4.0558  -4.0558  -4.0452  -4.0445  -4.0445  -4.0419  -4.0419
    -4.0405  -4.0405  -4.0398  -4.0372  -4.0372  -4.0370  -4.0305  -4.0281
    -4.0281  -4.0266  -4.0219  -4.0219  -4.0182  -4.0182  -4.0157  -4.0157
    -4.0149  -4.0144  -4.0120  -4.0120  -4.0118  -4.0117  -4.0104  -4.0104
    -4.0077  -4.0014  -4.0014  -4.0013  -4.0003  -4.0003  -3.9978  -3.9977
    -3.9977  -3.9957  -3.9957  -3.9942  -3.9931  -3.9931  -3.9886  -3.9886
    -3.9877  -3.9873  -3.9857  -3.9857  -3.9805  -3.9771  -3.9771  -3.9716
    -3.9708  -3.9708  -3.9692  -3.9692  -3.9676  -3.9656  -3.9656  -3.9651
    -3.9643  -3.9643  -3.9604  -3.9588  -3.9588  -3.9579  -3.9574  -3.9574
    -3.9536  -3.9536  -3.9520  -3.9497  -3.9497  -3.9483  -3.9483  -3.9444
    -3.9444  -3.9433  -3.9433  -3.9426  -3.9406  -3.9406  -3.9394  -3.9389
    -3.9389  -3.9387  -3.9326  -3.9323  -3.9323  -3.9288  -3.9287  -3.9287
    -3.9248  -3.9248  -3.9202  -3.9201  -3.9201  -3.9154  -3.9088  -3.9088
    -3.9080  -3.9080  -3.9070  -3.9034  -3.9034  -3.9011  -3.9011  -3.8972
    -3.8941  -3.8941  -3.8923  -3.8923  -3.8891  -3.8865  -3.8847  -3.8847
    -3.8818  -3.8818  -3.8793  -3.8754  -3.8754  -3.8732  -3.8693  -3.8686
    -3.8686  -3.8436  -3.8436  -3.8226  -3.8125  -3.8125  -3.7680  -3.7672
    -3.7672  -3.7078  -3.7078  -3.6878  -3.6720  -3.6720  -3.6657  -3.5795
    -3.5795  -3.5293  -3.5062  -3.5062  -3.4916  -3.4916  -3.4771  -3.4003
    -3.3839  -3.3223  -3.3152  -3.3123  -3.3123  -3.2939  -3.2938  -3.2824
    -3.2824  -3.2774  -3.2619  -3.2619  -3.1205  -2.6463  -2.6394  -2.6358
    -2.6358  -2.6358  -2.6226  -2.6226  -2.6101  -2.6101  -2.6023  -2.6023
    -2.5961  -2.4631  -2.2161  -2.2161  -2.2149  -2.2141  -2.2056  -2.2052
    -2.1949  -2.1949  -2.1742  -2.1742  -2.1721  -2.1316  -2.1144  -2.1043
    -2.1043  -2.0710  -2.0710  -0.0476   2.3925   3.3637   3.3637   3.3646
     3.3695   3.3788   3.3832   3.3849   3.3849   3.4031   3.4110   3.4110
     3.4385   3.4385   3.4506   3.5030   3.5095   3.5095   3.5109   3.5185
     3.5185   3.5226   3.5226   3.5998   3.5998   3.6063   3.6550   3.9923
     3.9969   4.0137   4.0137   4.0331   4.0424   4.1766   4.1766   4.3701
     4.3739   4.3758   4.3758   4.3855   4.3855   4.3880   4.3880   4.4377
     4.4377   4.4379   4.4791   4.5165   4.5165   4.5556   4.5556   4.5823
     4.6643   4.6643   4.7226   4.7241   4.7241   5.3982   5.3982   5.4046
     5.4419   5.4419   5.5486   5.8529   5.8529   5.8805   5.8805   6.1492
     6.1536   6.1584   6.1584   6.1626   6.1626   6.1736   6.1736   6.2158
     6.2184   6.2184   6.2583   6.3717   6.3886   6.3886   6.4918   6.6458
     6.6458   6.9495   6.9523   6.9523   6.9745   6.9918   7.0157   7.0157
     7.0297   7.2987   7.2994   7.2994   7.3007   7.3054   7.3054   7.3239
     7.3261   7.3261   7.3272   7.4372   7.4372   7.4740   7.4774   7.4785
     7.4785   7.4821   7.5354   7.5354   7.5714   7.9537   7.9637   7.9637
     7.9639   7.9706   7.9706   7.9737   7.9737   8.0056   8.0113   8.0113
     8.0130   8.0190   8.0264   8.0264   8.0530   8.0530   8.0750   8.0750
     8.0750   8.0769   8.0823   8.0823   8.0955   8.1051   8.1051   8.1068
     8.2045   8.2045   8.3138   8.3138   8.5003   8.5003   8.5106   8.5106
     8.5163   8.5209   8.5209   8.5414   8.7711   8.7854   8.7854   9.0010
     9.0010   9.1464   9.1464   9.3649   9.5041   9.5041  11.0159  12.6848
    12.7082  13.3296  13.4605  13.4766  13.5370  13.5372  13.5372  13.5461
    13.5510  13.5510  13.5565  13.5565  13.5699  13.5699  13.5843  13.7415
    13.9477  13.9537  13.9537  14.0027  14.0027  14.2154  14.4525  14.4530
    14.6771

     occupation numbers 
     1.0000   1.0000   1.0000   1.0000   1.0000   1.0000   1.0000   1.0000
     1.0000   1.0000   1.0000   1.0000   1.0000   1.0000   1.0000   1.0000
     1.0000   1.0000   1.0000   1.0000   1.0000   1.0000   1.0000   1.0000
     1.0000   1.0000   1.0000   1.0000   1.0000   1.0000   1.0000   1.0000
     1.0000   1.0000   1.0000   1.0000   1.0000   1.0000   1.0000   1.0000
     1.0000   1.0000   1.0000   1.0000   1.0000   1.0000   1.0000   1.0000
     1.0000   1.0000   1.0000   1.0000   1.0000   1.0000   1.0000   1.0000
     1.0000   1.0000   1.0000   1.0000   1.0000   1.0000   1.0000   1.0000
     1.0000   1.0000   1.0000   1.0000   1.0000   1.0000   1.0000   1.0000
     1.0000   1.0000   1.0000   1.0000   1.0000   1.0000   1.0000   1.0000
     1.0000   1.0000   1.0000   1.0000   1.0000   1.0000   1.0000   1.0000
     1.0000   1.0000   1.0000   1.0000   1.0000   1.0000   1.0000   1.0000
     1.0000   1.0000   1.0000   1.0000   1.0000   1.0000   1.0000   1.0000
     1.0000   1.0000   1.0000   1.0000   1.0000   1.0000   1.0000   1.0000
     1.0000   1.0000   1.0000   1.0000   1.0000   1.0000   1.0000   1.0000
     1.0000   1.0000   1.0000   1.0000   1.0000   1.0000   1.0000   1.0000
     1.0000   1.0000   1.0000   1.0000   1.0000   1.0000   1.0000   1.0000
     1.0000   1.0000   1.0000   1.0000   1.0000   1.0000   1.0000   1.0000
     1.0000   1.0000   1.0000   1.0000   1.0000   1.0000   1.0000   1.0000
     1.0000   1.0000   1.0000   1.0000   1.0000   1.0000   1.0000   1.0000
     1.0000   1.0000   1.0000   1.0000   1.0000   1.0000   1.0000   1.0000
     1.0000   1.0000   1.0000   1.0000   1.0000   1.0000   1.0000   1.0000
     1.0000   1.0000   1.0000   1.0000   1.0000   1.0000   1.0000   1.0000
     1.0000   1.0000   1.0000   1.0000   1.0000   1.0000   1.0000   1.0000
     1.0000   1.0000   1.0000   1.0000   1.0000   1.0000   1.0000   1.0000
     1.0000   1.0000   1.0000   1.0000   1.0000   1.0000   1.0000   1.0000
     1.0000   1.0000   1.0000   1.0000   1.0000   1.0000   1.0000   1.0000
     1.0000   1.0000   1.0000   1.0000   1.0000   1.0000   1.0000   1.0000
     1.0000   1.0000   1.0000   1.0000   1.0000   1.0000   1.0000   1.0000
     1.0000   1.0000   1.0000   1.0000   1.0000   1.0000   1.0000   1.0000
     1.0000   1.0000   1.0000   1.0000   1.0000   1.0000   1.0000   1.0000
     1.0000   1.0000   1.0000   1.0000   1.0000   1.0000   1.0000   1.0000
     1.0000   1.0000   1.0000   1.0000   1.0000   1.0000   1.0000   1.0000
     1.0000   1.0000   1.0000   1.0000   1.0000   1.0000   1.0000   1.0000
     1.0000   1.0000   1.0000   1.0000   1.0000   1.0000   1.0000   1.0000
     1.0000   1.0000   1.0000   1.0000   1.0000   1.0000   1.0000   1.0000
     1.0000   1.0000   1.0000   1.0000   1.0000   1.0000   1.0000   1.0000
     1.0000   1.0000   1.0000   1.0000   1.0000   1.0000   1.0000   1.0000
     1.0000   1.0000   1.0000   1.0000   1.0000   1.0000   1.0000   1.0000
     1.0000   1.0000   1.0000   1.0000   1.0000   1.0000   1.0000   1.0000
     1.0000   1.0000   1.0000   1.0000   1.0000   1.0000   1.0000   1.0000
     1.0000   1.0000   1.0000   1.0000   1.0000   1.0000   1.0000   1.0000
     1.0000   1.0000   1.0000   1.0000   1.0000   1.0000   1.0000   1.0000
     1.0000   1.0000   1.0000   1.0000   1.0000   1.0000   1.0000   1.0000
     1.0000   1.0000   1.0000   1.0000   1.0000   1.0000   1.0000   1.0000
     1.0000   1.0000   1.0000   1.0000   1.0000   1.0000   1.0000   1.0000
     1.0000   1.0000   1.0000   1.0000   1.0000   1.0000   1.0000   1.0000
     1.0000   1.0000   1.0000   1.0000   1.0000   1.0000   1.0000   1.0000
     1.0000   1.0000   1.0000   1.0000   1.0000   1.0000   1.0000   1.0000
     1.0000   1.0000   1.0000   1.0000   1.0000   1.0000   1.0000   1.0000
     1.0000   1.0000   1.0000   1.0000   1.0000   1.0000   1.0000   1.0000
     1.0000   1.0000   1.0000   1.0000   1.0000   1.0000   1.0000   1.0000
     1.0000   1.0000   1.0000   1.0000   1.0000   1.0000   1.0000   1.0000
     1.0000   1.0000   1.0000   1.0000   1.0000   1.0000   1.0000   1.0000
     1.0000   1.0000   1.0000   1.0000   1.0000   1.0000   1.0000   1.0000
     1.0000   1.0000   1.0000   1.0000   1.0000   1.0000   1.0000   1.0000
     1.0000   1.0000   1.0000   1.0000   1.0000   1.0000   1.0000   1.0000
     1.0000   1.0000   1.0000   1.0000   1.0000   1.0000   1.0000   1.0000
     1.0000   1.0000   1.0000   1.0000   1.0000   1.0000   1.0000   1.0000
     1.0000   1.0000   1.0000   1.0000   1.0000   1.0000   1.0000   1.0000
     1.0000   0.9996   0.9996   0.6944   0.0967   0.0967   0.0000   0.0000
     0.0000   0.0000   0.0000   0.0000   0.0000   0.0000   0.0000   0.0000
     0.0000   0.0000   0.0000   0.0000   0.0000   0.0000   0.0000   0.0000
     0.0000   0.0000   0.0000   0.0000   0.0000   0.0000   0.0000   0.0000
     0.0000

          k = 0.0000 0.0000-0.3067 ( 51390 PWs)   bands (ev):

    -6.4145  -6.3831  -5.9711  -5.9687  -5.8256  -5.8136  -5.8113  -5.8113
    -5.8050  -5.8050  -5.8026  -5.8026  -5.7993  -5.7811  -5.7811  -5.7229
    -5.7104  -5.6991  -5.6530  -5.6459  -5.6459  -5.6438  -5.6325  -5.6325
    -5.6282  -5.6282  -5.6172  -5.6172  -5.6094  -5.6066  -5.5816  -5.5745
    -5.5745  -5.5731  -5.5713  -5.5713  -5.5688  -5.5688  -5.5685  -5.5675
    -5.5599  -5.5599  -5.5588  -5.5588  -5.5567  -5.5552  -5.5480  -5.5354
    -5.5243  -5.5047  -5.5047  -5.4863  -5.4863  -4.2023  -4.2023  -4.1984
    -4.1925  -4.1925  -4.1907  -4.1872  -4.1872  -4.1834  -4.1818  -4.1818
    -4.1778  -4.1778  -4.1740  -4.1740  -4.1636  -4.1630  -4.1630  -4.1610
    -4.1606  -4.1606  -4.1576  -4.1576  -4.1545  -4.1525  -4.1525  -4.1522
    -4.1497  -4.1497  -4.1462  -4.1462  -4.1436  -4.1401  -4.1401  -4.1378
    -4.1378  -4.1376  -4.1339  -4.1326  -4.1326  -4.1306  -4.1273  -4.1273
    -4.1260  -4.1253  -4.1253  -4.1242  -4.1242  -4.1230  -4.1165  -4.1165
    -4.1090  -4.1008  -4.0924  -4.0924  -4.0881  -4.0843  -4.0843  -4.0839
    -4.0820  -4.0820  -4.0803  -4.0803  -4.0793  -4.0769  -4.0769  -4.0759
    -4.0737  -4.0737  -4.0719  -4.0715  -4.0715  -4.0688  -4.0688  -4.0676
    -4.0646  -4.0646  -4.0645  -4.0631  -4.0584  -4.0584  -4.0528  -4.0480
    -4.0427  -4.0427  -4.0403  -4.0397  -4.0346  -4.0346  -4.0337  -4.0246
    -4.0246  -4.0216  -4.0216  -4.0215  -4.0205  -4.0205  -4.0196  -4.0196
    -4.0177  -4.0165  -4.0131  -4.0131  -4.0113  -4.0106  -4.0102  -4.0102
    -4.0089  -4.0089  -4.0069  -4.0069  -4.0035  -3.9981  -3.9961  -3.9961
    -3.9933  -3.9933  -3.9844  -3.9830  -3.9826  -3.9826  -3.9787  -3.9787
    -3.9775  -3.9775  -3.9763  -3.9763  -3.9755  -3.9744  -3.9739  -3.9723
    -3.9723  -3.9718  -3.9718  -3.9699  -3.9683  -3.9683  -3.9678  -3.9675
    -3.9675  -3.9632  -3.9613  -3.9607  -3.9607  -3.9588  -3.9588  -3.9570
    -3.9541  -3.9541  -3.9517  -3.9517  -3.9491  -3.9491  -3.9452  -3.9445
    -3.9445  -3.9424  -3.9424  -3.9377  -3.9377  -3.9371  -3.9368  -3.9339
    -3.9339  -3.9333  -3.9300  -3.9286  -3.9286  -3.9259  -3.9259  -3.9234
    -3.9234  -3.9207  -3.9207  -3.9188  -3.9176  -3.9130  -3.9130  -3.9120
    -3.9107  -3.9107  -3.9080  -3.9080  -3.9079  -3.9037  -3.9005  -3.9005
    -3.8930  -3.8930  -3.8894  -3.8894  -3.8875  -3.8866  -3.8866  -3.8812
    -3.8799  -3.8799  -3.8764  -3.8751  -3.8751  -3.8706  -3.8706  -3.8691
    -3.8528  -3.8435  -3.8435  -3.8226  -3.8124  -3.8124  -3.7891  -3.7674
    -3.7674  -3.7554  -3.7077  -3.7077  -3.6752  -3.6720  -3.6720  -3.6657
    -3.5789  -3.5789  -3.4817  -3.4778  -3.4754  -3.4754  -3.4636  -3.4636
    -3.4633  -3.4394  -3.4394  -3.4137  -3.4137  -3.3425  -3.0350  -3.0271
    -3.0271  -3.0263  -3.0096  -3.0096  -2.9980  -2.9980  -2.9875  -2.9766
    -2.9766  -2.9046  -2.8921  -2.7719  -2.2794  -2.2707  -2.2677  -2.2677
    -2.2594  -2.2594  -2.2580  -2.2580  -2.2505  -2.2407  -2.2407  -2.2291
    -2.2159  -2.2159  -2.2141  -2.2140  -2.2053  -2.2045  -2.1799  -2.1799
    -2.1720  -2.1567  -2.1567  -0.0521   2.8543   2.8762   3.2203   3.2273
     3.2289   3.2289   3.3747   3.3820   3.3841   3.3841   3.3875   3.3875
     3.3937   3.3937   3.4203   3.4349   3.4349   3.5023   3.7381   3.7389
     3.7389   3.7428   3.7490   3.7708   3.7708   3.7747   3.8613   3.8661
     3.8661   3.8697   3.8770   3.8770   3.8849   3.8849   3.9680   3.9680
     3.9814   4.0514   4.2874   4.2874   4.3333   4.3333   4.7196   4.7196
     4.7228   4.7246   4.7246   4.7275   4.7377   4.7377   4.7717   4.8047
     4.8047   4.9406   5.2176   5.2176   5.2362   5.2362   5.3682   5.3682
     5.3703   5.3723   5.3723   5.3777   5.3855   5.3855   5.4038   5.4241
     5.4655   5.4655   5.5273   5.6137   6.3940   6.3940   6.4389   6.4389
     6.7681   6.7706   6.7742   6.7742   6.7776   6.7926   6.7926   6.8633
     7.0385   7.0422   7.0422   7.0441   7.0457   7.0457   7.0524   7.0524
     7.0528   7.0818   7.1654   7.1654   7.2074   7.2134   7.2134   7.2158
     7.2268   7.2268   7.2273   7.2273   7.2807   7.3033   7.3033   7.4184
     7.6710   7.6730   7.6730   7.6755   7.6790   7.6790   7.6907   7.7050
     7.7050   7.7064   7.7975   7.7975   7.8179   7.8733   7.8802   7.8802
     8.1003   8.1116   8.1135   8.1135   8.1155   8.1155   8.1288   8.1394
     8.1394   8.1492   8.1492   8.3151   8.3151   8.3269   8.3489   8.3489
     8.3904   8.3951   8.3951   8.3975   8.3995   8.3995   8.4079   8.4080
     8.4080   8.4195   8.4301   8.6219   8.6219   8.7491   8.7491   8.9543
     8.9543   9.0067   9.1825   9.1825   9.4972   9.4972  11.6834  11.7521
    13.3188  13.3209  13.3694  13.4271  13.6720  13.6745  13.6745  13.6812
    13.6830  13.6859  13.6859  13.6868  13.6868  13.7418  13.7418  13.8436
    14.0035  14.0049  14.0059  14.0120  14.0138  14.0196  14.0319  14.0345
    14.0408

     occupation numbers 
     1.0000   1.0000   1.0000   1.0000   1.0000   1.0000   1.0000   1.0000
     1.0000   1.0000   1.0000   1.0000   1.0000   1.0000   1.0000   1.0000
     1.0000   1.0000   1.0000   1.0000   1.0000   1.0000   1.0000   1.0000
     1.0000   1.0000   1.0000   1.0000   1.0000   1.0000   1.0000   1.0000
     1.0000   1.0000   1.0000   1.0000   1.0000   1.0000   1.0000   1.0000
     1.0000   1.0000   1.0000   1.0000   1.0000   1.0000   1.0000   1.0000
     1.0000   1.0000   1.0000   1.0000   1.0000   1.0000   1.0000   1.0000
     1.0000   1.0000   1.0000   1.0000   1.0000   1.0000   1.0000   1.0000
     1.0000   1.0000   1.0000   1.0000   1.0000   1.0000   1.0000   1.0000
     1.0000   1.0000   1.0000   1.0000   1.0000   1.0000   1.0000   1.0000
     1.0000   1.0000   1.0000   1.0000   1.0000   1.0000   1.0000   1.0000
     1.0000   1.0000   1.0000   1.0000   1.0000   1.0000   1.0000   1.0000
     1.0000   1.0000   1.0000   1.0000   1.0000   1.0000   1.0000   1.0000
     1.0000   1.0000   1.0000   1.0000   1.0000   1.0000   1.0000   1.0000
     1.0000   1.0000   1.0000   1.0000   1.0000   1.0000   1.0000   1.0000
     1.0000   1.0000   1.0000   1.0000   1.0000   1.0000   1.0000   1.0000
     1.0000   1.0000   1.0000   1.0000   1.0000   1.0000   1.0000   1.0000
     1.0000   1.0000   1.0000   1.0000   1.0000   1.0000   1.0000   1.0000
     1.0000   1.0000   1.0000   1.0000   1.0000   1.0000   1.0000   1.0000
     1.0000   1.0000   1.0000   1.0000   1.0000   1.0000   1.0000   1.0000
     1.0000   1.0000   1.0000   1.0000   1.0000   1.0000   1.0000   1.0000
     1.0000   1.0000   1.0000   1.0000   1.0000   1.0000   1.0000   1.0000
     1.0000   1.0000   1.0000   1.0000   1.0000   1.0000   1.0000   1.0000
     1.0000   1.0000   1.0000   1.0000   1.0000   1.0000   1.0000   1.0000
     1.0000   1.0000   1.0000   1.0000   1.0000   1.0000   1.0000   1.0000
     1.0000   1.0000   1.0000   1.0000   1.0000   1.0000   1.0000   1.0000
     1.0000   1.0000   1.0000   1.0000   1.0000   1.0000   1.0000   1.0000
     1.0000   1.0000   1.0000   1.0000   1.0000   1.0000   1.0000   1.0000
     1.0000   1.0000   1.0000   1.0000   1.0000   1.0000   1.0000   1.0000
     1.0000   1.0000   1.0000   1.0000   1.0000   1.0000   1.0000   1.0000
     1.0000   1.0000   1.0000   1.0000   1.0000   1.0000   1.0000   1.0000
     1.0000   1.0000   1.0000   1.0000   1.0000   1.0000   1.0000   1.0000
     1.0000   1.0000   1.0000   1.0000   1.0000   1.0000   1.0000   1.0000
     1.0000   1.0000   1.0000   1.0000   1.0000   1.0000   1.0000   1.0000
     1.0000   1.0000   1.0000   1.0000   1.0000   1.0000   1.0000   1.0000
     1.0000   1.0000   1.0000   1.0000   1.0000   1.0000   1.0000   1.0000
     1.0000   1.0000   1.0000   1.0000   1.0000   1.0000   1.0000   1.0000
     1.0000   1.0000   1.0000   1.0000   1.0000   1.0000   1.0000   1.0000
     1.0000   1.0000   1.0000   1.0000   1.0000   1.0000   1.0000   1.0000
     1.0000   1.0000   1.0000   1.0000   1.0000   1.0000   1.0000   1.0000
     1.0000   1.0000   1.0000   1.0000   1.0000   1.0000   1.0000   1.0000
     1.0000   1.0000   1.0000   1.0000   1.0000   1.0000   1.0000   1.0000
     1.0000   1.0000   1.0000   1.0000   1.0000   1.0000   1.0000   1.0000
     1.0000   1.0000   1.0000   1.0000   1.0000   1.0000   1.0000   1.0000
     1.0000   1.0000   1.0000   1.0000   1.0000   1.0000   1.0000   1.0000
     1.0000   1.0000   1.0000   1.0000   1.0000   1.0000   1.0000   1.0000
     1.0000   1.0000   1.0000   1.0000   1.0000   1.0000   1.0000   1.0000
     1.0000   1.0000   1.0000   1.0000   1.0000   1.0000   1.0000   1.0000
     1.0000   1.0000   1.0000   1.0000   1.0000   1.0000   1.0000   1.0000
     1.0000   1.0000   1.0000   1.0000   1.0000   1.0000   1.0000   1.0000
     1.0000   1.0000   1.0000   1.0000   1.0000   1.0000   1.0000   1.0000
     1.0000   1.0000   1.0000   1.0000   1.0000   1.0000   1.0000   1.0000
     1.0000   1.0000   1.0000   1.0000   1.0000   1.0000   1.0000   1.0000
     1.0000   1.0000   1.0000   1.0000   1.0000   1.0000   1.0000   1.0000
     1.0000   1.0000   1.0000   1.0000   1.0000   1.0000   1.0000   1.0000
     1.0000   1.0000   1.0000   1.0000   1.0000   1.0000   1.0000   1.0000
     1.0000   1.0000   1.0000   1.0000   1.0000   1.0000   1.0000   1.0000
     1.0000   1.0000   1.0000   1.0000   1.0000   1.0000   1.0000   1.0000
     1.0000   1.0000   1.0000   1.0000   1.0000   1.0000   1.0000   1.0000
     1.0000   1.0000   1.0000   1.0000   1.0000   1.0000   1.0000   1.0000
     1.0000   1.0000   0.9980   0.9980   0.1129   0.1129   0.0000   0.0000
     0.0000   0.0000   0.0000   0.0000   0.0000   0.0000   0.0000   0.0000
     0.0000   0.0000   0.0000   0.0000   0.0000   0.0000   0.0000   0.0000
     0.0000   0.0000   0.0000   0.0000   0.0000   0.0000   0.0000   0.0000
     0.0000

          k = 0.0000 0.2887 0.0000 ( 51284 PWs)   bands (ev):

    -6.4116  -6.1564  -6.1483  -6.0229  -5.9009  -5.8972  -5.8528  -5.8441
    -5.7735  -5.7728  -5.7641  -5.7635  -5.7611  -5.7519  -5.7502  -5.7340
    -5.7147  -5.6668  -5.6621  -5.6599  -5.6589  -5.6581  -5.6388  -5.6376
    -5.6297  -5.6266  -5.6145  -5.6086  -5.6008  -5.5998  -5.5967  -5.5920
    -5.5886  -5.5729  -5.5728  -5.5709  -5.5699  -5.5659  -5.5616  -5.5592
    -5.5591  -5.5583  -5.5550  -5.5547  -5.5524  -5.5499  -5.5441  -5.5352
    -5.5328  -5.5039  -5.5038  -5.4860  -5.4855  -4.2083  -4.1950  -4.1940
    -4.1919  -4.1906  -4.1871  -4.1843  -4.1810  -4.1779  -4.1731  -4.1688
    -4.1671  -4.1657  -4.1618  -4.1598  -4.1595  -4.1585  -4.1574  -4.1559
    -4.1553  -4.1532  -4.1523  -4.1518  -4.1505  -4.1501  -4.1490  -4.1482
    -4.1474  -4.1457  -4.1437  -4.1418  -4.1397  -4.1397  -4.1384  -4.1371
    -4.1370  -4.1348  -4.1340  -4.1305  -4.1300  -4.1277  -4.1260  -4.1234
    -4.1222  -4.1206  -4.1199  -4.1179  -4.1167  -4.1144  -4.1142  -4.1111
    -4.1110  -4.1099  -4.1098  -4.1074  -4.1043  -4.1041  -4.1018  -4.0994
    -4.0992  -4.0972  -4.0960  -4.0947  -4.0914  -4.0898  -4.0873  -4.0856
    -4.0854  -4.0843  -4.0808  -4.0798  -4.0751  -4.0721  -4.0716  -4.0700
    -4.0666  -4.0659  -4.0616  -4.0593  -4.0583  -4.0559  -4.0547  -4.0530
    -4.0528  -4.0489  -4.0457  -4.0412  -4.0408  -4.0380  -4.0344  -4.0317
    -4.0284  -4.0280  -4.0260  -4.0258  -4.0241  -4.0196  -4.0183  -4.0161
    -4.0159  -4.0140  -4.0135  -4.0129  -4.0099  -4.0099  -4.0072  -4.0060
    -4.0059  -4.0029  -4.0011  -4.0002  -3.9993  -3.9988  -3.9968  -3.9967
    -3.9953  -3.9951  -3.9935  -3.9922  -3.9914  -3.9902  -3.9885  -3.9885
    -3.9873  -3.9871  -3.9855  -3.9836  -3.9835  -3.9822  -3.9816  -3.9805
    -3.9778  -3.9764  -3.9757  -3.9745  -3.9725  -3.9719  -3.9681  -3.9673
    -3.9672  -3.9647  -3.9621  -3.9611  -3.9604  -3.9585  -3.9573  -3.9558
    -3.9540  -3.9529  -3.9523  -3.9518  -3.9498  -3.9485  -3.9455  -3.9424
    -3.9407  -3.9391  -3.9387  -3.9353  -3.9348  -3.9323  -3.9311  -3.9302
    -3.9301  -3.9282  -3.9274  -3.9263  -3.9245  -3.9232  -3.9229  -3.9211
    -3.9199  -3.9190  -3.9165  -3.9161  -3.9149  -3.9121  -3.9117  -3.9107
    -3.9071  -3.9066  -3.9055  -3.9033  -3.9028  -3.9018  -3.9011  -3.9003
    -3.8977  -3.8971  -3.8957  -3.8948  -3.8940  -3.8904  -3.8903  -3.8872
    -3.8860  -3.8847  -3.8835  -3.8788  -3.8781  -3.8747  -3.8735  -3.8725
    -3.8660  -3.8481  -3.8395  -3.8347  -3.8262  -3.8063  -3.7969  -3.7695
    -3.7655  -3.7626  -3.7140  -3.7085  -3.6910  -3.6753  -3.6752  -3.6671
    -3.6577  -3.6372  -3.6304  -3.6105  -3.5763  -3.5675  -3.4429  -3.4390
    -3.4238  -3.4123  -3.3378  -3.3151  -3.2299  -3.2208  -3.0462  -3.0370
    -3.0364  -3.0249  -2.9910  -2.9233  -2.9134  -2.8670  -2.8250  -2.7328
    -2.7301  -2.7284  -2.6852  -2.5730  -2.4947  -2.4944  -2.4532  -2.4527
    -2.4472  -2.4424  -2.4044  -2.4010  -2.3894  -2.3823  -2.3700  -2.2786
    -2.2511  -2.1642  -2.1597  -2.1595  -2.1590  -2.1413  -2.0983  -2.0738
    -2.0495  -2.0315  -2.0198  -0.0431   2.4875   2.9060   2.9169   3.1259
     3.1549   3.1797   3.1805   3.1838   3.1936   3.2200   3.2381   3.2459
     3.2474   3.3613   3.3622   3.3945   3.4172   3.4725   3.4867   3.4923
     3.5046   3.5742   3.5835   3.6094   3.6361   3.8307   3.8475   3.8486
     3.8599   3.9426   3.9536   3.9767   3.9843   4.0383   4.0461   4.0944
     4.1043   4.1309   4.1842   4.3278   4.4529   4.4984   4.7435   4.7493
     4.8337   4.8466   4.8552   4.8871   4.9221   4.9508   5.0224   5.0422
     5.0462   5.0671   5.0733   5.1197   5.1342   5.3763   5.3992   5.4856
     5.7567   5.7941   5.8508   5.8773   6.1461   6.1477   6.1589   6.1660
     6.2236   6.2241   6.2266   6.2298   6.2563   6.2736   6.3008   6.3080
     6.3604   6.3700   6.3960   6.4359   6.4663   6.5262   6.5438   6.7208
     6.8447   6.8516   6.8736   6.9109   6.9163   6.9188   6.9202   6.9246
     6.9380   6.9524   6.9674   7.0198   7.0721   7.1024   7.1510   7.1632
     7.1681   7.1998   7.2112   7.2268   7.2313   7.3051   7.3700   7.4634
     7.6110   7.6199   7.6237   7.6388   7.6698   7.7059   7.7203   7.7266
     7.7440   7.7487   7.7636   7.7720   7.7799   7.8421   7.8664   7.8900
     7.8999   7.9068   7.9304   7.9411   7.9495   8.0122   8.0242   8.0256
     8.0487   8.0620   8.0816   8.1137   8.1308   8.1326   8.1535   8.1658
     8.1667   8.2196   8.2360   8.2928   8.3187   8.3516   8.3683   8.3706
     8.3886   8.4297   8.4871   8.5281   8.6152   8.6524   8.6939   8.8127
     8.8689   8.9160   9.0821   9.1123   9.3324   9.4427  11.6093  12.9746
    12.9982  13.3576  13.3628  13.4009  13.6937  13.7144  13.7224  13.7267
    13.7289  13.7459  13.7728  13.8578  13.8701  13.8786  13.8830  13.9011
    13.9108  13.9682  14.1240  14.2382  14.3101  14.3522  14.4626  14.5453
    14.6357

     occupation numbers 
     1.0000   1.0000   1.0000   1.0000   1.0000   1.0000   1.0000   1.0000
     1.0000   1.0000   1.0000   1.0000   1.0000   1.0000   1.0000   1.0000
     1.0000   1.0000   1.0000   1.0000   1.0000   1.0000   1.0000   1.0000
     1.0000   1.0000   1.0000   1.0000   1.0000   1.0000   1.0000   1.0000
     1.0000   1.0000   1.0000   1.0000   1.0000   1.0000   1.0000   1.0000
     1.0000   1.0000   1.0000   1.0000   1.0000   1.0000   1.0000   1.0000
     1.0000   1.0000   1.0000   1.0000   1.0000   1.0000   1.0000   1.0000
     1.0000   1.0000   1.0000   1.0000   1.0000   1.0000   1.0000   1.0000
     1.0000   1.0000   1.0000   1.0000   1.0000   1.0000   1.0000   1.0000
     1.0000   1.0000   1.0000   1.0000   1.0000   1.0000   1.0000   1.0000
     1.0000   1.0000   1.0000   1.0000   1.0000   1.0000   1.0000   1.0000
     1.0000   1.0000   1.0000   1.0000   1.0000   1.0000   1.0000   1.0000
     1.0000   1.0000   1.0000   1.0000   1.0000   1.0000   1.0000   1.0000
     1.0000   1.0000   1.0000   1.0000   1.0000   1.0000   1.0000   1.0000
     1.0000   1.0000   1.0000   1.0000   1.0000   1.0000   1.0000   1.0000
     1.0000   1.0000   1.0000   1.0000   1.0000   1.0000   1.0000   1.0000
     1.0000   1.0000   1.0000   1.0000   1.0000   1.0000   1.0000   1.0000
     1.0000   1.0000   1.0000   1.0000   1.0000   1.0000   1.0000   1.0000
     1.0000   1.0000   1.0000   1.0000   1.0000   1.0000   1.0000   1.0000
     1.0000   1.0000   1.0000   1.0000   1.0000   1.0000   1.0000   1.0000
     1.0000   1.0000   1.0000   1.0000   1.0000   1.0000   1.0000   1.0000
     1.0000   1.0000   1.0000   1.0000   1.0000   1.0000   1.0000   1.0000
     1.0000   1.0000   1.0000   1.0000   1.0000   1.0000   1.0000   1.0000
     1.0000   1.0000   1.0000   1.0000   1.0000   1.0000   1.0000   1.0000
     1.0000   1.0000   1.0000   1.0000   1.0000   1.0000   1.0000   1.0000
     1.0000   1.0000   1.0000   1.0000   1.0000   1.0000   1.0000   1.0000
     1.0000   1.0000   1.0000   1.0000   1.0000   1.0000   1.0000   1.0000
     1.0000   1.0000   1.0000   1.0000   1.0000   1.0000   1.0000   1.0000
     1.0000   1.0000   1.0000   1.0000   1.0000   1.0000   1.0000   1.0000
     1.0000   1.0000   1.0000   1.0000   1.0000   1.0000   1.0000   1.0000
     1.0000   1.0000   1.0000   1.0000   1.0000   1.0000   1.0000   1.0000
     1.0000   1.0000   1.0000   1.0000   1.0000   1.0000   1.0000   1.0000
     1.0000   1.0000   1.0000   1.0000   1.0000   1.0000   1.0000   1.0000
     1.0000   1.0000   1.0000   1.0000   1.0000   1.0000   1.0000   1.0000
     1.0000   1.0000   1.0000   1.0000   1.0000   1.0000   1.0000   1.0000
     1.0000   1.0000   1.0000   1.0000   1.0000   1.0000   1.0000   1.0000
     1.0000   1.0000   1.0000   1.0000   1.0000   1.0000   1.0000   1.0000
     1.0000   1.0000   1.0000   1.0000   1.0000   1.0000   1.0000   1.0000
     1.0000   1.0000   1.0000   1.0000   1.0000   1.0000   1.0000   1.0000
     1.0000   1.0000   1.0000   1.0000   1.0000   1.0000   1.0000   1.0000
     1.0000   1.0000   1.0000   1.0000   1.0000   1.0000   1.0000   1.0000
     1.0000   1.0000   1.0000   1.0000   1.0000   1.0000   1.0000   1.0000
     1.0000   1.0000   1.0000   1.0000   1.0000   1.0000   1.0000   1.0000
     1.0000   1.0000   1.0000   1.0000   1.0000   1.0000   1.0000   1.0000
     1.0000   1.0000   1.0000   1.0000   1.0000   1.0000   1.0000   1.0000
     1.0000   1.0000   1.0000   1.0000   1.0000   1.0000   1.0000   1.0000
     1.0000   1.0000   1.0000   1.0000   1.0000   1.0000   1.0000   1.0000
     1.0000   1.0000   1.0000   1.0000   1.0000   1.0000   1.0000   1.0000
     1.0000   1.0000   1.0000   1.0000   1.0000   1.0000   1.0000   1.0000
     1.0000   1.0000   1.0000   1.0000   1.0000   1.0000   1.0000   1.0000
     1.0000   1.0000   1.0000   1.0000   1.0000   1.0000   1.0000   1.0000
     1.0000   1.0000   1.0000   1.0000   1.0000   1.0000   1.0000   1.0000
     1.0000   1.0000   1.0000   1.0000   1.0000   1.0000   1.0000   1.0000
     1.0000   1.0000   1.0000   1.0000   1.0000   1.0000   1.0000   1.0000
     1.0000   1.0000   1.0000   1.0000   1.0000   1.0000   1.0000   1.0000
     1.0000   1.0000   1.0000   1.0000   1.0000   1.0000   1.0000   1.0000
     1.0000   1.0000   1.0000   1.0000   1.0000   1.0000   1.0000   1.0000
     1.0000   1.0000   1.0000   1.0000   1.0000   1.0000   1.0000   1.0000
     1.0000   1.0000   1.0000   1.0000   1.0000   1.0000   1.0000   1.0000
     1.0000   1.0000   1.0000   1.0000   1.0000   1.0000   1.0000   1.0000
     1.0000   1.0000   1.0000   0.9999   0.8238   0.3072   0.0000   0.0000
     0.0000   0.0000   0.0000   0.0000   0.0000   0.0000   0.0000   0.0000
     0.0000   0.0000   0.0000   0.0000   0.0000   0.0000   0.0000   0.0000
     0.0000   0.0000   0.0000   0.0000   0.0000   0.0000   0.0000   0.0000
     0.0000

          k = 0.0000 0.2887-0.3067 ( 51272 PWs)   bands (ev):

    -6.3535  -6.3247  -5.9839  -5.9689  -5.9321  -5.9297  -5.8662  -5.8655
    -5.8536  -5.8315  -5.7319  -5.7317  -5.7223  -5.7216  -5.7202  -5.7175
    -5.7016  -5.6928  -5.6845  -5.6746  -5.6618  -5.6597  -5.6527  -5.6494
    -5.6079  -5.6074  -5.6058  -5.6029  -5.5996  -5.5963  -5.5958  -5.5936
    -5.5919  -5.5857  -5.5790  -5.5763  -5.5731  -5.5711  -5.5651  -5.5635
    -5.5562  -5.5559  -5.5527  -5.5516  -5.5514  -5.5477  -5.5424  -5.5362
    -5.5315  -5.5042  -5.5041  -5.4862  -5.4856  -4.2014  -4.1973  -4.1928
    -4.1907  -4.1850  -4.1809  -4.1807  -4.1766  -4.1748  -4.1743  -4.1714
    -4.1684  -4.1678  -4.1671  -4.1668  -4.1618  -4.1613  -4.1591  -4.1561
    -4.1559  -4.1555  -4.1533  -4.1520  -4.1515  -4.1512  -4.1497  -4.1464
    -4.1448  -4.1443  -4.1439  -4.1422  -4.1418  -4.1417  -4.1413  -4.1402
    -4.1383  -4.1383  -4.1373  -4.1360  -4.1335  -4.1329  -4.1319  -4.1313
    -4.1306  -4.1273  -4.1263  -4.1242  -4.1230  -4.1215  -4.1172  -4.1161
    -4.1125  -4.1081  -4.1021  -4.1016  -4.1012  -4.0985  -4.0981  -4.0946
    -4.0929  -4.0914  -4.0887  -4.0872  -4.0833  -4.0833  -4.0827  -4.0791
    -4.0774  -4.0760  -4.0728  -4.0724  -4.0714  -4.0712  -4.0686  -4.0680
    -4.0663  -4.0636  -4.0634  -4.0616  -4.0594  -4.0575  -4.0571  -4.0570
    -4.0514  -4.0494  -4.0493  -4.0480  -4.0452  -4.0444  -4.0415  -4.0415
    -4.0361  -4.0306  -4.0291  -4.0261  -4.0250  -4.0232  -4.0186  -4.0170
    -4.0168  -4.0130  -4.0121  -4.0098  -4.0081  -4.0066  -4.0066  -4.0061
    -4.0056  -4.0038  -4.0020  -4.0017  -3.9998  -3.9991  -3.9987  -3.9970
    -3.9963  -3.9935  -3.9931  -3.9904  -3.9892  -3.9889  -3.9873  -3.9861
    -3.9840  -3.9839  -3.9811  -3.9804  -3.9773  -3.9767  -3.9754  -3.9745
    -3.9730  -3.9717  -3.9716  -3.9704  -3.9702  -3.9680  -3.9680  -3.9662
    -3.9662  -3.9652  -3.9645  -3.9632  -3.9611  -3.9605  -3.9593  -3.9590
    -3.9574  -3.9561  -3.9544  -3.9544  -3.9512  -3.9489  -3.9464  -3.9458
    -3.9423  -3.9406  -3.9368  -3.9365  -3.9328  -3.9301  -3.9299  -3.9289
    -3.9270  -3.9251  -3.9248  -3.9246  -3.9227  -3.9225  -3.9195  -3.9195
    -3.9183  -3.9168  -3.9160  -3.9144  -3.9139  -3.9130  -3.9120  -3.9103
    -3.9091  -3.9065  -3.9062  -3.9038  -3.9030  -3.9022  -3.8984  -3.8979
    -3.8973  -3.8969  -3.8941  -3.8931  -3.8923  -3.8902  -3.8883  -3.8880
    -3.8857  -3.8835  -3.8831  -3.8802  -3.8782  -3.8749  -3.8719  -3.8669
    -3.8563  -3.8394  -3.8264  -3.8201  -3.8172  -3.8057  -3.7978  -3.7739
    -3.7665  -3.7556  -3.7366  -3.7314  -3.7072  -3.6942  -3.6788  -3.6752
    -3.6669  -3.6623  -3.6183  -3.6178  -3.5821  -3.5760  -3.5588  -3.5527
    -3.3503  -3.3368  -3.2003  -3.1990  -3.1765  -3.1685  -3.1421  -3.1401
    -3.1368  -3.0869  -3.0092  -2.9533  -2.8440  -2.8189  -2.7769  -2.7767
    -2.7731  -2.7348  -2.6495  -2.6208  -2.4817  -2.4784  -2.4758  -2.4563
    -2.4549  -2.4214  -2.3355  -2.3333  -2.3113  -2.3103  -2.2804  -2.2767
    -2.2753  -2.2241  -2.1765  -2.1707  -2.1637  -2.1590  -2.1437  -2.0876
    -2.0841  -2.0786  -2.0564  -0.0478   2.9341   2.9500   2.9736   2.9967
     3.1191   3.1306   3.1898   3.1913   3.1951   3.2066   3.2285   3.2401
     3.2580   3.2707   3.4058   3.4073   3.4218   3.4278   3.4323   3.4453
     3.4816   3.4839   3.4883   3.5099   3.5111   3.5582   3.5658   3.6242
     3.8785   3.8855   3.9068   3.9445   4.0792   4.1288   4.2968   4.3146
     4.3160   4.3397   4.3892   4.3995   4.4309   4.5167   4.7461   4.7554
     4.7628   4.7829   4.7994   4.8204   5.0941   5.0976   5.1417   5.1704
     5.3581   5.3589   5.3799   5.3800   5.4164   5.4265   5.4831   5.5130
     5.5342   5.5403   5.5490   5.5545   5.5620   5.6086   5.6314   5.6453
     5.7084   5.7626   6.1762   6.2599   6.2859   6.3000   6.3000   6.3588
     6.5989   6.6005   6.6237   6.6429   6.6697   6.6724   6.7084   6.7279
     6.7934   6.8450   6.9787   6.9790   6.9969   7.0316   7.0583   7.0665
     7.0800   7.1028   7.1870   7.1943   7.1994   7.2007   7.2261   7.2302
     7.2382   7.2435   7.2808   7.3019   7.3708   7.3985   7.4216   7.4389
     7.4668   7.5159   7.5348   7.5587   7.5640   7.5651   7.6487   7.6539
     7.6607   7.6685   7.6888   7.7070   7.7692   7.7876   7.7907   7.8062
     7.8144   7.8577   7.8663   7.8812   7.9064   7.9927   8.0158   8.0339
     8.0644   8.0654   8.0880   8.0894   8.1402   8.1600   8.1791   8.2097
     8.2203   8.2530   8.2569   8.3001   8.3084   8.3359   8.3697   8.3782
     8.3797   8.4370   8.4477   8.5009   8.6408   8.6455   8.6634   8.7683
     8.8334   8.9053   9.1151   9.1920   9.2302   9.4340  12.0684  12.1458
    13.3776  13.4393  13.6478  13.6519  13.6994  13.7028  13.7792  13.7910
    13.7958  13.8047  13.8079  13.8296  13.8565  13.9183  14.0247  14.0253
    14.0402  14.0631  14.1049  14.1086  14.1218  14.2548  14.3554  14.3698
    14.4663

     occupation numbers 
     1.0000   1.0000   1.0000   1.0000   1.0000   1.0000   1.0000   1.0000
     1.0000   1.0000   1.0000   1.0000   1.0000   1.0000   1.0000   1.0000
     1.0000   1.0000   1.0000   1.0000   1.0000   1.0000   1.0000   1.0000
     1.0000   1.0000   1.0000   1.0000   1.0000   1.0000   1.0000   1.0000
     1.0000   1.0000   1.0000   1.0000   1.0000   1.0000   1.0000   1.0000
     1.0000   1.0000   1.0000   1.0000   1.0000   1.0000   1.0000   1.0000
     1.0000   1.0000   1.0000   1.0000   1.0000   1.0000   1.0000   1.0000
     1.0000   1.0000   1.0000   1.0000   1.0000   1.0000   1.0000   1.0000
     1.0000   1.0000   1.0000   1.0000   1.0000   1.0000   1.0000   1.0000
     1.0000   1.0000   1.0000   1.0000   1.0000   1.0000   1.0000   1.0000
     1.0000   1.0000   1.0000   1.0000   1.0000   1.0000   1.0000   1.0000
     1.0000   1.0000   1.0000   1.0000   1.0000   1.0000   1.0000   1.0000
     1.0000   1.0000   1.0000   1.0000   1.0000   1.0000   1.0000   1.0000
     1.0000   1.0000   1.0000   1.0000   1.0000   1.0000   1.0000   1.0000
     1.0000   1.0000   1.0000   1.0000   1.0000   1.0000   1.0000   1.0000
     1.0000   1.0000   1.0000   1.0000   1.0000   1.0000   1.0000   1.0000
     1.0000   1.0000   1.0000   1.0000   1.0000   1.0000   1.0000   1.0000
     1.0000   1.0000   1.0000   1.0000   1.0000   1.0000   1.0000   1.0000
     1.0000   1.0000   1.0000   1.0000   1.0000   1.0000   1.0000   1.0000
     1.0000   1.0000   1.0000   1.0000   1.0000   1.0000   1.0000   1.0000
     1.0000   1.0000   1.0000   1.0000   1.0000   1.0000   1.0000   1.0000
     1.0000   1.0000   1.0000   1.0000   1.0000   1.0000   1.0000   1.0000
     1.0000   1.0000   1.0000   1.0000   1.0000   1.0000   1.0000   1.0000
     1.0000   1.0000   1.0000   1.0000   1.0000   1.0000   1.0000   1.0000
     1.0000   1.0000   1.0000   1.0000   1.0000   1.0000   1.0000   1.0000
     1.0000   1.0000   1.0000   1.0000   1.0000   1.0000   1.0000   1.0000
     1.0000   1.0000   1.0000   1.0000   1.0000   1.0000   1.0000   1.0000
     1.0000   1.0000   1.0000   1.0000   1.0000   1.0000   1.0000   1.0000
     1.0000   1.0000   1.0000   1.0000   1.0000   1.0000   1.0000   1.0000
     1.0000   1.0000   1.0000   1.0000   1.0000   1.0000   1.0000   1.0000
     1.0000   1.0000   1.0000   1.0000   1.0000   1.0000   1.0000   1.0000
     1.0000   1.0000   1.0000   1.0000   1.0000   1.0000   1.0000   1.0000
     1.0000   1.0000   1.0000   1.0000   1.0000   1.0000   1.0000   1.0000
     1.0000   1.0000   1.0000   1.0000   1.0000   1.0000   1.0000   1.0000
     1.0000   1.0000   1.0000   1.0000   1.0000   1.0000   1.0000   1.0000
     1.0000   1.0000   1.0000   1.0000   1.0000   1.0000   1.0000   1.0000
     1.0000   1.0000   1.0000   1.0000   1.0000   1.0000   1.0000   1.0000
     1.0000   1.0000   1.0000   1.0000   1.0000   1.0000   1.0000   1.0000
     1.0000   1.0000   1.0000   1.0000   1.0000   1.0000   1.0000   1.0000
     1.0000   1.0000   1.0000   1.0000   1.0000   1.0000   1.0000   1.0000
     1.0000   1.0000   1.0000   1.0000   1.0000   1.0000   1.0000   1.0000
     1.0000   1.0000   1.0000   1.0000   1.0000   1.0000   1.0000   1.0000
     1.0000   1.0000   1.0000   1.0000   1.0000   1.0000   1.0000   1.0000
     1.0000   1.0000   1.0000   1.0000   1.0000   1.0000   1.0000   1.0000
     1.0000   1.0000   1.0000   1.0000   1.0000   1.0000   1.0000   1.0000
     1.0000   1.0000   1.0000   1.0000   1.0000   1.0000   1.0000   1.0000
     1.0000   1.0000   1.0000   1.0000   1.0000   1.0000   1.0000   1.0000
     1.0000   1.0000   1.0000   1.0000   1.0000   1.0000   1.0000   1.0000
     1.0000   1.0000   1.0000   1.0000   1.0000   1.0000   1.0000   1.0000
     1.0000   1.0000   1.0000   1.0000   1.0000   1.0000   1.0000   1.0000
     1.0000   1.0000   1.0000   1.0000   1.0000   1.0000   1.0000   1.0000
     1.0000   1.0000   1.0000   1.0000   1.0000   1.0000   1.0000   1.0000
     1.0000   1.0000   1.0000   1.0000   1.0000   1.0000   1.0000   1.0000
     1.0000   1.0000   1.0000   1.0000   1.0000   1.0000   1.0000   1.0000
     1.0000   1.0000   1.0000   1.0000   1.0000   1.0000   1.0000   1.0000
     1.0000   1.0000   1.0000   1.0000   1.0000   1.0000   1.0000   1.0000
     1.0000   1.0000   1.0000   1.0000   1.0000   1.0000   1.0000   1.0000
     1.0000   1.0000   1.0000   1.0000   1.0000   1.0000   1.0000   1.0000
     1.0000   1.0000   1.0000   1.0000   1.0000   1.0000   1.0000   1.0000
     1.0000   1.0000   1.0000   1.0000   1.0000   1.0000   1.0000   1.0000
     1.0000   1.0000   0.9999   0.9971   0.9880   0.3481   0.0000   0.0000
     0.0000   0.0000   0.0000   0.0000   0.0000   0.0000   0.0000   0.0000
     0.0000   0.0000   0.0000   0.0000   0.0000   0.0000   0.0000   0.0000
     0.0000   0.0000   0.0000   0.0000   0.0000   0.0000   0.0000   0.0000
     0.0000

          k = 0.0000-0.5774 0.0000 ( 51276 PWs)   bands (ev):

    -6.2574  -6.2278  -6.0313  -6.0277  -6.0102  -5.9990  -5.9255  -5.9062
    -5.7798  -5.7781  -5.7773  -5.7680  -5.7148  -5.7119  -5.6976  -5.6932
    -5.6912  -5.6818  -5.6750  -5.6680  -5.6594  -5.6365  -5.6317  -5.6235
    -5.6191  -5.6176  -5.6148  -5.6116  -5.6111  -5.6092  -5.6072  -5.6023
    -5.5974  -5.5960  -5.5903  -5.5842  -5.5734  -5.5674  -5.5643  -5.5546
    -5.5528  -5.5526  -5.5500  -5.5493  -5.5479  -5.5476  -5.5430  -5.5365
    -5.5307  -5.5032  -5.5029  -5.4855  -5.4846  -4.1931  -4.1887  -4.1832
    -4.1825  -4.1785  -4.1753  -4.1750  -4.1739  -4.1733  -4.1703  -4.1694
    -4.1676  -4.1661  -4.1644  -4.1625  -4.1621  -4.1598  -4.1532  -4.1526
    -4.1510  -4.1498  -4.1468  -4.1452  -4.1428  -4.1419  -4.1411  -4.1404
    -4.1403  -4.1394  -4.1385  -4.1375  -4.1374  -4.1368  -4.1360  -4.1358
    -4.1333  -4.1309  -4.1287  -4.1271  -4.1270  -4.1264  -4.1247  -4.1245
    -4.1228  -4.1219  -4.1201  -4.1192  -4.1187  -4.1166  -4.1144  -4.1138
    -4.1137  -4.1127  -4.1111  -4.1101  -4.1087  -4.1083  -4.1075  -4.1062
    -4.1011  -4.1004  -4.0987  -4.0979  -4.0957  -4.0949  -4.0927  -4.0921
    -4.0920  -4.0901  -4.0890  -4.0882  -4.0880  -4.0846  -4.0829  -4.0817
    -4.0796  -4.0781  -4.0770  -4.0764  -4.0745  -4.0722  -4.0681  -4.0635
    -4.0586  -4.0531  -4.0464  -4.0432  -4.0408  -4.0391  -4.0365  -4.0318
    -4.0295  -4.0293  -4.0275  -4.0268  -4.0254  -4.0234  -4.0233  -4.0208
    -4.0189  -4.0159  -4.0158  -4.0150  -4.0138  -4.0136  -4.0096  -4.0092
    -4.0087  -4.0063  -4.0056  -4.0018  -4.0010  -3.9986  -3.9976  -3.9962
    -3.9955  -3.9946  -3.9942  -3.9927  -3.9919  -3.9916  -3.9910  -3.9899
    -3.9888  -3.9878  -3.9850  -3.9843  -3.9841  -3.9814  -3.9809  -3.9801
    -3.9785  -3.9783  -3.9753  -3.9749  -3.9746  -3.9688  -3.9679  -3.9662
    -3.9647  -3.9646  -3.9626  -3.9619  -3.9593  -3.9587  -3.9573  -3.9570
    -3.9555  -3.9548  -3.9534  -3.9520  -3.9490  -3.9473  -3.9470  -3.9441
    -3.9394  -3.9388  -3.9376  -3.9329  -3.9329  -3.9308  -3.9290  -3.9256
    -3.9252  -3.9241  -3.9211  -3.9201  -3.9189  -3.9175  -3.9170  -3.9163
    -3.9154  -3.9151  -3.9140  -3.9127  -3.9124  -3.9110  -3.9085  -3.9085
    -3.9073  -3.9072  -3.9069  -3.9050  -3.9040  -3.9036  -3.9011  -3.8993
    -3.8992  -3.8973  -3.8966  -3.8951  -3.8949  -3.8942  -3.8923  -3.8885
    -3.8872  -3.8859  -3.8853  -3.8838  -3.8831  -3.8814  -3.8779  -3.8698
    -3.8632  -3.8578  -3.8420  -3.8352  -3.8281  -3.8184  -3.8105  -3.8022
    -3.7927  -3.7642  -3.7570  -3.7466  -3.7111  -3.7039  -3.6900  -3.6857
    -3.6711  -3.6692  -3.6673  -3.6602  -3.5785  -3.5751  -3.4853  -3.4795
    -3.4653  -3.4516  -3.1854  -3.1783  -3.1641  -3.1323  -2.8762  -2.8722
    -2.8606  -2.8564  -2.7776  -2.7709  -2.7675  -2.7643  -2.7279  -2.7208
    -2.7147  -2.7118  -2.7047  -2.6997  -2.6937  -2.6772  -2.6465  -2.6171
    -2.5212  -2.4590  -2.4243  -2.3499  -2.3416  -2.2877  -2.2809  -2.2772
    -2.2742  -2.2673  -2.2551  -2.2500  -2.2085  -2.1715  -2.1597  -2.0686
    -2.0130  -1.9998  -1.9862  -0.0388   2.6608   2.6720   2.7418   2.7838
     2.9509   3.0750   3.0781   3.0842   3.0931   3.0970   3.1088   3.1193
     3.1342   3.2382   3.2535   3.3485   3.3560   3.3574   3.3769   3.4080
     3.4111   3.6133   3.6168   3.6197   3.6323   3.6526   3.6671   3.6807
     3.6815   3.9613   3.9828   3.9909   3.9937   4.0759   4.1228   4.1289
     4.1980   4.2149   4.2779   4.3035   4.3200   4.3848   5.0448   5.0550
     5.0709   5.1317   5.1751   5.1921   5.2067   5.2089   5.2549   5.3480
     5.3552   5.6490   5.6808   5.7503   5.7556   5.7636   5.7723   5.8178
     5.8181   5.8231   5.8248   5.8269   5.8376   5.8964   5.9100   6.3165
     6.3297   6.3370   6.3640   6.3661   6.3952   6.3996   6.4360   6.5575
     6.5606   6.6174   6.6291   6.6350   6.7445   6.7462   6.7474   6.7503
     6.7589   6.7690   6.7899   6.8316   6.9071   6.9132   6.9267   6.9290
     6.9317   6.9358   6.9367   6.9573   6.9603   6.9688   6.9871   6.9896
     6.9955   7.0076   7.0625   7.0818   7.1362   7.1420   7.1481   7.1620
     7.2856   7.3190   7.3418   7.3437   7.4149   7.5130   7.5250   7.5275
     7.5598   7.5908   7.6129   7.7422   7.7548   7.7603   7.7800   7.7870
     7.7882   7.7901   7.8166   7.8585   7.8801   7.9105   7.9108   7.9145
     7.9207   7.9229   7.9550   8.0206   8.0456   8.0474   8.0511   8.0693
     8.1458   8.1654   8.1851   8.2287   8.2306   8.2682   8.2706   8.2924
     8.2977   8.3394   8.3825   8.3949   8.6713   8.6749   8.6756   8.6961
     8.7794   8.8693   8.9302   9.0157   9.2753   9.3676  12.5239  12.5652
    13.2876  13.3010  13.4544  13.4774  13.5068  13.5610  13.9990  14.0002
    14.1494  14.1538  14.1709  14.1941  14.2035  14.2093  14.2596  14.2779
    14.2820  14.2899  14.2956  14.3000  14.3180  14.3213  14.4622  14.5939
    14.5963

     occupation numbers 
     1.0000   1.0000   1.0000   1.0000   1.0000   1.0000   1.0000   1.0000
     1.0000   1.0000   1.0000   1.0000   1.0000   1.0000   1.0000   1.0000
     1.0000   1.0000   1.0000   1.0000   1.0000   1.0000   1.0000   1.0000
     1.0000   1.0000   1.0000   1.0000   1.0000   1.0000   1.0000   1.0000
     1.0000   1.0000   1.0000   1.0000   1.0000   1.0000   1.0000   1.0000
     1.0000   1.0000   1.0000   1.0000   1.0000   1.0000   1.0000   1.0000
     1.0000   1.0000   1.0000   1.0000   1.0000   1.0000   1.0000   1.0000
     1.0000   1.0000   1.0000   1.0000   1.0000   1.0000   1.0000   1.0000
     1.0000   1.0000   1.0000   1.0000   1.0000   1.0000   1.0000   1.0000
     1.0000   1.0000   1.0000   1.0000   1.0000   1.0000   1.0000   1.0000
     1.0000   1.0000   1.0000   1.0000   1.0000   1.0000   1.0000   1.0000
     1.0000   1.0000   1.0000   1.0000   1.0000   1.0000   1.0000   1.0000
     1.0000   1.0000   1.0000   1.0000   1.0000   1.0000   1.0000   1.0000
     1.0000   1.0000   1.0000   1.0000   1.0000   1.0000   1.0000   1.0000
     1.0000   1.0000   1.0000   1.0000   1.0000   1.0000   1.0000   1.0000
     1.0000   1.0000   1.0000   1.0000   1.0000   1.0000   1.0000   1.0000
     1.0000   1.0000   1.0000   1.0000   1.0000   1.0000   1.0000   1.0000
     1.0000   1.0000   1.0000   1.0000   1.0000   1.0000   1.0000   1.0000
     1.0000   1.0000   1.0000   1.0000   1.0000   1.0000   1.0000   1.0000
     1.0000   1.0000   1.0000   1.0000   1.0000   1.0000   1.0000   1.0000
     1.0000   1.0000   1.0000   1.0000   1.0000   1.0000   1.0000   1.0000
     1.0000   1.0000   1.0000   1.0000   1.0000   1.0000   1.0000   1.0000
     1.0000   1.0000   1.0000   1.0000   1.0000   1.0000   1.0000   1.0000
     1.0000   1.0000   1.0000   1.0000   1.0000   1.0000   1.0000   1.0000
     1.0000   1.0000   1.0000   1.0000   1.0000   1.0000   1.0000   1.0000
     1.0000   1.0000   1.0000   1.0000   1.0000   1.0000   1.0000   1.0000
     1.0000   1.0000   1.0000   1.0000   1.0000   1.0000   1.0000   1.0000
     1.0000   1.0000   1.0000   1.0000   1.0000   1.0000   1.0000   1.0000
     1.0000   1.0000   1.0000   1.0000   1.0000   1.0000   1.0000   1.0000
     1.0000   1.0000   1.0000   1.0000   1.0000   1.0000   1.0000   1.0000
     1.0000   1.0000   1.0000   1.0000   1.0000   1.0000   1.0000   1.0000
     1.0000   1.0000   1.0000   1.0000   1.0000   1.0000   1.0000   1.0000
     1.0000   1.0000   1.0000   1.0000   1.0000   1.0000   1.0000   1.0000
     1.0000   1.0000   1.0000   1.0000   1.0000   1.0000   1.0000   1.0000
     1.0000   1.0000   1.0000   1.0000   1.0000   1.0000   1.0000   1.0000
     1.0000   1.0000   1.0000   1.0000   1.0000   1.0000   1.0000   1.0000
     1.0000   1.0000   1.0000   1.0000   1.0000   1.0000   1.0000   1.0000
     1.0000   1.0000   1.0000   1.0000   1.0000   1.0000   1.0000   1.0000
     1.0000   1.0000   1.0000   1.0000   1.0000   1.0000   1.0000   1.0000
     1.0000   1.0000   1.0000   1.0000   1.0000   1.0000   1.0000   1.0000
     1.0000   1.0000   1.0000   1.0000   1.0000   1.0000   1.0000   1.0000
     1.0000   1.0000   1.0000   1.0000   1.0000   1.0000   1.0000   1.0000
     1.0000   1.0000   1.0000   1.0000   1.0000   1.0000   1.0000   1.0000
     1.0000   1.0000   1.0000   1.0000   1.0000   1.0000   1.0000   1.0000
     1.0000   1.0000   1.0000   1.0000   1.0000   1.0000   1.0000   1.0000
     1.0000   1.0000   1.0000   1.0000   1.0000   1.0000   1.0000   1.0000
     1.0000   1.0000   1.0000   1.0000   1.0000   1.0000   1.0000   1.0000
     1.0000   1.0000   1.0000   1.0000   1.0000   1.0000   1.0000   1.0000
     1.0000   1.0000   1.0000   1.0000   1.0000   1.0000   1.0000   1.0000
     1.0000   1.0000   1.0000   1.0000   1.0000   1.0000   1.0000   1.0000
     1.0000   1.0000   1.0000   1.0000   1.0000   1.0000   1.0000   1.0000
     1.0000   1.0000   1.0000   1.0000   1.0000   1.0000   1.0000   1.0000
     1.0000   1.0000   1.0000   1.0000   1.0000   1.0000   1.0000   1.0000
     1.0000   1.0000   1.0000   1.0000   1.0000   1.0000   1.0000   1.0000
     1.0000   1.0000   1.0000   1.0000   1.0000   1.0000   1.0000   1.0000
     1.0000   1.0000   1.0000   1.0000   1.0000   1.0000   1.0000   1.0000
     1.0000   1.0000   1.0000   1.0000   1.0000   1.0000   1.0000   1.0000
     1.0000   1.0000   1.0000   1.0000   1.0000   1.0000   1.0000   1.0000
     1.0000   1.0000   1.0000   1.0000   1.0000   1.0000   1.0000   1.0000
     1.0000   1.0000   1.0000   1.0000   1.0000   1.0000   1.0000   1.0000
     1.0000   1.0000   1.0000   1.0000   0.9527   0.6820   0.0000   0.0000
     0.0000   0.0000   0.0000   0.0000   0.0000   0.0000   0.0000   0.0000
     0.0000   0.0000   0.0000   0.0000   0.0000   0.0000   0.0000   0.0000
     0.0000   0.0000   0.0000   0.0000   0.0000   0.0000   0.0000   0.0000
     0.0000

          k = 0.0000-0.5774-0.3067 ( 51244 PWs)   bands (ev):

    -6.1955  -6.1912  -6.1868  -6.1382  -5.8903  -5.8889  -5.8760  -5.8676
    -5.8438  -5.8432  -5.8211  -5.8051  -5.6826  -5.6767  -5.6736  -5.6717
    -5.6711  -5.6711  -5.6633  -5.6601  -5.6581  -5.6569  -5.6527  -5.6518
    -5.6510  -5.6442  -5.6383  -5.6357  -5.6270  -5.6084  -5.5849  -5.5829
    -5.5797  -5.5769  -5.5738  -5.5737  -5.5701  -5.5663  -5.5615  -5.5580
    -5.5568  -5.5562  -5.5535  -5.5504  -5.5484  -5.5479  -5.5443  -5.5377
    -5.5339  -5.5047  -5.5039  -5.4858  -5.4849  -4.1907  -4.1872  -4.1863
    -4.1819  -4.1771  -4.1747  -4.1714  -4.1677  -4.1672  -4.1658  -4.1655
    -4.1652  -4.1640  -4.1630  -4.1622  -4.1621  -4.1615  -4.1593  -4.1562
    -4.1555  -4.1553  -4.1502  -4.1495  -4.1481  -4.1480  -4.1460  -4.1459
    -4.1448  -4.1438  -4.1414  -4.1409  -4.1378  -4.1358  -4.1344  -4.1334
    -4.1330  -4.1312  -4.1311  -4.1291  -4.1283  -4.1277  -4.1257  -4.1237
    -4.1231  -4.1220  -4.1203  -4.1202  -4.1197  -4.1178  -4.1171  -4.1166
    -4.1151  -4.1142  -4.1120  -4.1119  -4.1101  -4.1084  -4.1056  -4.1042
    -4.1036  -4.1030  -4.1007  -4.0960  -4.0942  -4.0923  -4.0922  -4.0920
    -4.0879  -4.0847  -4.0844  -4.0800  -4.0781  -4.0761  -4.0716  -4.0701
    -4.0685  -4.0672  -4.0659  -4.0653  -4.0640  -4.0639  -4.0630  -4.0602
    -4.0594  -4.0581  -4.0541  -4.0526  -4.0499  -4.0477  -4.0470  -4.0448
    -4.0444  -4.0423  -4.0386  -4.0338  -4.0331  -4.0305  -4.0233  -4.0224
    -4.0181  -4.0151  -4.0135  -4.0128  -4.0089  -4.0076  -4.0071  -4.0060
    -4.0054  -4.0049  -4.0026  -4.0024  -4.0013  -4.0000  -3.9991  -3.9976
    -3.9970  -3.9946  -3.9935  -3.9929  -3.9923  -3.9910  -3.9901  -3.9880
    -3.9853  -3.9851  -3.9846  -3.9835  -3.9818  -3.9803  -3.9779  -3.9760
    -3.9753  -3.9746  -3.9736  -3.9724  -3.9723  -3.9710  -3.9699  -3.9694
    -3.9682  -3.9672  -3.9647  -3.9635  -3.9633  -3.9614  -3.9613  -3.9604
    -3.9592  -3.9570  -3.9549  -3.9541  -3.9498  -3.9454  -3.9449  -3.9414
    -3.9402  -3.9392  -3.9361  -3.9346  -3.9316  -3.9305  -3.9284  -3.9280
    -3.9259  -3.9254  -3.9234  -3.9231  -3.9213  -3.9202  -3.9178  -3.9166
    -3.9150  -3.9142  -3.9141  -3.9139  -3.9128  -3.9118  -3.9110  -3.9097
    -3.9076  -3.9072  -3.9067  -3.9054  -3.9050  -3.9047  -3.9037  -3.9005
    -3.9005  -3.8992  -3.8980  -3.8976  -3.8975  -3.8948  -3.8905  -3.8901
    -3.8898  -3.8872  -3.8855  -3.8833  -3.8827  -3.8776  -3.8772  -3.8694
    -3.8641  -3.8631  -3.8411  -3.8353  -3.8285  -3.8011  -3.7998  -3.7690
    -3.7660  -3.7620  -3.7152  -3.7059  -3.6993  -3.6839  -3.6830  -3.6665
    -3.6619  -3.6518  -3.6410  -3.6018  -3.5973  -3.5844  -3.5730  -3.5723
    -3.5596  -3.5480  -3.1891  -3.1885  -3.1841  -3.1613  -2.8446  -2.8407
    -2.8402  -2.8351  -2.8262  -2.8221  -2.7947  -2.7716  -2.7101  -2.7002
    -2.6957  -2.6902  -2.6668  -2.6300  -2.5261  -2.5249  -2.5239  -2.5103
    -2.5084  -2.5071  -2.5039  -2.4809  -2.4634  -2.3974  -2.3581  -2.3575
    -2.3367  -2.2626  -2.2381  -2.1854  -2.0937  -2.0884  -2.0855  -2.0818
    -2.0803  -2.0642  -2.0457  -0.0437   2.7799   2.7973   2.8168   2.8385
     3.1466   3.1479   3.1648   3.1888   3.1972   3.1998   3.2000   3.2051
     3.2092   3.2140   3.2216   3.2239   3.2250   3.2293   3.2360   3.2455
     3.2744   3.3039   3.3146   3.3406   3.5336   3.5492   3.5585   3.6220
     3.7679   3.8148   4.0682   4.0691   4.0733   4.0784   4.0857   4.1278
     4.1321   4.1819   4.4892   4.5140   4.5215   4.5781   5.2734   5.2804
     5.3098   5.3492   5.4279   5.4313   5.4321   5.4340   5.4432   5.4508
     5.4539   5.4733   5.4790   5.4993   5.5382   5.5994   5.6011   5.6053
     5.6213   5.6810   5.6908   5.6930   6.0004   6.0039   6.0064   6.0093
     6.0163   6.0319   6.0478   6.0962   6.2983   6.3019   6.3067   6.3111
     6.3122   6.3210   6.3636   6.3681   6.6892   6.6936   6.7035   6.7286
     6.7449   6.7598   6.8670   6.8698   6.8795   6.9759   7.2060   7.2080
     7.2092   7.2143   7.2184   7.2240   7.2411   7.2764   7.3014   7.3043
     7.3047   7.3070   7.3157   7.3476   7.3498   7.3852   7.3864   7.4100
     7.4123   7.4353   7.4459   7.4482   7.5024   7.5068   7.5091   7.5541
     7.6137   7.6206   7.6207   7.6227   7.6250   7.6271   7.6355   7.6364
     7.6391   7.6436   7.6483   7.6492   7.6524   7.6568   7.6644   7.6714
     7.6777   7.7133   7.8341   7.8394   7.8419   7.9194   7.9716   8.0705
     8.1229   8.1243   8.1367   8.1523   8.2097   8.3501   8.3546   8.3787
     8.3897   8.4172   8.4290   8.5199   8.5815   8.5999   8.7683   8.7773
     8.9195   8.9233   8.9288   8.9321   9.2253   9.3580  12.7685  12.7922
    12.8180  12.9045  13.5679  13.5851  13.8257  13.8452  13.9613  13.9639
    14.0287  14.0343  14.2064  14.2212  14.2553  14.2653  14.2804  14.3403
    14.5501  14.5540  14.5590  14.5626  14.5695  14.5781  14.5798  14.5807
    14.6106

     occupation numbers 
     1.0000   1.0000   1.0000   1.0000   1.0000   1.0000   1.0000   1.0000
     1.0000   1.0000   1.0000   1.0000   1.0000   1.0000   1.0000   1.0000
     1.0000   1.0000   1.0000   1.0000   1.0000   1.0000   1.0000   1.0000
     1.0000   1.0000   1.0000   1.0000   1.0000   1.0000   1.0000   1.0000
     1.0000   1.0000   1.0000   1.0000   1.0000   1.0000   1.0000   1.0000
     1.0000   1.0000   1.0000   1.0000   1.0000   1.0000   1.0000   1.0000
     1.0000   1.0000   1.0000   1.0000   1.0000   1.0000   1.0000   1.0000
     1.0000   1.0000   1.0000   1.0000   1.0000   1.0000   1.0000   1.0000
     1.0000   1.0000   1.0000   1.0000   1.0000   1.0000   1.0000   1.0000
     1.0000   1.0000   1.0000   1.0000   1.0000   1.0000   1.0000   1.0000
     1.0000   1.0000   1.0000   1.0000   1.0000   1.0000   1.0000   1.0000
     1.0000   1.0000   1.0000   1.0000   1.0000   1.0000   1.0000   1.0000
     1.0000   1.0000   1.0000   1.0000   1.0000   1.0000   1.0000   1.0000
     1.0000   1.0000   1.0000   1.0000   1.0000   1.0000   1.0000   1.0000
     1.0000   1.0000   1.0000   1.0000   1.0000   1.0000   1.0000   1.0000
     1.0000   1.0000   1.0000   1.0000   1.0000   1.0000   1.0000   1.0000
     1.0000   1.0000   1.0000   1.0000   1.0000   1.0000   1.0000   1.0000
     1.0000   1.0000   1.0000   1.0000   1.0000   1.0000   1.0000   1.0000
     1.0000   1.0000   1.0000   1.0000   1.0000   1.0000   1.0000   1.0000
     1.0000   1.0000   1.0000   1.0000   1.0000   1.0000   1.0000   1.0000
     1.0000   1.0000   1.0000   1.0000   1.0000   1.0000   1.0000   1.0000
     1.0000   1.0000   1.0000   1.0000   1.0000   1.0000   1.0000   1.0000
     1.0000   1.0000   1.0000   1.0000   1.0000   1.0000   1.0000   1.0000
     1.0000   1.0000   1.0000   1.0000   1.0000   1.0000   1.0000   1.0000
     1.0000   1.0000   1.0000   1.0000   1.0000   1.0000   1.0000   1.0000
     1.0000   1.0000   1.0000   1.0000   1.0000   1.0000   1.0000   1.0000
     1.0000   1.0000   1.0000   1.0000   1.0000   1.0000   1.0000   1.0000
     1.0000   1.0000   1.0000   1.0000   1.0000   1.0000   1.0000   1.0000
     1.0000   1.0000   1.0000   1.0000   1.0000   1.0000   1.0000   1.0000
     1.0000   1.0000   1.0000   1.0000   1.0000   1.0000   1.0000   1.0000
     1.0000   1.0000   1.0000   1.0000   1.0000   1.0000   1.0000   1.0000
     1.0000   1.0000   1.0000   1.0000   1.0000   1.0000   1.0000   1.0000
     1.0000   1.0000   1.0000   1.0000   1.0000   1.0000   1.0000   1.0000
     1.0000   1.0000   1.0000   1.0000   1.0000   1.0000   1.0000   1.0000
     1.0000   1.0000   1.0000   1.0000   1.0000   1.0000   1.0000   1.0000
     1.0000   1.0000   1.0000   1.0000   1.0000   1.0000   1.0000   1.0000
     1.0000   1.0000   1.0000   1.0000   1.0000   1.0000   1.0000   1.0000
     1.0000   1.0000   1.0000   1.0000   1.0000   1.0000   1.0000   1.0000
     1.0000   1.0000   1.0000   1.0000   1.0000   1.0000   1.0000   1.0000
     1.0000   1.0000   1.0000   1.0000   1.0000   1.0000   1.0000   1.0000
     1.0000   1.0000   1.0000   1.0000   1.0000   1.0000   1.0000   1.0000
     1.0000   1.0000   1.0000   1.0000   1.0000   1.0000   1.0000   1.0000
     1.0000   1.0000   1.0000   1.0000   1.0000   1.0000   1.0000   1.0000
     1.0000   1.0000   1.0000   1.0000   1.0000   1.0000   1.0000   1.0000
     1.0000   1.0000   1.0000   1.0000   1.0000   1.0000   1.0000   1.0000
     1.0000   1.0000   1.0000   1.0000   1.0000   1.0000   1.0000   1.0000
     1.0000   1.0000   1.0000   1.0000   1.0000   1.0000   1.0000   1.0000
     1.0000   1.0000   1.0000   1.0000   1.0000   1.0000   1.0000   1.0000
     1.0000   1.0000   1.0000   1.0000   1.0000   1.0000   1.0000   1.0000
     1.0000   1.0000   1.0000   1.0000   1.0000   1.0000   1.0000   1.0000
     1.0000   1.0000   1.0000   1.0000   1.0000   1.0000   1.0000   1.0000
     1.0000   1.0000   1.0000   1.0000   1.0000   1.0000   1.0000   1.0000
     1.0000   1.0000   1.0000   1.0000   1.0000   1.0000   1.0000   1.0000
     1.0000   1.0000   1.0000   1.0000   1.0000   1.0000   1.0000   1.0000
     1.0000   1.0000   1.0000   1.0000   1.0000   1.0000   1.0000   1.0000
     1.0000   1.0000   1.0000   1.0000   1.0000   1.0000   1.0000   1.0000
     1.0000   1.0000   1.0000   1.0000   1.0000   1.0000   1.0000   1.0000
     1.0000   1.0000   1.0000   1.0000   1.0000   1.0000   1.0000   1.0000
     1.0000   1.0000   1.0000   1.0000   1.0000   1.0000   1.0000   1.0000
     1.0000   1.0000   1.0000   1.0000   1.0000   1.0000   1.0000   1.0000
     1.0000   1.0000   1.0000   1.0000   0.9899   0.7249   0.0000   0.0000
     0.0000   0.0000   0.0000   0.0000   0.0000   0.0000   0.0000   0.0000
     0.0000   0.0000   0.0000   0.0000   0.0000   0.0000   0.0000   0.0000
     0.0000   0.0000   0.0000   0.0000   0.0000   0.0000   0.0000   0.0000
     0.0000

          k = 0.2500 0.4330 0.0000 ( 51293 PWs)   bands (ev):

    -6.2967  -6.1145  -6.0956  -6.0620  -6.0453  -5.9213  -5.9180  -5.8994
    -5.8781  -5.7741  -5.7610  -5.7252  -5.7242  -5.6930  -5.6808  -5.6790
    -5.6773  -5.6694  -5.6678  -5.6647  -5.6615  -5.6588  -5.6537  -5.6420
    -5.6371  -5.6348  -5.6210  -5.6180  -5.6144  -5.6070  -5.6060  -5.5959
    -5.5927  -5.5852  -5.5843  -5.5743  -5.5685  -5.5668  -5.5602  -5.5587
    -5.5546  -5.5534  -5.5515  -5.5495  -5.5483  -5.5474  -5.5426  -5.5372
    -5.5308  -5.5039  -5.5024  -5.4859  -5.4842  -4.1941  -4.1888  -4.1850
    -4.1806  -4.1778  -4.1770  -4.1755  -4.1721  -4.1702  -4.1685  -4.1656
    -4.1650  -4.1645  -4.1619  -4.1603  -4.1602  -4.1595  -4.1579  -4.1562
    -4.1551  -4.1535  -4.1520  -4.1513  -4.1501  -4.1456  -4.1439  -4.1422
    -4.1420  -4.1401  -4.1392  -4.1373  -4.1360  -4.1351  -4.1336  -4.1327
    -4.1316  -4.1304  -4.1296  -4.1294  -4.1284  -4.1251  -4.1248  -4.1238
    -4.1232  -4.1217  -4.1213  -4.1203  -4.1176  -4.1171  -4.1165  -4.1153
    -4.1124  -4.1115  -4.1108  -4.1090  -4.1083  -4.1070  -4.1056  -4.1047
    -4.1039  -4.1020  -4.0993  -4.0986  -4.0974  -4.0960  -4.0953  -4.0947
    -4.0931  -4.0920  -4.0907  -4.0874  -4.0858  -4.0839  -4.0821  -4.0810
    -4.0791  -4.0760  -4.0736  -4.0691  -4.0636  -4.0614  -4.0560  -4.0533
    -4.0525  -4.0500  -4.0443  -4.0437  -4.0427  -4.0395  -4.0379  -4.0343
    -4.0304  -4.0278  -4.0263  -4.0253  -4.0242  -4.0211  -4.0198  -4.0189
    -4.0164  -4.0160  -4.0158  -4.0137  -4.0136  -4.0127  -4.0114  -4.0099
    -4.0084  -4.0078  -4.0063  -4.0055  -4.0037  -4.0027  -4.0008  -3.9980
    -3.9972  -3.9949  -3.9935  -3.9924  -3.9910  -3.9902  -3.9891  -3.9872
    -3.9870  -3.9865  -3.9843  -3.9835  -3.9822  -3.9811  -3.9805  -3.9802
    -3.9795  -3.9784  -3.9771  -3.9767  -3.9747  -3.9735  -3.9720  -3.9705
    -3.9692  -3.9688  -3.9682  -3.9668  -3.9657  -3.9630  -3.9602  -3.9554
    -3.9524  -3.9504  -3.9493  -3.9476  -3.9466  -3.9440  -3.9417  -3.9409
    -3.9388  -3.9366  -3.9356  -3.9340  -3.9330  -3.9309  -3.9294  -3.9277
    -3.9269  -3.9249  -3.9243  -3.9229  -3.9221  -3.9203  -3.9190  -3.9176
    -3.9167  -3.9155  -3.9131  -3.9117  -3.9113  -3.9110  -3.9101  -3.9092
    -3.9078  -3.9073  -3.9067  -3.9058  -3.9054  -3.9043  -3.9033  -3.9022
    -3.9004  -3.8991  -3.8976  -3.8949  -3.8940  -3.8929  -3.8916  -3.8900
    -3.8892  -3.8874  -3.8854  -3.8805  -3.8773  -3.8755  -3.8736  -3.8703
    -3.8685  -3.8644  -3.8514  -3.8401  -3.8270  -3.8218  -3.8001  -3.7984
    -3.7844  -3.7751  -3.7570  -3.7391  -3.7288  -3.7185  -3.7061  -3.6882
    -3.6855  -3.6684  -3.6664  -3.6648  -3.6479  -3.5727  -3.5702  -3.3286
    -3.3146  -3.2297  -3.2141  -3.1282  -3.1233  -3.1063  -3.0783  -3.0286
    -3.0247  -3.0054  -2.9653  -2.8947  -2.7892  -2.7682  -2.7281  -2.7109
    -2.6637  -2.6598  -2.6452  -2.5957  -2.5661  -2.4989  -2.4926  -2.4892
    -2.4850  -2.4720  -2.4598  -2.4125  -2.3397  -2.3273  -2.3250  -2.3165
    -2.3040  -2.2842  -2.2477  -2.2424  -2.2288  -2.1571  -2.1233  -2.0965
    -2.0474  -2.0133  -1.9615  -0.0390   2.6704   2.7763   2.7813   2.7936
     2.8073   2.9084   2.9202   2.9948   3.0407   3.0613   3.0688   3.2256
     3.3053   3.3119   3.3518   3.3602   3.3644   3.3749   3.3856   3.4111
     3.5333   3.5422   3.5472   3.5673   3.5851   3.6198   3.6504   3.7718
     3.8023   4.1091   4.1137   4.1245   4.1293   4.1472   4.1565   4.1752
     4.1935   4.2116   4.2561   4.2709   4.2963   4.3039   4.4213   4.7212
     4.7515   5.1281   5.1447   5.1640   5.1724   5.2108   5.3538   5.4068
     5.5494   5.5730   5.6671   5.6809   5.7817   5.7961   5.8093   5.8666
     5.8841   5.9561   5.9989   6.1944   6.2085   6.2312   6.2394   6.2535
     6.2749   6.3175   6.3237   6.3268   6.3447   6.3503   6.3862   6.5061
     6.5164   6.5248   6.5401   6.5423   6.5626   6.5742   6.5887   6.6368
     6.6464   6.6608   6.6648   6.6981   6.7074   6.7282   6.8070   6.8621
     6.8644   6.9131   6.9338   6.9407   6.9560   7.0068   7.0324   7.0624
     7.0686   7.1912   7.2322   7.2388   7.2482   7.2498   7.2672   7.3168
     7.4163   7.4219   7.4274   7.4301   7.4357   7.4611   7.4694   7.4814
     7.5211   7.5656   7.5871   7.6502   7.6537   7.6923   7.7440   7.8000
     7.8030   7.8125   7.8548   7.8570   7.8654   7.8799   7.9075   7.9320
     7.9485   7.9668   7.9990   8.0447   8.0553   8.0727   8.0762   8.0818
     8.0867   8.1271   8.1541   8.1859   8.1916   8.2127   8.2959   8.3538
     8.3701   8.4017   8.4083   8.4973   8.5467   8.6388   8.7044   8.7162
     8.7248   8.8910   8.9187   8.9737   9.2756   9.2821  12.3095  13.1496
    13.1938  13.3767  13.4020  13.5833  13.5888  13.5967  13.6408  13.7726
    13.7904  13.8198  13.9085  14.2191  14.2475  14.3689  14.3735  14.3853
    14.4064  14.4192  14.4641  14.4988  14.5483  14.5578  14.5629  14.6126
    14.6805

     occupation numbers 
     1.0000   1.0000   1.0000   1.0000   1.0000   1.0000   1.0000   1.0000
     1.0000   1.0000   1.0000   1.0000   1.0000   1.0000   1.0000   1.0000
     1.0000   1.0000   1.0000   1.0000   1.0000   1.0000   1.0000   1.0000
     1.0000   1.0000   1.0000   1.0000   1.0000   1.0000   1.0000   1.0000
     1.0000   1.0000   1.0000   1.0000   1.0000   1.0000   1.0000   1.0000
     1.0000   1.0000   1.0000   1.0000   1.0000   1.0000   1.0000   1.0000
     1.0000   1.0000   1.0000   1.0000   1.0000   1.0000   1.0000   1.0000
     1.0000   1.0000   1.0000   1.0000   1.0000   1.0000   1.0000   1.0000
     1.0000   1.0000   1.0000   1.0000   1.0000   1.0000   1.0000   1.0000
     1.0000   1.0000   1.0000   1.0000   1.0000   1.0000   1.0000   1.0000
     1.0000   1.0000   1.0000   1.0000   1.0000   1.0000   1.0000   1.0000
     1.0000   1.0000   1.0000   1.0000   1.0000   1.0000   1.0000   1.0000
     1.0000   1.0000   1.0000   1.0000   1.0000   1.0000   1.0000   1.0000
     1.0000   1.0000   1.0000   1.0000   1.0000   1.0000   1.0000   1.0000
     1.0000   1.0000   1.0000   1.0000   1.0000   1.0000   1.0000   1.0000
     1.0000   1.0000   1.0000   1.0000   1.0000   1.0000   1.0000   1.0000
     1.0000   1.0000   1.0000   1.0000   1.0000   1.0000   1.0000   1.0000
     1.0000   1.0000   1.0000   1.0000   1.0000   1.0000   1.0000   1.0000
     1.0000   1.0000   1.0000   1.0000   1.0000   1.0000   1.0000   1.0000
     1.0000   1.0000   1.0000   1.0000   1.0000   1.0000   1.0000   1.0000
     1.0000   1.0000   1.0000   1.0000   1.0000   1.0000   1.0000   1.0000
     1.0000   1.0000   1.0000   1.0000   1.0000   1.0000   1.0000   1.0000
     1.0000   1.0000   1.0000   1.0000   1.0000   1.0000   1.0000   1.0000
     1.0000   1.0000   1.0000   1.0000   1.0000   1.0000   1.0000   1.0000
     1.0000   1.0000   1.0000   1.0000   1.0000   1.0000   1.0000   1.0000
     1.0000   1.0000   1.0000   1.0000   1.0000   1.0000   1.0000   1.0000
     1.0000   1.0000   1.0000   1.0000   1.0000   1.0000   1.0000   1.0000
     1.0000   1.0000   1.0000   1.0000   1.0000   1.0000   1.0000   1.0000
     1.0000   1.0000   1.0000   1.0000   1.0000   1.0000   1.0000   1.0000
     1.0000   1.0000   1.0000   1.0000   1.0000   1.0000   1.0000   1.0000
     1.0000   1.0000   1.0000   1.0000   1.0000   1.0000   1.0000   1.0000
     1.0000   1.0000   1.0000   1.0000   1.0000   1.0000   1.0000   1.0000
     1.0000   1.0000   1.0000   1.0000   1.0000   1.0000   1.0000   1.0000
     1.0000   1.0000   1.0000   1.0000   1.0000   1.0000   1.0000   1.0000
     1.0000   1.0000   1.0000   1.0000   1.0000   1.0000   1.0000   1.0000
     1.0000   1.0000   1.0000   1.0000   1.0000   1.0000   1.0000   1.0000
     1.0000   1.0000   1.0000   1.0000   1.0000   1.0000   1.0000   1.0000
     1.0000   1.0000   1.0000   1.0000   1.0000   1.0000   1.0000   1.0000
     1.0000   1.0000   1.0000   1.0000   1.0000   1.0000   1.0000   1.0000
     1.0000   1.0000   1.0000   1.0000   1.0000   1.0000   1.0000   1.0000
     1.0000   1.0000   1.0000   1.0000   1.0000   1.0000   1.0000   1.0000
     1.0000   1.0000   1.0000   1.0000   1.0000   1.0000   1.0000   1.0000
     1.0000   1.0000   1.0000   1.0000   1.0000   1.0000   1.0000   1.0000
     1.0000   1.0000   1.0000   1.0000   1.0000   1.0000   1.0000   1.0000
     1.0000   1.0000   1.0000   1.0000   1.0000   1.0000   1.0000   1.0000
     1.0000   1.0000   1.0000   1.0000   1.0000   1.0000   1.0000   1.0000
     1.0000   1.0000   1.0000   1.0000   1.0000   1.0000   1.0000   1.0000
     1.0000   1.0000   1.0000   1.0000   1.0000   1.0000   1.0000   1.0000
     1.0000   1.0000   1.0000   1.0000   1.0000   1.0000   1.0000   1.0000
     1.0000   1.0000   1.0000   1.0000   1.0000   1.0000   1.0000   1.0000
     1.0000   1.0000   1.0000   1.0000   1.0000   1.0000   1.0000   1.0000
     1.0000   1.0000   1.0000   1.0000   1.0000   1.0000   1.0000   1.0000
     1.0000   1.0000   1.0000   1.0000   1.0000   1.0000   1.0000   1.0000
     1.0000   1.0000   1.0000   1.0000   1.0000   1.0000   1.0000   1.0000
     1.0000   1.0000   1.0000   1.0000   1.0000   1.0000   1.0000   1.0000
     1.0000   1.0000   1.0000   1.0000   1.0000   1.0000   1.0000   1.0000
     1.0000   1.0000   1.0000   1.0000   1.0000   1.0000   1.0000   1.0000
     1.0000   1.0000   1.0000   1.0000   1.0000   1.0000   1.0000   1.0000
     1.0000   1.0000   1.0000   1.0000   1.0000   1.0000   1.0000   1.0000
     1.0000   1.0000   1.0000   1.0000   1.0000   1.0000   1.0000   1.0000
     1.0000   1.0000   1.0000   1.0000   0.9524   0.9434   0.0000   0.0000
     0.0000   0.0000   0.0000   0.0000   0.0000   0.0000   0.0000   0.0000
     0.0000   0.0000   0.0000   0.0000   0.0000   0.0000   0.0000   0.0000
     0.0000   0.0000   0.0000   0.0000   0.0000   0.0000   0.0000   0.0000
     0.0000

          k = 0.2500 0.4330-0.3067 ( 51274 PWs)   bands (ev):

    -6.2415  -6.2194  -6.0610  -6.0567  -6.0525  -6.0002  -5.8641  -5.8613
    -5.7686  -5.7683  -5.7532  -5.7505  -5.7460  -5.7391  -5.7390  -5.7145
    -5.6730  -5.6693  -5.6658  -5.6613  -5.6552  -5.6537  -5.6468  -5.6324
    -5.6301  -5.6214  -5.6191  -5.6167  -5.6144  -5.6057  -5.6042  -5.5942
    -5.5896  -5.5876  -5.5778  -5.5714  -5.5672  -5.5648  -5.5619  -5.5572
    -5.5551  -5.5536  -5.5527  -5.5494  -5.5484  -5.5475  -5.5437  -5.5387
    -5.5339  -5.5054  -5.5033  -5.4861  -5.4846  -4.1907  -4.1882  -4.1868
    -4.1779  -4.1754  -4.1726  -4.1716  -4.1706  -4.1693  -4.1680  -4.1659
    -4.1645  -4.1635  -4.1626  -4.1598  -4.1589  -4.1580  -4.1565  -4.1557
    -4.1554  -4.1548  -4.1532  -4.1530  -4.1519  -4.1508  -4.1499  -4.1467
    -4.1458  -4.1446  -4.1430  -4.1401  -4.1395  -4.1384  -4.1367  -4.1353
    -4.1336  -4.1316  -4.1313  -4.1306  -4.1285  -4.1281  -4.1265  -4.1250
    -4.1243  -4.1231  -4.1221  -4.1211  -4.1194  -4.1178  -4.1164  -4.1149
    -4.1140  -4.1135  -4.1128  -4.1116  -4.1107  -4.1093  -4.1083  -4.1053
    -4.1038  -4.1012  -4.1002  -4.0975  -4.0969  -4.0914  -4.0908  -4.0876
    -4.0874  -4.0846  -4.0830  -4.0805  -4.0797  -4.0747  -4.0729  -4.0706
    -4.0683  -4.0668  -4.0658  -4.0621  -4.0610  -4.0586  -4.0572  -4.0547
    -4.0530  -4.0515  -4.0502  -4.0486  -4.0465  -4.0446  -4.0432  -4.0423
    -4.0369  -4.0355  -4.0346  -4.0313  -4.0305  -4.0262  -4.0245  -4.0240
    -4.0221  -4.0185  -4.0181  -4.0155  -4.0146  -4.0103  -4.0100  -4.0083
    -4.0074  -4.0054  -4.0030  -4.0020  -4.0008  -3.9998  -3.9981  -3.9973
    -3.9964  -3.9961  -3.9934  -3.9920  -3.9906  -3.9904  -3.9894  -3.9877
    -3.9862  -3.9857  -3.9855  -3.9834  -3.9824  -3.9814  -3.9811  -3.9799
    -3.9787  -3.9781  -3.9748  -3.9736  -3.9727  -3.9710  -3.9702  -3.9700
    -3.9680  -3.9675  -3.9658  -3.9632  -3.9613  -3.9589  -3.9585  -3.9549
    -3.9525  -3.9517  -3.9502  -3.9487  -3.9462  -3.9455  -3.9448  -3.9427
    -3.9406  -3.9382  -3.9356  -3.9341  -3.9327  -3.9301  -3.9291  -3.9275
    -3.9252  -3.9238  -3.9234  -3.9228  -3.9213  -3.9202  -3.9193  -3.9181
    -3.9178  -3.9166  -3.9157  -3.9142  -3.9122  -3.9117  -3.9115  -3.9101
    -3.9094  -3.9087  -3.9074  -3.9057  -3.9048  -3.9044  -3.9037  -3.9027
    -3.9004  -3.8996  -3.8983  -3.8974  -3.8931  -3.8927  -3.8913  -3.8909
    -3.8884  -3.8874  -3.8835  -3.8817  -3.8805  -3.8771  -3.8734  -3.8704
    -3.8667  -3.8612  -3.8553  -3.8351  -3.8328  -3.8230  -3.8147  -3.7957
    -3.7881  -3.7682  -3.7567  -3.7541  -3.7120  -3.6980  -3.6926  -3.6815
    -3.6720  -3.6677  -3.6431  -3.6180  -3.5786  -3.5682  -3.4569  -3.4498
    -3.4313  -3.4109  -3.2930  -3.2883  -3.2621  -3.2213  -2.8723  -2.8549
    -2.8535  -2.8482  -2.8262  -2.8022  -2.7653  -2.7590  -2.7491  -2.7417
    -2.7162  -2.6813  -2.5660  -2.5595  -2.5575  -2.5548  -2.5300  -2.5243
    -2.5186  -2.5108  -2.5048  -2.4951  -2.4755  -2.4033  -2.3536  -2.2961
    -2.1851  -2.1802  -2.1764  -2.1639  -2.1611  -2.1594  -2.1468  -2.1402
    -2.1204  -2.0500  -2.0388  -0.0440   2.8937   2.8968   2.9098   2.9186
     2.9309   2.9335   2.9534   2.9842   3.0048   3.0195   3.0635   3.0872
     3.1087   3.1140   3.3345   3.3367   3.3557   3.3918   3.4257   3.4332
     3.4564   3.4774   3.4873   3.4988   3.5371   3.5688   3.8172   3.8341
     3.8396   3.8433   3.8671   3.8717   3.8865   3.9115   3.9382   3.9776
     4.1125   4.1814   4.6389   4.6441   4.6902   4.7264   5.0047   5.0144
     5.0427   5.1155   5.3015   5.3318   5.3560   5.3664   5.3880   5.4261
     5.4575   5.4741   5.4848   5.5041   5.5619   5.5786   5.5822   5.6518
     5.8197   5.8652   5.9923   6.0004   6.0691   6.0701   6.1012   6.1245
     6.1692   6.1785   6.1912   6.1948   6.2116   6.2184   6.2468   6.3125
     6.4478   6.4534   6.4579   6.4597   6.4686   6.4952   6.5426   6.6033
     6.6993   6.7049   6.7265   6.7748   6.9232   6.9303   6.9381   6.9695
     7.0351   7.0898   7.1219   7.1419   7.1577   7.1885   7.3416   7.3765
     7.3810   7.3835   7.3865   7.4045   7.4156   7.4222   7.4493   7.4520
     7.4539   7.4901   7.4982   7.4996   7.5018   7.5057   7.5246   7.5417
     7.5452   7.5758   7.5863   7.5948   7.6152   7.6335   7.6403   7.6463
     7.6504   7.6589   7.6634   7.6925   7.6971   7.7228   7.7928   7.8563
     7.8881   7.8940   7.9021   7.9218   7.9432   7.9546   7.9777   7.9906
     8.0149   8.0179   8.0550   8.0573   8.0690   8.2014   8.3011   8.3125
     8.4104   8.4964   8.5975   8.6103   8.6246   8.6665   8.6690   8.7734
     8.7798   8.7982   8.9315   9.0361   9.2335   9.2673  12.6044  12.6828
    13.2749  13.2908  13.3106  13.4181  13.8802  13.8852  13.8899  13.9142
    14.0629  14.0665  14.0719  14.0807  14.1281  14.1888  14.4398  14.4770
    14.4879  14.4921  14.5151  14.5173  14.5312  14.5319  14.5372  14.5551
    14.5692

     occupation numbers 
     1.0000   1.0000   1.0000   1.0000   1.0000   1.0000   1.0000   1.0000
     1.0000   1.0000   1.0000   1.0000   1.0000   1.0000   1.0000   1.0000
     1.0000   1.0000   1.0000   1.0000   1.0000   1.0000   1.0000   1.0000
     1.0000   1.0000   1.0000   1.0000   1.0000   1.0000   1.0000   1.0000
     1.0000   1.0000   1.0000   1.0000   1.0000   1.0000   1.0000   1.0000
     1.0000   1.0000   1.0000   1.0000   1.0000   1.0000   1.0000   1.0000
     1.0000   1.0000   1.0000   1.0000   1.0000   1.0000   1.0000   1.0000
     1.0000   1.0000   1.0000   1.0000   1.0000   1.0000   1.0000   1.0000
     1.0000   1.0000   1.0000   1.0000   1.0000   1.0000   1.0000   1.0000
     1.0000   1.0000   1.0000   1.0000   1.0000   1.0000   1.0000   1.0000
     1.0000   1.0000   1.0000   1.0000   1.0000   1.0000   1.0000   1.0000
     1.0000   1.0000   1.0000   1.0000   1.0000   1.0000   1.0000   1.0000
     1.0000   1.0000   1.0000   1.0000   1.0000   1.0000   1.0000   1.0000
     1.0000   1.0000   1.0000   1.0000   1.0000   1.0000   1.0000   1.0000
     1.0000   1.0000   1.0000   1.0000   1.0000   1.0000   1.0000   1.0000
     1.0000   1.0000   1.0000   1.0000   1.0000   1.0000   1.0000   1.0000
     1.0000   1.0000   1.0000   1.0000   1.0000   1.0000   1.0000   1.0000
     1.0000   1.0000   1.0000   1.0000   1.0000   1.0000   1.0000   1.0000
     1.0000   1.0000   1.0000   1.0000   1.0000   1.0000   1.0000   1.0000
     1.0000   1.0000   1.0000   1.0000   1.0000   1.0000   1.0000   1.0000
     1.0000   1.0000   1.0000   1.0000   1.0000   1.0000   1.0000   1.0000
     1.0000   1.0000   1.0000   1.0000   1.0000   1.0000   1.0000   1.0000
     1.0000   1.0000   1.0000   1.0000   1.0000   1.0000   1.0000   1.0000
     1.0000   1.0000   1.0000   1.0000   1.0000   1.0000   1.0000   1.0000
     1.0000   1.0000   1.0000   1.0000   1.0000   1.0000   1.0000   1.0000
     1.0000   1.0000   1.0000   1.0000   1.0000   1.0000   1.0000   1.0000
     1.0000   1.0000   1.0000   1.0000   1.0000   1.0000   1.0000   1.0000
     1.0000   1.0000   1.0000   1.0000   1.0000   1.0000   1.0000   1.0000
     1.0000   1.0000   1.0000   1.0000   1.0000   1.0000   1.0000   1.0000
     1.0000   1.0000   1.0000   1.0000   1.0000   1.0000   1.0000   1.0000
     1.0000   1.0000   1.0000   1.0000   1.0000   1.0000   1.0000   1.0000
     1.0000   1.0000   1.0000   1.0000   1.0000   1.0000   1.0000   1.0000
     1.0000   1.0000   1.0000   1.0000   1.0000   1.0000   1.0000   1.0000
     1.0000   1.0000   1.0000   1.0000   1.0000   1.0000   1.0000   1.0000
     1.0000   1.0000   1.0000   1.0000   1.0000   1.0000   1.0000   1.0000
     1.0000   1.0000   1.0000   1.0000   1.0000   1.0000   1.0000   1.0000
     1.0000   1.0000   1.0000   1.0000   1.0000   1.0000   1.0000   1.0000
     1.0000   1.0000   1.0000   1.0000   1.0000   1.0000   1.0000   1.0000
     1.0000   1.0000   1.0000   1.0000   1.0000   1.0000   1.0000   1.0000
     1.0000   1.0000   1.0000   1.0000   1.0000   1.0000   1.0000   1.0000
     1.0000   1.0000   1.0000   1.0000   1.0000   1.0000   1.0000   1.0000
     1.0000   1.0000   1.0000   1.0000   1.0000   1.0000   1.0000   1.0000
     1.0000   1.0000   1.0000   1.0000   1.0000   1.0000   1.0000   1.0000
     1.0000   1.0000   1.0000   1.0000   1.0000   1.0000   1.0000   1.0000
     1.0000   1.0000   1.0000   1.0000   1.0000   1.0000   1.0000   1.0000
     1.0000   1.0000   1.0000   1.0000   1.0000   1.0000   1.0000   1.0000
     1.0000   1.0000   1.0000   1.0000   1.0000   1.0000   1.0000   1.0000
     1.0000   1.0000   1.0000   1.0000   1.0000   1.0000   1.0000   1.0000
     1.0000   1.0000   1.0000   1.0000   1.0000   1.0000   1.0000   1.0000
     1.0000   1.0000   1.0000   1.0000   1.0000   1.0000   1.0000   1.0000
     1.0000   1.0000   1.0000   1.0000   1.0000   1.0000   1.0000   1.0000
     1.0000   1.0000   1.0000   1.0000   1.0000   1.0000   1.0000   1.0000
     1.0000   1.0000   1.0000   1.0000   1.0000   1.0000   1.0000   1.0000
     1.0000   1.0000   1.0000   1.0000   1.0000   1.0000   1.0000   1.0000
     1.0000   1.0000   1.0000   1.0000   1.0000   1.0000   1.0000   1.0000
     1.0000   1.0000   1.0000   1.0000   1.0000   1.0000   1.0000   1.0000
     1.0000   1.0000   1.0000   1.0000   1.0000   1.0000   1.0000   1.0000
     1.0000   1.0000   1.0000   1.0000   1.0000   1.0000   1.0000   1.0000
     1.0000   1.0000   1.0000   1.0000   1.0000   1.0000   1.0000   1.0000
     1.0000   1.0000   1.0000   1.0000   1.0000   1.0000   1.0000   1.0000
     1.0000   1.0000   1.0000   1.0000   0.9866   0.9621   0.0000   0.0000
     0.0000   0.0000   0.0000   0.0000   0.0000   0.0000   0.0000   0.0000
     0.0000   0.0000   0.0000   0.0000   0.0000   0.0000   0.0000   0.0000
     0.0000   0.0000   0.0000   0.0000   0.0000   0.0000   0.0000   0.0000
     0.0000

 ------ SPIN DOWN ----------


          k = 0.0000 0.0000 0.0000 ( 51313 PWs)   bands (ev):

    -6.4742  -6.2087  -6.1972  -5.8552  -5.8435  -5.8435  -5.8279  -5.8279
    -5.8074  -5.7945  -5.7923  -5.7390  -5.7297  -5.7277  -5.7277  -5.7191
    -5.7191  -5.7128  -5.7128  -5.7023  -5.7023  -5.6955  -5.6800  -5.6528
    -5.6013  -5.5922  -5.5900  -5.5900  -5.5845  -5.5845  -5.5822  -5.5804
    -5.5804  -5.5771  -5.5771  -5.5742  -5.5742  -5.5732  -5.5725  -5.5695
    -5.5610  -5.5610  -5.5554  -5.5554  -5.5532  -5.5463  -5.5457  -5.5400
    -5.5287  -5.5053  -5.5053  -5.4866  -5.4866  -4.2142  -4.2023  -4.2023
    -4.1991  -4.1991  -4.1907  -4.1907  -4.1904  -4.1853  -4.1853  -4.1681
    -4.1681  -4.1676  -4.1669  -4.1669  -4.1625  -4.1598  -4.1598  -4.1589
    -4.1589  -4.1580  -4.1580  -4.1579  -4.1558  -4.1545  -4.1545  -4.1478
    -4.1478  -4.1454  -4.1444  -4.1444  -4.1412  -4.1390  -4.1390  -4.1372
    -4.1372  -4.1333  -4.1333  -4.1286  -4.1276  -4.1276  -4.1276  -4.1226
    -4.1226  -4.1147  -4.1144  -4.1144  -4.1120  -4.1095  -4.1088  -4.1088
    -4.1078  -4.1078  -4.1043  -4.1034  -4.1034  -4.1027  -4.1013  -4.0988
    -4.0988  -4.0947  -4.0947  -4.0938  -4.0842  -4.0842  -4.0829  -4.0818
    -4.0787  -4.0772  -4.0772  -4.0727  -4.0697  -4.0684  -4.0672  -4.0672
    -4.0641  -4.0558  -4.0558  -4.0452  -4.0445  -4.0445  -4.0419  -4.0419
    -4.0405  -4.0405  -4.0398  -4.0372  -4.0372  -4.0370  -4.0305  -4.0281
    -4.0281  -4.0266  -4.0219  -4.0219  -4.0182  -4.0182  -4.0157  -4.0157
    -4.0149  -4.0144  -4.0120  -4.0120  -4.0118  -4.0117  -4.0104  -4.0104
    -4.0077  -4.0014  -4.0014  -4.0013  -4.0003  -4.0003  -3.9978  -3.9977
    -3.9977  -3.9957  -3.9957  -3.9942  -3.9931  -3.9931  -3.9886  -3.9886
    -3.9877  -3.9873  -3.9857  -3.9857  -3.9805  -3.9771  -3.9771  -3.9716
    -3.9708  -3.9708  -3.9692  -3.9692  -3.9676  -3.9656  -3.9656  -3.9651
    -3.9643  -3.9643  -3.9604  -3.9588  -3.9588  -3.9579  -3.9574  -3.9574
    -3.9536  -3.9536  -3.9520  -3.9497  -3.9497  -3.9483  -3.9483  -3.9444
    -3.9444  -3.9433  -3.9433  -3.9426  -3.9406  -3.9406  -3.9394  -3.9389
    -3.9389  -3.9387  -3.9326  -3.9323  -3.9323  -3.9288  -3.9287  -3.9287
    -3.9248  -3.9248  -3.9202  -3.9201  -3.9201  -3.9154  -3.9088  -3.9088
    -3.9080  -3.9080  -3.9070  -3.9034  -3.9034  -3.9011  -3.9011  -3.8972
    -3.8941  -3.8941  -3.8923  -3.8923  -3.8891  -3.8865  -3.8847  -3.8847
    -3.8818  -3.8818  -3.8793  -3.8754  -3.8754  -3.8732  -3.8693  -3.8686
    -3.8686  -3.8436  -3.8436  -3.8225  -3.8125  -3.8125  -3.7680  -3.7672
    -3.7672  -3.7078  -3.7078  -3.6878  -3.6720  -3.6720  -3.6657  -3.5795
    -3.5795  -3.5293  -3.5062  -3.5062  -3.4916  -3.4916  -3.4771  -3.4003
    -3.3839  -3.3223  -3.3152  -3.3123  -3.3123  -3.2938  -3.2938  -3.2824
    -3.2824  -3.2774  -3.2618  -3.2618  -3.1205  -2.6463  -2.6394  -2.6358
    -2.6357  -2.6357  -2.6226  -2.6226  -2.6101  -2.6101  -2.6023  -2.6023
    -2.5960  -2.4631  -2.2161  -2.2161  -2.2149  -2.2141  -2.2056  -2.2052
    -2.1949  -2.1949  -2.1742  -2.1742  -2.1720  -2.1316  -2.1144  -2.1042
    -2.1042  -2.0710  -2.0710  -0.0475   2.3925   3.3637   3.3637   3.3646
     3.3695   3.3788   3.3832   3.3849   3.3849   3.4031   3.4110   3.4110
     3.4385   3.4385   3.4506   3.5030   3.5095   3.5095   3.5109   3.5185
     3.5185   3.5226   3.5226   3.5998   3.5998   3.6063   3.6551   3.9923
     3.9969   4.0137   4.0137   4.0332   4.0424   4.1767   4.1767   4.3701
     4.3739   4.3758   4.3758   4.3855   4.3855   4.3880   4.3880   4.4377
     4.4377   4.4379   4.4791   4.5165   4.5165   4.5556   4.5556   4.5823
     4.6643   4.6643   4.7226   4.7242   4.7242   5.3982   5.3982   5.4046
     5.4419   5.4419   5.5486   5.8529   5.8529   5.8806   5.8806   6.1492
     6.1536   6.1584   6.1584   6.1626   6.1626   6.1736   6.1736   6.2158
     6.2184   6.2184   6.2583   6.3717   6.3886   6.3886   6.4918   6.6458
     6.6458   6.9495   6.9523   6.9523   6.9745   6.9918   7.0157   7.0157
     7.0297   7.2987   7.2995   7.2995   7.3007   7.3054   7.3054   7.3240
     7.3261   7.3261   7.3272   7.4372   7.4372   7.4741   7.4775   7.4785
     7.4785   7.4821   7.5355   7.5355   7.5715   7.9537   7.9638   7.9638
     7.9639   7.9706   7.9706   7.9737   7.9737   8.0057   8.0113   8.0113
     8.0130   8.0190   8.0265   8.0265   8.0531   8.0531   8.0750   8.0750
     8.0751   8.0769   8.0823   8.0823   8.0956   8.1051   8.1051   8.1069
     8.2045   8.2045   8.3138   8.3138   8.5003   8.5003   8.5106   8.5106
     8.5164   8.5209   8.5209   8.5415   8.7711   8.7854   8.7854   9.0010
     9.0010   9.1464   9.1464   9.3649   9.5042   9.5042  11.0159  12.6848
    12.7082  13.3296  13.4605  13.4766  13.5370  13.5372  13.5372  13.5461
    13.5510  13.5510  13.5565  13.5565  13.5699  13.5699  13.5843  13.7415
    13.9477  13.9537  13.9537  14.0027  14.0027  14.2154  14.4525  14.4526
    14.6769

     occupation numbers 
     1.0000   1.0000   1.0000   1.0000   1.0000   1.0000   1.0000   1.0000
     1.0000   1.0000   1.0000   1.0000   1.0000   1.0000   1.0000   1.0000
     1.0000   1.0000   1.0000   1.0000   1.0000   1.0000   1.0000   1.0000
     1.0000   1.0000   1.0000   1.0000   1.0000   1.0000   1.0000   1.0000
     1.0000   1.0000   1.0000   1.0000   1.0000   1.0000   1.0000   1.0000
     1.0000   1.0000   1.0000   1.0000   1.0000   1.0000   1.0000   1.0000
     1.0000   1.0000   1.0000   1.0000   1.0000   1.0000   1.0000   1.0000
     1.0000   1.0000   1.0000   1.0000   1.0000   1.0000   1.0000   1.0000
     1.0000   1.0000   1.0000   1.0000   1.0000   1.0000   1.0000   1.0000
     1.0000   1.0000   1.0000   1.0000   1.0000   1.0000   1.0000   1.0000
     1.0000   1.0000   1.0000   1.0000   1.0000   1.0000   1.0000   1.0000
     1.0000   1.0000   1.0000   1.0000   1.0000   1.0000   1.0000   1.0000
     1.0000   1.0000   1.0000   1.0000   1.0000   1.0000   1.0000   1.0000
     1.0000   1.0000   1.0000   1.0000   1.0000   1.0000   1.0000   1.0000
     1.0000   1.0000   1.0000   1.0000   1.0000   1.0000   1.0000   1.0000
     1.0000   1.0000   1.0000   1.0000   1.0000   1.0000   1.0000   1.0000
     1.0000   1.0000   1.0000   1.0000   1.0000   1.0000   1.0000   1.0000
     1.0000   1.0000   1.0000   1.0000   1.0000   1.0000   1.0000   1.0000
     1.0000   1.0000   1.0000   1.0000   1.0000   1.0000   1.0000   1.0000
     1.0000   1.0000   1.0000   1.0000   1.0000   1.0000   1.0000   1.0000
     1.0000   1.0000   1.0000   1.0000   1.0000   1.0000   1.0000   1.0000
     1.0000   1.0000   1.0000   1.0000   1.0000   1.0000   1.0000   1.0000
     1.0000   1.0000   1.0000   1.0000   1.0000   1.0000   1.0000   1.0000
     1.0000   1.0000   1.0000   1.0000   1.0000   1.0000   1.0000   1.0000
     1.0000   1.0000   1.0000   1.0000   1.0000   1.0000   1.0000   1.0000
     1.0000   1.0000   1.0000   1.0000   1.0000   1.0000   1.0000   1.0000
     1.0000   1.0000   1.0000   1.0000   1.0000   1.0000   1.0000   1.0000
     1.0000   1.0000   1.0000   1.0000   1.0000   1.0000   1.0000   1.0000
     1.0000   1.0000   1.0000   1.0000   1.0000   1.0000   1.0000   1.0000
     1.0000   1.0000   1.0000   1.0000   1.0000   1.0000   1.0000   1.0000
     1.0000   1.0000   1.0000   1.0000   1.0000   1.0000   1.0000   1.0000
     1.0000   1.0000   1.0000   1.0000   1.0000   1.0000   1.0000   1.0000
     1.0000   1.0000   1.0000   1.0000   1.0000   1.0000   1.0000   1.0000
     1.0000   1.0000   1.0000   1.0000   1.0000   1.0000   1.0000   1.0000
     1.0000   1.0000   1.0000   1.0000   1.0000   1.0000   1.0000   1.0000
     1.0000   1.0000   1.0000   1.0000   1.0000   1.0000   1.0000   1.0000
     1.0000   1.0000   1.0000   1.0000   1.0000   1.0000   1.0000   1.0000
     1.0000   1.0000   1.0000   1.0000   1.0000   1.0000   1.0000   1.0000
     1.0000   1.0000   1.0000   1.0000   1.0000   1.0000   1.0000   1.0000
     1.0000   1.0000   1.0000   1.0000   1.0000   1.0000   1.0000   1.0000
     1.0000   1.0000   1.0000   1.0000   1.0000   1.0000   1.0000   1.0000
     1.0000   1.0000   1.0000   1.0000   1.0000   1.0000   1.0000   1.0000
     1.0000   1.0000   1.0000   1.0000   1.0000   1.0000   1.0000   1.0000
     1.0000   1.0000   1.0000   1.0000   1.0000   1.0000   1.0000   1.0000
     1.0000   1.0000   1.0000   1.0000   1.0000   1.0000   1.0000   1.0000
     1.0000   1.0000   1.0000   1.0000   1.0000   1.0000   1.0000   1.0000
     1.0000   1.0000   1.0000   1.0000   1.0000   1.0000   1.0000   1.0000
     1.0000   1.0000   1.0000   1.0000   1.0000   1.0000   1.0000   1.0000
     1.0000   1.0000   1.0000   1.0000   1.0000   1.0000   1.0000   1.0000
     1.0000   1.0000   1.0000   1.0000   1.0000   1.0000   1.0000   1.0000
     1.0000   1.0000   1.0000   1.0000   1.0000   1.0000   1.0000   1.0000
     1.0000   1.0000   1.0000   1.0000   1.0000   1.0000   1.0000   1.0000
     1.0000   1.0000   1.0000   1.0000   1.0000   1.0000   1.0000   1.0000
     1.0000   1.0000   1.0000   1.0000   1.0000   1.0000   1.0000   1.0000
     1.0000   1.0000   1.0000   1.0000   1.0000   1.0000   1.0000   1.0000
     1.0000   1.0000   1.0000   1.0000   1.0000   1.0000   1.0000   1.0000
     1.0000   1.0000   1.0000   1.0000   1.0000   1.0000   1.0000   1.0000
     1.0000   1.0000   1.0000   1.0000   1.0000   1.0000   1.0000   1.0000
     1.0000   1.0000   1.0000   1.0000   1.0000   1.0000   1.0000   1.0000
     1.0000   1.0000   1.0000   1.0000   1.0000   1.0000   1.0000   1.0000
     1.0000   0.9996   0.9996   0.6940   0.0964   0.0964   0.0000   0.0000
     0.0000   0.0000   0.0000   0.0000   0.0000   0.0000   0.0000   0.0000
     0.0000   0.0000   0.0000   0.0000   0.0000   0.0000   0.0000   0.0000
     0.0000   0.0000   0.0000   0.0000   0.0000   0.0000   0.0000   0.0000
     0.0000

          k = 0.0000 0.0000-0.3067 ( 51390 PWs)   bands (ev):

    -6.4145  -6.3831  -5.9710  -5.9687  -5.8256  -5.8136  -5.8113  -5.8113
    -5.8050  -5.8050  -5.8025  -5.8025  -5.7993  -5.7810  -5.7810  -5.7229
    -5.7104  -5.6990  -5.6530  -5.6458  -5.6458  -5.6438  -5.6325  -5.6325
    -5.6281  -5.6281  -5.6172  -5.6172  -5.6093  -5.6066  -5.5816  -5.5745
    -5.5745  -5.5731  -5.5713  -5.5713  -5.5688  -5.5688  -5.5685  -5.5674
    -5.5599  -5.5599  -5.5588  -5.5588  -5.5567  -5.5552  -5.5480  -5.5354
    -5.5243  -5.5047  -5.5047  -5.4863  -5.4863  -4.2023  -4.2023  -4.1984
    -4.1925  -4.1925  -4.1907  -4.1872  -4.1872  -4.1834  -4.1818  -4.1818
    -4.1778  -4.1778  -4.1740  -4.1740  -4.1636  -4.1630  -4.1630  -4.1610
    -4.1606  -4.1606  -4.1576  -4.1576  -4.1545  -4.1525  -4.1525  -4.1522
    -4.1497  -4.1497  -4.1462  -4.1462  -4.1436  -4.1401  -4.1401  -4.1378
    -4.1378  -4.1376  -4.1339  -4.1326  -4.1326  -4.1306  -4.1273  -4.1273
    -4.1260  -4.1253  -4.1253  -4.1242  -4.1242  -4.1230  -4.1165  -4.1165
    -4.1090  -4.1008  -4.0924  -4.0924  -4.0881  -4.0843  -4.0843  -4.0839
    -4.0820  -4.0820  -4.0803  -4.0803  -4.0793  -4.0769  -4.0769  -4.0759
    -4.0737  -4.0737  -4.0719  -4.0715  -4.0715  -4.0688  -4.0688  -4.0676
    -4.0646  -4.0646  -4.0645  -4.0631  -4.0584  -4.0584  -4.0528  -4.0480
    -4.0427  -4.0427  -4.0403  -4.0397  -4.0346  -4.0346  -4.0337  -4.0246
    -4.0246  -4.0216  -4.0216  -4.0215  -4.0205  -4.0205  -4.0196  -4.0196
    -4.0177  -4.0165  -4.0131  -4.0131  -4.0113  -4.0106  -4.0102  -4.0102
    -4.0089  -4.0089  -4.0069  -4.0069  -4.0035  -3.9981  -3.9961  -3.9961
    -3.9933  -3.9933  -3.9844  -3.9830  -3.9826  -3.9826  -3.9787  -3.9787
    -3.9775  -3.9775  -3.9763  -3.9763  -3.9755  -3.9744  -3.9739  -3.9723
    -3.9723  -3.9718  -3.9718  -3.9699  -3.9683  -3.9683  -3.9678  -3.9675
    -3.9675  -3.9632  -3.9613  -3.9607  -3.9607  -3.9588  -3.9588  -3.9570
    -3.9541  -3.9541  -3.9517  -3.9517  -3.9491  -3.9491  -3.9452  -3.9445
    -3.9445  -3.9424  -3.9424  -3.9377  -3.9377  -3.9371  -3.9368  -3.9339
    -3.9339  -3.9333  -3.9300  -3.9286  -3.9286  -3.9259  -3.9259  -3.9234
    -3.9234  -3.9207  -3.9207  -3.9188  -3.9176  -3.9130  -3.9130  -3.9120
    -3.9107  -3.9107  -3.9080  -3.9080  -3.9079  -3.9037  -3.9005  -3.9005
    -3.8930  -3.8930  -3.8894  -3.8894  -3.8875  -3.8866  -3.8866  -3.8812
    -3.8799  -3.8799  -3.8764  -3.8751  -3.8751  -3.8706  -3.8706  -3.8691
    -3.8528  -3.8435  -3.8435  -3.8226  -3.8124  -3.8124  -3.7891  -3.7674
    -3.7674  -3.7553  -3.7077  -3.7077  -3.6752  -3.6720  -3.6720  -3.6657
    -3.5789  -3.5789  -3.4817  -3.4778  -3.4754  -3.4754  -3.4636  -3.4636
    -3.4633  -3.4394  -3.4394  -3.4136  -3.4136  -3.3425  -3.0350  -3.0271
    -3.0271  -3.0263  -3.0096  -3.0096  -2.9980  -2.9980  -2.9875  -2.9766
    -2.9766  -2.9046  -2.8921  -2.7718  -2.2794  -2.2707  -2.2677  -2.2677
    -2.2594  -2.2594  -2.2579  -2.2579  -2.2505  -2.2407  -2.2407  -2.2291
    -2.2159  -2.2159  -2.2140  -2.2140  -2.2053  -2.2045  -2.1799  -2.1799
    -2.1720  -2.1567  -2.1567  -0.0520   2.8543   2.8762   3.2203   3.2273
     3.2289   3.2289   3.3747   3.3820   3.3842   3.3842   3.3875   3.3875
     3.3937   3.3937   3.4203   3.4349   3.4349   3.5023   3.7381   3.7389
     3.7389   3.7428   3.7490   3.7709   3.7709   3.7747   3.8613   3.8661
     3.8661   3.8697   3.8770   3.8770   3.8849   3.8849   3.9681   3.9681
     3.9814   4.0514   4.2874   4.2874   4.3333   4.3333   4.7196   4.7196
     4.7228   4.7246   4.7246   4.7275   4.7377   4.7377   4.7717   4.8048
     4.8048   4.9406   5.2177   5.2177   5.2362   5.2362   5.3682   5.3682
     5.3703   5.3723   5.3723   5.3777   5.3855   5.3855   5.4038   5.4241
     5.4655   5.4655   5.5273   5.6137   6.3940   6.3940   6.4389   6.4389
     6.7681   6.7706   6.7742   6.7742   6.7776   6.7927   6.7927   6.8633
     7.0385   7.0422   7.0422   7.0441   7.0458   7.0458   7.0524   7.0524
     7.0528   7.0819   7.1654   7.1654   7.2074   7.2134   7.2134   7.2159
     7.2268   7.2268   7.2273   7.2273   7.2808   7.3033   7.3033   7.4184
     7.6710   7.6730   7.6730   7.6755   7.6790   7.6790   7.6907   7.7050
     7.7050   7.7064   7.7975   7.7975   7.8180   7.8734   7.8802   7.8802
     8.1003   8.1117   8.1135   8.1135   8.1155   8.1155   8.1288   8.1395
     8.1395   8.1493   8.1493   8.3151   8.3151   8.3269   8.3489   8.3489
     8.3904   8.3951   8.3951   8.3976   8.3995   8.3995   8.4079   8.4080
     8.4080   8.4195   8.4301   8.6219   8.6219   8.7491   8.7491   8.9543
     8.9543   9.0068   9.1825   9.1825   9.4973   9.4973  11.6834  11.7521
    13.3188  13.3209  13.3694  13.4271  13.6720  13.6745  13.6745  13.6812
    13.6830  13.6859  13.6859  13.6868  13.6868  13.7418  13.7418  13.8436
    14.0035  14.0038  14.0054  14.0120  14.0135  14.0191  14.0318  14.0347
    14.0408

     occupation numbers 
     1.0000   1.0000   1.0000   1.0000   1.0000   1.0000   1.0000   1.0000
     1.0000   1.0000   1.0000   1.0000   1.0000   1.0000   1.0000   1.0000
     1.0000   1.0000   1.0000   1.0000   1.0000   1.0000   1.0000   1.0000
     1.0000   1.0000   1.0000   1.0000   1.0000   1.0000   1.0000   1.0000
     1.0000   1.0000   1.0000   1.0000   1.0000   1.0000   1.0000   1.0000
     1.0000   1.0000   1.0000   1.0000   1.0000   1.0000   1.0000   1.0000
     1.0000   1.0000   1.0000   1.0000   1.0000   1.0000   1.0000   1.0000
     1.0000   1.0000   1.0000   1.0000   1.0000   1.0000   1.0000   1.0000
     1.0000   1.0000   1.0000   1.0000   1.0000   1.0000   1.0000   1.0000
     1.0000   1.0000   1.0000   1.0000   1.0000   1.0000   1.0000   1.0000
     1.0000   1.0000   1.0000   1.0000   1.0000   1.0000   1.0000   1.0000
     1.0000   1.0000   1.0000   1.0000   1.0000   1.0000   1.0000   1.0000
     1.0000   1.0000   1.0000   1.0000   1.0000   1.0000   1.0000   1.0000
     1.0000   1.0000   1.0000   1.0000   1.0000   1.0000   1.0000   1.0000
     1.0000   1.0000   1.0000   1.0000   1.0000   1.0000   1.0000   1.0000
     1.0000   1.0000   1.0000   1.0000   1.0000   1.0000   1.0000   1.0000
     1.0000   1.0000   1.0000   1.0000   1.0000   1.0000   1.0000   1.0000
     1.0000   1.0000   1.0000   1.0000   1.0000   1.0000   1.0000   1.0000
     1.0000   1.0000   1.0000   1.0000   1.0000   1.0000   1.0000   1.0000
     1.0000   1.0000   1.0000   1.0000   1.0000   1.0000   1.0000   1.0000
     1.0000   1.0000   1.0000   1.0000   1.0000   1.0000   1.0000   1.0000
     1.0000   1.0000   1.0000   1.0000   1.0000   1.0000   1.0000   1.0000
     1.0000   1.0000   1.0000   1.0000   1.0000   1.0000   1.0000   1.0000
     1.0000   1.0000   1.0000   1.0000   1.0000   1.0000   1.0000   1.0000
     1.0000   1.0000   1.0000   1.0000   1.0000   1.0000   1.0000   1.0000
     1.0000   1.0000   1.0000   1.0000   1.0000   1.0000   1.0000   1.0000
     1.0000   1.0000   1.0000   1.0000   1.0000   1.0000   1.0000   1.0000
     1.0000   1.0000   1.0000   1.0000   1.0000   1.0000   1.0000   1.0000
     1.0000   1.0000   1.0000   1.0000   1.0000   1.0000   1.0000   1.0000
     1.0000   1.0000   1.0000   1.0000   1.0000   1.0000   1.0000   1.0000
     1.0000   1.0000   1.0000   1.0000   1.0000   1.0000   1.0000   1.0000
     1.0000   1.0000   1.0000   1.0000   1.0000   1.0000   1.0000   1.0000
     1.0000   1.0000   1.0000   1.0000   1.0000   1.0000   1.0000   1.0000
     1.0000   1.0000   1.0000   1.0000   1.0000   1.0000   1.0000   1.0000
     1.0000   1.0000   1.0000   1.0000   1.0000   1.0000   1.0000   1.0000
     1.0000   1.0000   1.0000   1.0000   1.0000   1.0000   1.0000   1.0000
     1.0000   1.0000   1.0000   1.0000   1.0000   1.0000   1.0000   1.0000
     1.0000   1.0000   1.0000   1.0000   1.0000   1.0000   1.0000   1.0000
     1.0000   1.0000   1.0000   1.0000   1.0000   1.0000   1.0000   1.0000
     1.0000   1.0000   1.0000   1.0000   1.0000   1.0000   1.0000   1.0000
     1.0000   1.0000   1.0000   1.0000   1.0000   1.0000   1.0000   1.0000
     1.0000   1.0000   1.0000   1.0000   1.0000   1.0000   1.0000   1.0000
     1.0000   1.0000   1.0000   1.0000   1.0000   1.0000   1.0000   1.0000
     1.0000   1.0000   1.0000   1.0000   1.0000   1.0000   1.0000   1.0000
     1.0000   1.0000   1.0000   1.0000   1.0000   1.0000   1.0000   1.0000
     1.0000   1.0000   1.0000   1.0000   1.0000   1.0000   1.0000   1.0000
     1.0000   1.0000   1.0000   1.0000   1.0000   1.0000   1.0000   1.0000
     1.0000   1.0000   1.0000   1.0000   1.0000   1.0000   1.0000   1.0000
     1.0000   1.0000   1.0000   1.0000   1.0000   1.0000   1.0000   1.0000
     1.0000   1.0000   1.0000   1.0000   1.0000   1.0000   1.0000   1.0000
     1.0000   1.0000   1.0000   1.0000   1.0000   1.0000   1.0000   1.0000
     1.0000   1.0000   1.0000   1.0000   1.0000   1.0000   1.0000   1.0000
     1.0000   1.0000   1.0000   1.0000   1.0000   1.0000   1.0000   1.0000
     1.0000   1.0000   1.0000   1.0000   1.0000   1.0000   1.0000   1.0000
     1.0000   1.0000   1.0000   1.0000   1.0000   1.0000   1.0000   1.0000
     1.0000   1.0000   1.0000   1.0000   1.0000   1.0000   1.0000   1.0000
     1.0000   1.0000   1.0000   1.0000   1.0000   1.0000   1.0000   1.0000
     1.0000   1.0000   1.0000   1.0000   1.0000   1.0000   1.0000   1.0000
     1.0000   1.0000   1.0000   1.0000   1.0000   1.0000   1.0000   1.0000
     1.0000   1.0000   1.0000   1.0000   1.0000   1.0000   1.0000   1.0000
     1.0000   1.0000   0.9980   0.9980   0.1126   0.1126   0.0000   0.0000
     0.0000   0.0000   0.0000   0.0000   0.0000   0.0000   0.0000   0.0000
     0.0000   0.0000   0.0000   0.0000   0.0000   0.0000   0.0000   0.0000
     0.0000   0.0000   0.0000   0.0000   0.0000   0.0000   0.0000   0.0000
     0.0000

          k = 0.0000 0.2887 0.0000 ( 51284 PWs)   bands (ev):

    -6.4116  -6.1564  -6.1483  -6.0229  -5.9009  -5.8972  -5.8528  -5.8441
    -5.7735  -5.7728  -5.7641  -5.7635  -5.7611  -5.7519  -5.7502  -5.7340
    -5.7146  -5.6668  -5.6620  -5.6599  -5.6589  -5.6581  -5.6388  -5.6376
    -5.6297  -5.6265  -5.6145  -5.6086  -5.6008  -5.5998  -5.5967  -5.5920
    -5.5886  -5.5729  -5.5728  -5.5709  -5.5699  -5.5659  -5.5616  -5.5592
    -5.5591  -5.5583  -5.5550  -5.5547  -5.5524  -5.5499  -5.5441  -5.5351
    -5.5328  -5.5039  -5.5037  -5.4860  -5.4855  -4.2083  -4.1949  -4.1940
    -4.1919  -4.1906  -4.1871  -4.1843  -4.1810  -4.1779  -4.1731  -4.1688
    -4.1671  -4.1657  -4.1618  -4.1598  -4.1595  -4.1585  -4.1574  -4.1559
    -4.1553  -4.1532  -4.1523  -4.1518  -4.1505  -4.1501  -4.1490  -4.1482
    -4.1474  -4.1457  -4.1437  -4.1418  -4.1397  -4.1397  -4.1384  -4.1371
    -4.1370  -4.1348  -4.1340  -4.1305  -4.1300  -4.1277  -4.1260  -4.1234
    -4.1222  -4.1206  -4.1199  -4.1179  -4.1167  -4.1144  -4.1142  -4.1111
    -4.1110  -4.1099  -4.1098  -4.1074  -4.1043  -4.1041  -4.1018  -4.0994
    -4.0992  -4.0972  -4.0960  -4.0947  -4.0914  -4.0898  -4.0873  -4.0856
    -4.0854  -4.0843  -4.0808  -4.0798  -4.0751  -4.0721  -4.0716  -4.0700
    -4.0666  -4.0659  -4.0616  -4.0593  -4.0583  -4.0559  -4.0547  -4.0530
    -4.0528  -4.0489  -4.0457  -4.0412  -4.0408  -4.0380  -4.0344  -4.0317
    -4.0284  -4.0280  -4.0260  -4.0258  -4.0241  -4.0196  -4.0183  -4.0161
    -4.0159  -4.0140  -4.0135  -4.0129  -4.0099  -4.0099  -4.0072  -4.0060
    -4.0059  -4.0029  -4.0011  -4.0002  -3.9993  -3.9988  -3.9968  -3.9967
    -3.9953  -3.9951  -3.9935  -3.9922  -3.9914  -3.9902  -3.9885  -3.9885
    -3.9873  -3.9871  -3.9855  -3.9836  -3.9835  -3.9822  -3.9816  -3.9805
    -3.9778  -3.9764  -3.9757  -3.9745  -3.9725  -3.9719  -3.9681  -3.9673
    -3.9672  -3.9647  -3.9621  -3.9611  -3.9604  -3.9585  -3.9573  -3.9558
    -3.9540  -3.9529  -3.9523  -3.9518  -3.9498  -3.9485  -3.9455  -3.9424
    -3.9407  -3.9391  -3.9387  -3.9353  -3.9348  -3.9323  -3.9311  -3.9302
    -3.9301  -3.9282  -3.9274  -3.9263  -3.9245  -3.9232  -3.9229  -3.9211
    -3.9199  -3.9190  -3.9165  -3.9161  -3.9149  -3.9121  -3.9117  -3.9107
    -3.9071  -3.9066  -3.9055  -3.9033  -3.9028  -3.9018  -3.9011  -3.9003
    -3.8977  -3.8971  -3.8957  -3.8948  -3.8940  -3.8904  -3.8903  -3.8872
    -3.8860  -3.8847  -3.8835  -3.8788  -3.8781  -3.8747  -3.8735  -3.8725
    -3.8660  -3.8481  -3.8395  -3.8347  -3.8262  -3.8063  -3.7969  -3.7695
    -3.7655  -3.7626  -3.7140  -3.7085  -3.6910  -3.6753  -3.6752  -3.6671
    -3.6577  -3.6372  -3.6304  -3.6105  -3.5763  -3.5675  -3.4429  -3.4390
    -3.4238  -3.4123  -3.3378  -3.3151  -3.2299  -3.2208  -3.0462  -3.0370
    -3.0364  -3.0249  -2.9910  -2.9233  -2.9133  -2.8670  -2.8250  -2.7328
    -2.7301  -2.7284  -2.6852  -2.5730  -2.4947  -2.4944  -2.4532  -2.4527
    -2.4472  -2.4424  -2.4044  -2.4010  -2.3894  -2.3823  -2.3700  -2.2786
    -2.2511  -2.1642  -2.1596  -2.1594  -2.1590  -2.1413  -2.0983  -2.0738
    -2.0495  -2.0315  -2.0198  -0.0431   2.4875   2.9060   2.9169   3.1259
     3.1549   3.1797   3.1805   3.1838   3.1936   3.2200   3.2382   3.2459
     3.2474   3.3613   3.3622   3.3945   3.4172   3.4725   3.4867   3.4923
     3.5046   3.5742   3.5835   3.6094   3.6361   3.8307   3.8475   3.8486
     3.8599   3.9426   3.9536   3.9767   3.9843   4.0383   4.0461   4.0945
     4.1043   4.1309   4.1843   4.3278   4.4529   4.4984   4.7435   4.7493
     4.8337   4.8467   4.8552   4.8871   4.9222   4.9509   5.0224   5.0422
     5.0462   5.0671   5.0733   5.1198   5.1342   5.3763   5.3992   5.4856
     5.7567   5.7941   5.8508   5.8773   6.1461   6.1477   6.1589   6.1660
     6.2236   6.2241   6.2266   6.2298   6.2563   6.2736   6.3008   6.3080
     6.3604   6.3700   6.3960   6.4359   6.4663   6.5262   6.5438   6.7209
     6.8447   6.8517   6.8736   6.9109   6.9163   6.9188   6.9202   6.9246
     6.9380   6.9525   6.9674   7.0198   7.0721   7.1025   7.1511   7.1632
     7.1681   7.1999   7.2112   7.2268   7.2313   7.3051   7.3700   7.4634
     7.6110   7.6200   7.6238   7.6389   7.6698   7.7059   7.7203   7.7267
     7.7440   7.7487   7.7636   7.7720   7.7800   7.8422   7.8665   7.8900
     7.8999   7.9068   7.9304   7.9411   7.9496   8.0123   8.0243   8.0256
     8.0487   8.0620   8.0816   8.1137   8.1308   8.1327   8.1535   8.1658
     8.1667   8.2196   8.2360   8.2929   8.3187   8.3517   8.3683   8.3706
     8.3887   8.4297   8.4871   8.5282   8.6152   8.6524   8.6940   8.8128
     8.8690   8.9160   9.0822   9.1124   9.3325   9.4429  11.6093  12.9746
    12.9982  13.3576  13.3628  13.4009  13.6937  13.7144  13.7224  13.7267
    13.7289  13.7459  13.7728  13.8578  13.8701  13.8786  13.8830  13.9011
    13.9108  13.9683  14.1240  14.2382  14.3101  14.3522  14.4627  14.5450
    14.6372

     occupation numbers 
     1.0000   1.0000   1.0000   1.0000   1.0000   1.0000   1.0000   1.0000
     1.0000   1.0000   1.0000   1.0000   1.0000   1.0000   1.0000   1.0000
     1.0000   1.0000   1.0000   1.0000   1.0000   1.0000   1.0000   1.0000
     1.0000   1.0000   1.0000   1.0000   1.0000   1.0000   1.0000   1.0000
     1.0000   1.0000   1.0000   1.0000   1.0000   1.0000   1.0000   1.0000
     1.0000   1.0000   1.0000   1.0000   1.0000   1.0000   1.0000   1.0000
     1.0000   1.0000   1.0000   1.0000   1.0000   1.0000   1.0000   1.0000
     1.0000   1.0000   1.0000   1.0000   1.0000   1.0000   1.0000   1.0000
     1.0000   1.0000   1.0000   1.0000   1.0000   1.0000   1.0000   1.0000
     1.0000   1.0000   1.0000   1.0000   1.0000   1.0000   1.0000   1.0000
     1.0000   1.0000   1.0000   1.0000   1.0000   1.0000   1.0000   1.0000
     1.0000   1.0000   1.0000   1.0000   1.0000   1.0000   1.0000   1.0000
     1.0000   1.0000   1.0000   1.0000   1.0000   1.0000   1.0000   1.0000
     1.0000   1.0000   1.0000   1.0000   1.0000   1.0000   1.0000   1.0000
     1.0000   1.0000   1.0000   1.0000   1.0000   1.0000   1.0000   1.0000
     1.0000   1.0000   1.0000   1.0000   1.0000   1.0000   1.0000   1.0000
     1.0000   1.0000   1.0000   1.0000   1.0000   1.0000   1.0000   1.0000
     1.0000   1.0000   1.0000   1.0000   1.0000   1.0000   1.0000   1.0000
     1.0000   1.0000   1.0000   1.0000   1.0000   1.0000   1.0000   1.0000
     1.0000   1.0000   1.0000   1.0000   1.0000   1.0000   1.0000   1.0000
     1.0000   1.0000   1.0000   1.0000   1.0000   1.0000   1.0000   1.0000
     1.0000   1.0000   1.0000   1.0000   1.0000   1.0000   1.0000   1.0000
     1.0000   1.0000   1.0000   1.0000   1.0000   1.0000   1.0000   1.0000
     1.0000   1.0000   1.0000   1.0000   1.0000   1.0000   1.0000   1.0000
     1.0000   1.0000   1.0000   1.0000   1.0000   1.0000   1.0000   1.0000
     1.0000   1.0000   1.0000   1.0000   1.0000   1.0000   1.0000   1.0000
     1.0000   1.0000   1.0000   1.0000   1.0000   1.0000   1.0000   1.0000
     1.0000   1.0000   1.0000   1.0000   1.0000   1.0000   1.0000   1.0000
     1.0000   1.0000   1.0000   1.0000   1.0000   1.0000   1.0000   1.0000
     1.0000   1.0000   1.0000   1.0000   1.0000   1.0000   1.0000   1.0000
     1.0000   1.0000   1.0000   1.0000   1.0000   1.0000   1.0000   1.0000
     1.0000   1.0000   1.0000   1.0000   1.0000   1.0000   1.0000   1.0000
     1.0000   1.0000   1.0000   1.0000   1.0000   1.0000   1.0000   1.0000
     1.0000   1.0000   1.0000   1.0000   1.0000   1.0000   1.0000   1.0000
     1.0000   1.0000   1.0000   1.0000   1.0000   1.0000   1.0000   1.0000
     1.0000   1.0000   1.0000   1.0000   1.0000   1.0000   1.0000   1.0000
     1.0000   1.0000   1.0000   1.0000   1.0000   1.0000   1.0000   1.0000
     1.0000   1.0000   1.0000   1.0000   1.0000   1.0000   1.0000   1.0000
     1.0000   1.0000   1.0000   1.0000   1.0000   1.0000   1.0000   1.0000
     1.0000   1.0000   1.0000   1.0000   1.0000   1.0000   1.0000   1.0000
     1.0000   1.0000   1.0000   1.0000   1.0000   1.0000   1.0000   1.0000
     1.0000   1.0000   1.0000   1.0000   1.0000   1.0000   1.0000   1.0000
     1.0000   1.0000   1.0000   1.0000   1.0000   1.0000   1.0000   1.0000
     1.0000   1.0000   1.0000   1.0000   1.0000   1.0000   1.0000   1.0000
     1.0000   1.0000   1.0000   1.0000   1.0000   1.0000   1.0000   1.0000
     1.0000   1.0000   1.0000   1.0000   1.0000   1.0000   1.0000   1.0000
     1.0000   1.0000   1.0000   1.0000   1.0000   1.0000   1.0000   1.0000
     1.0000   1.0000   1.0000   1.0000   1.0000   1.0000   1.0000   1.0000
     1.0000   1.0000   1.0000   1.0000   1.0000   1.0000   1.0000   1.0000
     1.0000   1.0000   1.0000   1.0000   1.0000   1.0000   1.0000   1.0000
     1.0000   1.0000   1.0000   1.0000   1.0000   1.0000   1.0000   1.0000
     1.0000   1.0000   1.0000   1.0000   1.0000   1.0000   1.0000   1.0000
     1.0000   1.0000   1.0000   1.0000   1.0000   1.0000   1.0000   1.0000
     1.0000   1.0000   1.0000   1.0000   1.0000   1.0000   1.0000   1.0000
     1.0000   1.0000   1.0000   1.0000   1.0000   1.0000   1.0000   1.0000
     1.0000   1.0000   1.0000   1.0000   1.0000   1.0000   1.0000   1.0000
     1.0000   1.0000   1.0000   1.0000   1.0000   1.0000   1.0000   1.0000
     1.0000   1.0000   1.0000   1.0000   1.0000   1.0000   1.0000   1.0000
     1.0000   1.0000   1.0000   1.0000   1.0000   1.0000   1.0000   1.0000
     1.0000   1.0000   1.0000   1.0000   1.0000   1.0000   1.0000   1.0000
     1.0000   1.0000   1.0000   0.9999   0.8236   0.3067   0.0000   0.0000
     0.0000   0.0000   0.0000   0.0000   0.0000   0.0000   0.0000   0.0000
     0.0000   0.0000   0.0000   0.0000   0.0000   0.0000   0.0000   0.0000
     0.0000   0.0000   0.0000   0.0000   0.0000   0.0000   0.0000   0.0000
     0.0000

          k = 0.0000 0.2887-0.3067 ( 51272 PWs)   bands (ev):

    -6.3535  -6.3246  -5.9839  -5.9688  -5.9321  -5.9297  -5.8662  -5.8654
    -5.8535  -5.8314  -5.7319  -5.7317  -5.7223  -5.7216  -5.7201  -5.7175
    -5.7016  -5.6928  -5.6844  -5.6745  -5.6618  -5.6597  -5.6527  -5.6494
    -5.6079  -5.6074  -5.6058  -5.6029  -5.5996  -5.5963  -5.5958  -5.5936
    -5.5919  -5.5857  -5.5790  -5.5763  -5.5730  -5.5711  -5.5651  -5.5635
    -5.5562  -5.5559  -5.5527  -5.5516  -5.5514  -5.5477  -5.5424  -5.5362
    -5.5315  -5.5042  -5.5041  -5.4861  -5.4856  -4.2014  -4.1973  -4.1928
    -4.1907  -4.1850  -4.1809  -4.1807  -4.1766  -4.1748  -4.1743  -4.1714
    -4.1684  -4.1678  -4.1671  -4.1668  -4.1618  -4.1613  -4.1591  -4.1561
    -4.1559  -4.1555  -4.1533  -4.1520  -4.1515  -4.1512  -4.1497  -4.1464
    -4.1448  -4.1443  -4.1439  -4.1422  -4.1418  -4.1417  -4.1413  -4.1402
    -4.1383  -4.1383  -4.1373  -4.1359  -4.1335  -4.1329  -4.1319  -4.1313
    -4.1306  -4.1273  -4.1263  -4.1242  -4.1230  -4.1215  -4.1172  -4.1161
    -4.1125  -4.1081  -4.1021  -4.1016  -4.1012  -4.0985  -4.0981  -4.0946
    -4.0929  -4.0914  -4.0887  -4.0872  -4.0833  -4.0833  -4.0827  -4.0791
    -4.0774  -4.0760  -4.0728  -4.0724  -4.0714  -4.0712  -4.0686  -4.0680
    -4.0663  -4.0636  -4.0634  -4.0616  -4.0594  -4.0575  -4.0571  -4.0570
    -4.0514  -4.0494  -4.0493  -4.0480  -4.0452  -4.0444  -4.0415  -4.0415
    -4.0361  -4.0306  -4.0291  -4.0261  -4.0250  -4.0232  -4.0186  -4.0170
    -4.0168  -4.0130  -4.0121  -4.0098  -4.0081  -4.0066  -4.0066  -4.0061
    -4.0056  -4.0038  -4.0020  -4.0017  -3.9998  -3.9991  -3.9987  -3.9970
    -3.9963  -3.9935  -3.9931  -3.9904  -3.9892  -3.9889  -3.9873  -3.9861
    -3.9840  -3.9839  -3.9811  -3.9804  -3.9773  -3.9767  -3.9754  -3.9745
    -3.9730  -3.9717  -3.9716  -3.9704  -3.9702  -3.9680  -3.9680  -3.9662
    -3.9662  -3.9652  -3.9645  -3.9632  -3.9611  -3.9605  -3.9593  -3.9590
    -3.9574  -3.9561  -3.9545  -3.9544  -3.9512  -3.9489  -3.9464  -3.9458
    -3.9423  -3.9406  -3.9368  -3.9365  -3.9328  -3.9301  -3.9299  -3.9289
    -3.9270  -3.9251  -3.9248  -3.9246  -3.9227  -3.9225  -3.9195  -3.9195
    -3.9183  -3.9168  -3.9160  -3.9144  -3.9139  -3.9130  -3.9120  -3.9103
    -3.9091  -3.9065  -3.9062  -3.9039  -3.9030  -3.9022  -3.8984  -3.8979
    -3.8973  -3.8969  -3.8941  -3.8931  -3.8923  -3.8902  -3.8883  -3.8880
    -3.8857  -3.8835  -3.8831  -3.8802  -3.8782  -3.8749  -3.8718  -3.8669
    -3.8563  -3.8394  -3.8264  -3.8201  -3.8172  -3.8057  -3.7978  -3.7739
    -3.7665  -3.7556  -3.7366  -3.7314  -3.7072  -3.6942  -3.6788  -3.6752
    -3.6668  -3.6623  -3.6183  -3.6178  -3.5821  -3.5760  -3.5588  -3.5526
    -3.3503  -3.3368  -3.2003  -3.1990  -3.1765  -3.1685  -3.1421  -3.1400
    -3.1368  -3.0869  -3.0092  -2.9533  -2.8440  -2.8189  -2.7769  -2.7767
    -2.7731  -2.7347  -2.6495  -2.6208  -2.4817  -2.4784  -2.4758  -2.4563
    -2.4548  -2.4214  -2.3355  -2.3333  -2.3112  -2.3102  -2.2804  -2.2767
    -2.2753  -2.2241  -2.1765  -2.1707  -2.1637  -2.1590  -2.1436  -2.0875
    -2.0841  -2.0786  -2.0563  -0.0477   2.9341   2.9500   2.9736   2.9967
     3.1191   3.1306   3.1898   3.1913   3.1951   3.2066   3.2285   3.2401
     3.2581   3.2707   3.4058   3.4073   3.4218   3.4278   3.4323   3.4453
     3.4816   3.4839   3.4883   3.5099   3.5112   3.5582   3.5659   3.6243
     3.8785   3.8855   3.9068   3.9445   4.0792   4.1288   4.2968   4.3146
     4.3160   4.3397   4.3892   4.3995   4.4310   4.5167   4.7461   4.7554
     4.7628   4.7830   4.7994   4.8205   5.0941   5.0976   5.1417   5.1704
     5.3581   5.3589   5.3799   5.3800   5.4164   5.4265   5.4831   5.5131
     5.5342   5.5403   5.5490   5.5545   5.5620   5.6086   5.6314   5.6453
     5.7084   5.7626   6.1762   6.2599   6.2859   6.3000   6.3000   6.3588
     6.5989   6.6006   6.6238   6.6429   6.6697   6.6724   6.7085   6.7279
     6.7934   6.8450   6.9787   6.9790   6.9970   7.0316   7.0583   7.0665
     7.0801   7.1028   7.1870   7.1943   7.1995   7.2007   7.2261   7.2302
     7.2382   7.2436   7.2808   7.3019   7.3708   7.3985   7.4216   7.4389
     7.4668   7.5159   7.5348   7.5587   7.5640   7.5652   7.6488   7.6540
     7.6608   7.6685   7.6888   7.7070   7.7693   7.7877   7.7907   7.8062
     7.8144   7.8577   7.8663   7.8812   7.9064   7.9928   8.0158   8.0339
     8.0645   8.0655   8.0880   8.0894   8.1402   8.1600   8.1791   8.2098
     8.2203   8.2531   8.2570   8.3001   8.3084   8.3359   8.3697   8.3782
     8.3798   8.4370   8.4477   8.5010   8.6408   8.6456   8.6634   8.7683
     8.8335   8.9054   9.1151   9.1921   9.2303   9.4342  12.0684  12.1458
    13.3776  13.4393  13.6478  13.6519  13.6994  13.7028  13.7791  13.7910
    13.7958  13.8047  13.8079  13.8296  13.8565  13.9183  14.0247  14.0253
    14.0402  14.0631  14.1049  14.1086  14.1218  14.2549  14.3553  14.3695
    14.4773

     occupation numbers 
     1.0000   1.0000   1.0000   1.0000   1.0000   1.0000   1.0000   1.0000
     1.0000   1.0000   1.0000   1.0000   1.0000   1.0000   1.0000   1.0000
     1.0000   1.0000   1.0000   1.0000   1.0000   1.0000   1.0000   1.0000
     1.0000   1.0000   1.0000   1.0000   1.0000   1.0000   1.0000   1.0000
     1.0000   1.0000   1.0000   1.0000   1.0000   1.0000   1.0000   1.0000
     1.0000   1.0000   1.0000   1.0000   1.0000   1.0000   1.0000   1.0000
     1.0000   1.0000   1.0000   1.0000   1.0000   1.0000   1.0000   1.0000
     1.0000   1.0000   1.0000   1.0000   1.0000   1.0000   1.0000   1.0000
     1.0000   1.0000   1.0000   1.0000   1.0000   1.0000   1.0000   1.0000
     1.0000   1.0000   1.0000   1.0000   1.0000   1.0000   1.0000   1.0000
     1.0000   1.0000   1.0000   1.0000   1.0000   1.0000   1.0000   1.0000
     1.0000   1.0000   1.0000   1.0000   1.0000   1.0000   1.0000   1.0000
     1.0000   1.0000   1.0000   1.0000   1.0000   1.0000   1.0000   1.0000
     1.0000   1.0000   1.0000   1.0000   1.0000   1.0000   1.0000   1.0000
     1.0000   1.0000   1.0000   1.0000   1.0000   1.0000   1.0000   1.0000
     1.0000   1.0000   1.0000   1.0000   1.0000   1.0000   1.0000   1.0000
     1.0000   1.0000   1.0000   1.0000   1.0000   1.0000   1.0000   1.0000
     1.0000   1.0000   1.0000   1.0000   1.0000   1.0000   1.0000   1.0000
     1.0000   1.0000   1.0000   1.0000   1.0000   1.0000   1.0000   1.0000
     1.0000   1.0000   1.0000   1.0000   1.0000   1.0000   1.0000   1.0000
     1.0000   1.0000   1.0000   1.0000   1.0000   1.0000   1.0000   1.0000
     1.0000   1.0000   1.0000   1.0000   1.0000   1.0000   1.0000   1.0000
     1.0000   1.0000   1.0000   1.0000   1.0000   1.0000   1.0000   1.0000
     1.0000   1.0000   1.0000   1.0000   1.0000   1.0000   1.0000   1.0000
     1.0000   1.0000   1.0000   1.0000   1.0000   1.0000   1.0000   1.0000
     1.0000   1.0000   1.0000   1.0000   1.0000   1.0000   1.0000   1.0000
     1.0000   1.0000   1.0000   1.0000   1.0000   1.0000   1.0000   1.0000
     1.0000   1.0000   1.0000   1.0000   1.0000   1.0000   1.0000   1.0000
     1.0000   1.0000   1.0000   1.0000   1.0000   1.0000   1.0000   1.0000
     1.0000   1.0000   1.0000   1.0000   1.0000   1.0000   1.0000   1.0000
     1.0000   1.0000   1.0000   1.0000   1.0000   1.0000   1.0000   1.0000
     1.0000   1.0000   1.0000   1.0000   1.0000   1.0000   1.0000   1.0000
     1.0000   1.0000   1.0000   1.0000   1.0000   1.0000   1.0000   1.0000
     1.0000   1.0000   1.0000   1.0000   1.0000   1.0000   1.0000   1.0000
     1.0000   1.0000   1.0000   1.0000   1.0000   1.0000   1.0000   1.0000
     1.0000   1.0000   1.0000   1.0000   1.0000   1.0000   1.0000   1.0000
     1.0000   1.0000   1.0000   1.0000   1.0000   1.0000   1.0000   1.0000
     1.0000   1.0000   1.0000   1.0000   1.0000   1.0000   1.0000   1.0000
     1.0000   1.0000   1.0000   1.0000   1.0000   1.0000   1.0000   1.0000
     1.0000   1.0000   1.0000   1.0000   1.0000   1.0000   1.0000   1.0000
     1.0000   1.0000   1.0000   1.0000   1.0000   1.0000   1.0000   1.0000
     1.0000   1.0000   1.0000   1.0000   1.0000   1.0000   1.0000   1.0000
     1.0000   1.0000   1.0000   1.0000   1.0000   1.0000   1.0000   1.0000
     1.0000   1.0000   1.0000   1.0000   1.0000   1.0000   1.0000   1.0000
     1.0000   1.0000   1.0000   1.0000   1.0000   1.0000   1.0000   1.0000
     1.0000   1.0000   1.0000   1.0000   1.0000   1.0000   1.0000   1.0000
     1.0000   1.0000   1.0000   1.0000   1.0000   1.0000   1.0000   1.0000
     1.0000   1.0000   1.0000   1.0000   1.0000   1.0000   1.0000   1.0000
     1.0000   1.0000   1.0000   1.0000   1.0000   1.0000   1.0000   1.0000
     1.0000   1.0000   1.0000   1.0000   1.0000   1.0000   1.0000   1.0000
     1.0000   1.0000   1.0000   1.0000   1.0000   1.0000   1.0000   1.0000
     1.0000   1.0000   1.0000   1.0000   1.0000   1.0000   1.0000   1.0000
     1.0000   1.0000   1.0000   1.0000   1.0000   1.0000   1.0000   1.0000
     1.0000   1.0000   1.0000   1.0000   1.0000   1.0000   1.0000   1.0000
     1.0000   1.0000   1.0000   1.0000   1.0000   1.0000   1.0000   1.0000
     1.0000   1.0000   1.0000   1.0000   1.0000   1.0000   1.0000   1.0000
     1.0000   1.0000   1.0000   1.0000   1.0000   1.0000   1.0000   1.0000
     1.0000   1.0000   1.0000   1.0000   1.0000   1.0000   1.0000   1.0000
     1.0000   1.0000   1.0000   1.0000   1.0000   1.0000   1.0000   1.0000
     1.0000   1.0000   1.0000   1.0000   1.0000   1.0000   1.0000   1.0000
     1.0000   1.0000   0.9999   0.9971   0.9880   0.3475   0.0000   0.0000
     0.0000   0.0000   0.0000   0.0000   0.0000   0.0000   0.0000   0.0000
     0.0000   0.0000   0.0000   0.0000   0.0000   0.0000   0.0000   0.0000
     0.0000   0.0000   0.0000   0.0000   0.0000   0.0000   0.0000   0.0000
     0.0000

          k = 0.0000-0.5774 0.0000 ( 51276 PWs)   bands (ev):

    -6.2574  -6.2278  -6.0313  -6.0277  -6.0102  -5.9990  -5.9255  -5.9062
    -5.7797  -5.7781  -5.7773  -5.7680  -5.7148  -5.7119  -5.6976  -5.6932
    -5.6911  -5.6818  -5.6750  -5.6680  -5.6594  -5.6365  -5.6316  -5.6235
    -5.6191  -5.6175  -5.6148  -5.6116  -5.6111  -5.6092  -5.6072  -5.6023
    -5.5974  -5.5960  -5.5902  -5.5842  -5.5734  -5.5674  -5.5642  -5.5546
    -5.5528  -5.5526  -5.5500  -5.5493  -5.5479  -5.5476  -5.5430  -5.5365
    -5.5306  -5.5032  -5.5029  -5.4855  -5.4845  -4.1930  -4.1887  -4.1832
    -4.1825  -4.1785  -4.1753  -4.1750  -4.1739  -4.1733  -4.1703  -4.1694
    -4.1676  -4.1661  -4.1644  -4.1625  -4.1621  -4.1598  -4.1532  -4.1526
    -4.1510  -4.1498  -4.1468  -4.1452  -4.1428  -4.1419  -4.1411  -4.1404
    -4.1403  -4.1394  -4.1385  -4.1375  -4.1374  -4.1368  -4.1360  -4.1358
    -4.1333  -4.1309  -4.1287  -4.1271  -4.1270  -4.1264  -4.1247  -4.1245
    -4.1228  -4.1219  -4.1201  -4.1192  -4.1187  -4.1166  -4.1144  -4.1138
    -4.1137  -4.1127  -4.1111  -4.1101  -4.1087  -4.1083  -4.1075  -4.1062
    -4.1011  -4.1004  -4.0987  -4.0979  -4.0957  -4.0949  -4.0927  -4.0921
    -4.0920  -4.0901  -4.0890  -4.0882  -4.0880  -4.0846  -4.0829  -4.0817
    -4.0796  -4.0781  -4.0770  -4.0764  -4.0745  -4.0722  -4.0681  -4.0635
    -4.0586  -4.0531  -4.0464  -4.0432  -4.0408  -4.0391  -4.0365  -4.0318
    -4.0295  -4.0293  -4.0275  -4.0268  -4.0254  -4.0234  -4.0233  -4.0208
    -4.0189  -4.0159  -4.0158  -4.0150  -4.0138  -4.0136  -4.0096  -4.0092
    -4.0087  -4.0063  -4.0056  -4.0018  -4.0010  -3.9986  -3.9976  -3.9962
    -3.9955  -3.9946  -3.9942  -3.9927  -3.9919  -3.9916  -3.9910  -3.9899
    -3.9888  -3.9878  -3.9850  -3.9843  -3.9841  -3.9814  -3.9809  -3.9801
    -3.9785  -3.9783  -3.9753  -3.9749  -3.9746  -3.9688  -3.9679  -3.9662
    -3.9647  -3.9646  -3.9626  -3.9619  -3.9593  -3.9587  -3.9573  -3.9570
    -3.9555  -3.9548  -3.9534  -3.9520  -3.9490  -3.9473  -3.9470  -3.9441
    -3.9394  -3.9388  -3.9376  -3.9329  -3.9329  -3.9308  -3.9290  -3.9256
    -3.9252  -3.9241  -3.9211  -3.9201  -3.9189  -3.9175  -3.9170  -3.9163
    -3.9154  -3.9151  -3.9140  -3.9127  -3.9124  -3.9110  -3.9085  -3.9085
    -3.9073  -3.9072  -3.9069  -3.9050  -3.9040  -3.9036  -3.9011  -3.8993
    -3.8992  -3.8973  -3.8966  -3.8951  -3.8949  -3.8942  -3.8923  -3.8885
    -3.8872  -3.8859  -3.8853  -3.8838  -3.8831  -3.8814  -3.8779  -3.8698
    -3.8632  -3.8578  -3.8420  -3.8352  -3.8281  -3.8184  -3.8105  -3.8022
    -3.7927  -3.7642  -3.7570  -3.7466  -3.7110  -3.7039  -3.6900  -3.6857
    -3.6710  -3.6692  -3.6673  -3.6602  -3.5785  -3.5751  -3.4853  -3.4795
    -3.4653  -3.4516  -3.1854  -3.1783  -3.1641  -3.1323  -2.8762  -2.8722
    -2.8605  -2.8564  -2.7776  -2.7709  -2.7675  -2.7643  -2.7279  -2.7208
    -2.7147  -2.7118  -2.7047  -2.6997  -2.6937  -2.6772  -2.6465  -2.6171
    -2.5212  -2.4590  -2.4243  -2.3499  -2.3416  -2.2877  -2.2808  -2.2772
    -2.2741  -2.2673  -2.2551  -2.2499  -2.2085  -2.1714  -2.1597  -2.0686
    -2.0130  -1.9998  -1.9862  -0.0387   2.6608   2.6720   2.7418   2.7838
     2.9509   3.0750   3.0781   3.0842   3.0931   3.0970   3.1088   3.1193
     3.1342   3.2382   3.2535   3.3485   3.3560   3.3574   3.3770   3.4080
     3.4111   3.6133   3.6168   3.6197   3.6323   3.6526   3.6672   3.6807
     3.6815   3.9613   3.9828   3.9909   3.9938   4.0759   4.1228   4.1289
     4.1980   4.2149   4.2779   4.3036   4.3200   4.3848   5.0448   5.0550
     5.0709   5.1317   5.1751   5.1921   5.2067   5.2089   5.2549   5.3480
     5.3552   5.6490   5.6808   5.7503   5.7556   5.7637   5.7723   5.8178
     5.8181   5.8232   5.8248   5.8269   5.8376   5.8965   5.9100   6.3165
     6.3298   6.3370   6.3641   6.3662   6.3952   6.3996   6.4360   6.5575
     6.5606   6.6174   6.6291   6.6350   6.7445   6.7462   6.7474   6.7503
     6.7590   6.7690   6.7899   6.8317   6.9071   6.9132   6.9267   6.9291
     6.9317   6.9358   6.9368   6.9573   6.9603   6.9688   6.9871   6.9897
     6.9955   7.0076   7.0625   7.0818   7.1362   7.1421   7.1482   7.1620
     7.2857   7.3190   7.3419   7.3437   7.4149   7.5130   7.5250   7.5276
     7.5598   7.5908   7.6129   7.7422   7.7548   7.7603   7.7801   7.7870
     7.7882   7.7901   7.8166   7.8585   7.8801   7.9106   7.9108   7.9146
     7.9207   7.9230   7.9551   8.0206   8.0456   8.0475   8.0511   8.0693
     8.1459   8.1654   8.1851   8.2287   8.2306   8.2683   8.2706   8.2924
     8.2977   8.3394   8.3825   8.3950   8.6713   8.6749   8.6756   8.6961
     8.7795   8.8693   8.9302   9.0158   9.2754   9.3677  12.5239  12.5652
    13.2876  13.3010  13.4544  13.4774  13.5068  13.5610  13.9990  14.0002
    14.1494  14.1538  14.1709  14.1941  14.2035  14.2093  14.2596  14.2779
    14.2820  14.2899  14.2956  14.3000  14.3180  14.3213  14.4622  14.5902
    14.5964

     occupation numbers 
     1.0000   1.0000   1.0000   1.0000   1.0000   1.0000   1.0000   1.0000
     1.0000   1.0000   1.0000   1.0000   1.0000   1.0000   1.0000   1.0000
     1.0000   1.0000   1.0000   1.0000   1.0000   1.0000   1.0000   1.0000
     1.0000   1.0000   1.0000   1.0000   1.0000   1.0000   1.0000   1.0000
     1.0000   1.0000   1.0000   1.0000   1.0000   1.0000   1.0000   1.0000
     1.0000   1.0000   1.0000   1.0000   1.0000   1.0000   1.0000   1.0000
     1.0000   1.0000   1.0000   1.0000   1.0000   1.0000   1.0000   1.0000
     1.0000   1.0000   1.0000   1.0000   1.0000   1.0000   1.0000   1.0000
     1.0000   1.0000   1.0000   1.0000   1.0000   1.0000   1.0000   1.0000
     1.0000   1.0000   1.0000   1.0000   1.0000   1.0000   1.0000   1.0000
     1.0000   1.0000   1.0000   1.0000   1.0000   1.0000   1.0000   1.0000
     1.0000   1.0000   1.0000   1.0000   1.0000   1.0000   1.0000   1.0000
     1.0000   1.0000   1.0000   1.0000   1.0000   1.0000   1.0000   1.0000
     1.0000   1.0000   1.0000   1.0000   1.0000   1.0000   1.0000   1.0000
     1.0000   1.0000   1.0000   1.0000   1.0000   1.0000   1.0000   1.0000
     1.0000   1.0000   1.0000   1.0000   1.0000   1.0000   1.0000   1.0000
     1.0000   1.0000   1.0000   1.0000   1.0000   1.0000   1.0000   1.0000
     1.0000   1.0000   1.0000   1.0000   1.0000   1.0000   1.0000   1.0000
     1.0000   1.0000   1.0000   1.0000   1.0000   1.0000   1.0000   1.0000
     1.0000   1.0000   1.0000   1.0000   1.0000   1.0000   1.0000   1.0000
     1.0000   1.0000   1.0000   1.0000   1.0000   1.0000   1.0000   1.0000
     1.0000   1.0000   1.0000   1.0000   1.0000   1.0000   1.0000   1.0000
     1.0000   1.0000   1.0000   1.0000   1.0000   1.0000   1.0000   1.0000
     1.0000   1.0000   1.0000   1.0000   1.0000   1.0000   1.0000   1.0000
     1.0000   1.0000   1.0000   1.0000   1.0000   1.0000   1.0000   1.0000
     1.0000   1.0000   1.0000   1.0000   1.0000   1.0000   1.0000   1.0000
     1.0000   1.0000   1.0000   1.0000   1.0000   1.0000   1.0000   1.0000
     1.0000   1.0000   1.0000   1.0000   1.0000   1.0000   1.0000   1.0000
     1.0000   1.0000   1.0000   1.0000   1.0000   1.0000   1.0000   1.0000
     1.0000   1.0000   1.0000   1.0000   1.0000   1.0000   1.0000   1.0000
     1.0000   1.0000   1.0000   1.0000   1.0000   1.0000   1.0000   1.0000
     1.0000   1.0000   1.0000   1.0000   1.0000   1.0000   1.0000   1.0000
     1.0000   1.0000   1.0000   1.0000   1.0000   1.0000   1.0000   1.0000
     1.0000   1.0000   1.0000   1.0000   1.0000   1.0000   1.0000   1.0000
     1.0000   1.0000   1.0000   1.0000   1.0000   1.0000   1.0000   1.0000
     1.0000   1.0000   1.0000   1.0000   1.0000   1.0000   1.0000   1.0000
     1.0000   1.0000   1.0000   1.0000   1.0000   1.0000   1.0000   1.0000
     1.0000   1.0000   1.0000   1.0000   1.0000   1.0000   1.0000   1.0000
     1.0000   1.0000   1.0000   1.0000   1.0000   1.0000   1.0000   1.0000
     1.0000   1.0000   1.0000   1.0000   1.0000   1.0000   1.0000   1.0000
     1.0000   1.0000   1.0000   1.0000   1.0000   1.0000   1.0000   1.0000
     1.0000   1.0000   1.0000   1.0000   1.0000   1.0000   1.0000   1.0000
     1.0000   1.0000   1.0000   1.0000   1.0000   1.0000   1.0000   1.0000
     1.0000   1.0000   1.0000   1.0000   1.0000   1.0000   1.0000   1.0000
     1.0000   1.0000   1.0000   1.0000   1.0000   1.0000   1.0000   1.0000
     1.0000   1.0000   1.0000   1.0000   1.0000   1.0000   1.0000   1.0000
     1.0000   1.0000   1.0000   1.0000   1.0000   1.0000   1.0000   1.0000
     1.0000   1.0000   1.0000   1.0000   1.0000   1.0000   1.0000   1.0000
     1.0000   1.0000   1.0000   1.0000   1.0000   1.0000   1.0000   1.0000
     1.0000   1.0000   1.0000   1.0000   1.0000   1.0000   1.0000   1.0000
     1.0000   1.0000   1.0000   1.0000   1.0000   1.0000   1.0000   1.0000
     1.0000   1.0000   1.0000   1.0000   1.0000   1.0000   1.0000   1.0000
     1.0000   1.0000   1.0000   1.0000   1.0000   1.0000   1.0000   1.0000
     1.0000   1.0000   1.0000   1.0000   1.0000   1.0000   1.0000   1.0000
     1.0000   1.0000   1.0000   1.0000   1.0000   1.0000   1.0000   1.0000
     1.0000   1.0000   1.0000   1.0000   1.0000   1.0000   1.0000   1.0000
     1.0000   1.0000   1.0000   1.0000   1.0000   1.0000   1.0000   1.0000
     1.0000   1.0000   1.0000   1.0000   1.0000   1.0000   1.0000   1.0000
     1.0000   1.0000   1.0000   1.0000   1.0000   1.0000   1.0000   1.0000
     1.0000   1.0000   1.0000   1.0000   1.0000   1.0000   1.0000   1.0000
     1.0000   1.0000   1.0000   1.0000   0.9526   0.6814   0.0000   0.0000
     0.0000   0.0000   0.0000   0.0000   0.0000   0.0000   0.0000   0.0000
     0.0000   0.0000   0.0000   0.0000   0.0000   0.0000   0.0000   0.0000
     0.0000   0.0000   0.0000   0.0000   0.0000   0.0000   0.0000   0.0000
     0.0000

          k = 0.0000-0.5774-0.3067 ( 51244 PWs)   bands (ev):

    -6.1955  -6.1912  -6.1868  -6.1382  -5.8903  -5.8889  -5.8760  -5.8676
    -5.8438  -5.8432  -5.8211  -5.8051  -5.6826  -5.6767  -5.6736  -5.6717
    -5.6711  -5.6711  -5.6633  -5.6601  -5.6580  -5.6569  -5.6527  -5.6518
    -5.6510  -5.6442  -5.6383  -5.6357  -5.6269  -5.6083  -5.5849  -5.5829
    -5.5797  -5.5769  -5.5738  -5.5737  -5.5701  -5.5663  -5.5615  -5.5580
    -5.5568  -5.5562  -5.5535  -5.5504  -5.5484  -5.5479  -5.5443  -5.5377
    -5.5339  -5.5046  -5.5038  -5.4857  -5.4848  -4.1907  -4.1872  -4.1863
    -4.1819  -4.1771  -4.1747  -4.1714  -4.1677  -4.1672  -4.1658  -4.1655
    -4.1652  -4.1640  -4.1630  -4.1622  -4.1621  -4.1615  -4.1593  -4.1562
    -4.1555  -4.1553  -4.1502  -4.1495  -4.1481  -4.1480  -4.1460  -4.1459
    -4.1448  -4.1438  -4.1414  -4.1409  -4.1378  -4.1358  -4.1344  -4.1333
    -4.1330  -4.1312  -4.1311  -4.1291  -4.1283  -4.1277  -4.1257  -4.1237
    -4.1231  -4.1220  -4.1203  -4.1202  -4.1197  -4.1178  -4.1171  -4.1166
    -4.1151  -4.1142  -4.1120  -4.1119  -4.1101  -4.1084  -4.1056  -4.1042
    -4.1036  -4.1030  -4.1007  -4.0960  -4.0942  -4.0923  -4.0922  -4.0920
    -4.0879  -4.0847  -4.0844  -4.0800  -4.0781  -4.0761  -4.0716  -4.0701
    -4.0685  -4.0672  -4.0659  -4.0653  -4.0640  -4.0639  -4.0630  -4.0602
    -4.0594  -4.0581  -4.0541  -4.0526  -4.0499  -4.0477  -4.0470  -4.0448
    -4.0444  -4.0423  -4.0386  -4.0338  -4.0331  -4.0305  -4.0233  -4.0224
    -4.0181  -4.0151  -4.0135  -4.0127  -4.0089  -4.0076  -4.0071  -4.0060
    -4.0054  -4.0049  -4.0026  -4.0024  -4.0013  -4.0000  -3.9991  -3.9976
    -3.9970  -3.9946  -3.9935  -3.9929  -3.9923  -3.9910  -3.9901  -3.9880
    -3.9853  -3.9851  -3.9846  -3.9835  -3.9818  -3.9803  -3.9779  -3.9760
    -3.9753  -3.9746  -3.9736  -3.9724  -3.9723  -3.9710  -3.9699  -3.9694
    -3.9682  -3.9672  -3.9647  -3.9635  -3.9633  -3.9614  -3.9613  -3.9604
    -3.9592  -3.9570  -3.9549  -3.9541  -3.9498  -3.9454  -3.9449  -3.9414
    -3.9402  -3.9392  -3.9361  -3.9346  -3.9316  -3.9305  -3.9284  -3.9280
    -3.9259  -3.9254  -3.9234  -3.9231  -3.9213  -3.9202  -3.9178  -3.9166
    -3.9150  -3.9142  -3.9141  -3.9139  -3.9128  -3.9118  -3.9110  -3.9097
    -3.9076  -3.9072  -3.9067  -3.9054  -3.9050  -3.9047  -3.9037  -3.9005
    -3.9005  -3.8992  -3.8980  -3.8976  -3.8975  -3.8948  -3.8905  -3.8901
    -3.8898  -3.8872  -3.8855  -3.8833  -3.8827  -3.8776  -3.8772  -3.8694
    -3.8641  -3.8631  -3.8411  -3.8353  -3.8285  -3.8011  -3.7998  -3.7690
    -3.7660  -3.7620  -3.7151  -3.7059  -3.6993  -3.6839  -3.6830  -3.6665
    -3.6619  -3.6518  -3.6410  -3.6018  -3.5973  -3.5844  -3.5730  -3.5723
    -3.5596  -3.5480  -3.1890  -3.1885  -3.1841  -3.1613  -2.8446  -2.8407
    -2.8402  -2.8351  -2.8262  -2.8221  -2.7947  -2.7715  -2.7101  -2.7002
    -2.6957  -2.6901  -2.6667  -2.6300  -2.5260  -2.5249  -2.5239  -2.5103
    -2.5084  -2.5071  -2.5039  -2.4809  -2.4634  -2.3974  -2.3581  -2.3575
    -2.3367  -2.2626  -2.2380  -2.1854  -2.0937  -2.0884  -2.0855  -2.0818
    -2.0802  -2.0642  -2.0457  -0.0436   2.7799   2.7973   2.8168   2.8385
     3.1466   3.1479   3.1648   3.1888   3.1972   3.1998   3.2000   3.2051
     3.2092   3.2140   3.2216   3.2239   3.2250   3.2293   3.2360   3.2455
     3.2745   3.3039   3.3147   3.3406   3.5336   3.5492   3.5585   3.6220
     3.7679   3.8148   4.0683   4.0691   4.0733   4.0784   4.0857   4.1278
     4.1321   4.1819   4.4892   4.5140   4.5215   4.5781   5.2735   5.2804
     5.3098   5.3492   5.4279   5.4313   5.4321   5.4341   5.4432   5.4508
     5.4540   5.4733   5.4790   5.4993   5.5382   5.5994   5.6011   5.6054
     5.6213   5.6811   5.6909   5.6930   6.0004   6.0039   6.0064   6.0093
     6.0163   6.0320   6.0478   6.0962   6.2984   6.3019   6.3067   6.3111
     6.3122   6.3210   6.3636   6.3681   6.6892   6.6937   6.7035   6.7287
     6.7449   6.7599   6.8670   6.8698   6.8795   6.9760   7.2060   7.2080
     7.2093   7.2143   7.2184   7.2240   7.2411   7.2764   7.3014   7.3044
     7.3047   7.3070   7.3157   7.3476   7.3498   7.3852   7.3864   7.4100
     7.4123   7.4354   7.4460   7.4482   7.5024   7.5068   7.5092   7.5541
     7.6137   7.6206   7.6207   7.6228   7.6251   7.6271   7.6355   7.6364
     7.6391   7.6437   7.6483   7.6492   7.6524   7.6568   7.6645   7.6715
     7.6777   7.7134   7.8341   7.8394   7.8419   7.9194   7.9716   8.0705
     8.1229   8.1243   8.1367   8.1523   8.2097   8.3502   8.3546   8.3787
     8.3897   8.4172   8.4290   8.5200   8.5815   8.5999   8.7683   8.7773
     8.9195   8.9233   8.9289   8.9322   9.2254   9.3581  12.7685  12.7922
    12.8180  12.9045  13.5679  13.5851  13.8257  13.8452  13.9613  13.9639
    14.0287  14.0344  14.2064  14.2212  14.2554  14.2653  14.2804  14.3403
    14.5507  14.5547  14.5588  14.5626  14.5692  14.5778  14.5795  14.5807
    14.6196

     occupation numbers 
     1.0000   1.0000   1.0000   1.0000   1.0000   1.0000   1.0000   1.0000
     1.0000   1.0000   1.0000   1.0000   1.0000   1.0000   1.0000   1.0000
     1.0000   1.0000   1.0000   1.0000   1.0000   1.0000   1.0000   1.0000
     1.0000   1.0000   1.0000   1.0000   1.0000   1.0000   1.0000   1.0000
     1.0000   1.0000   1.0000   1.0000   1.0000   1.0000   1.0000   1.0000
     1.0000   1.0000   1.0000   1.0000   1.0000   1.0000   1.0000   1.0000
     1.0000   1.0000   1.0000   1.0000   1.0000   1.0000   1.0000   1.0000
     1.0000   1.0000   1.0000   1.0000   1.0000   1.0000   1.0000   1.0000
     1.0000   1.0000   1.0000   1.0000   1.0000   1.0000   1.0000   1.0000
     1.0000   1.0000   1.0000   1.0000   1.0000   1.0000   1.0000   1.0000
     1.0000   1.0000   1.0000   1.0000   1.0000   1.0000   1.0000   1.0000
     1.0000   1.0000   1.0000   1.0000   1.0000   1.0000   1.0000   1.0000
     1.0000   1.0000   1.0000   1.0000   1.0000   1.0000   1.0000   1.0000
     1.0000   1.0000   1.0000   1.0000   1.0000   1.0000   1.0000   1.0000
     1.0000   1.0000   1.0000   1.0000   1.0000   1.0000   1.0000   1.0000
     1.0000   1.0000   1.0000   1.0000   1.0000   1.0000   1.0000   1.0000
     1.0000   1.0000   1.0000   1.0000   1.0000   1.0000   1.0000   1.0000
     1.0000   1.0000   1.0000   1.0000   1.0000   1.0000   1.0000   1.0000
     1.0000   1.0000   1.0000   1.0000   1.0000   1.0000   1.0000   1.0000
     1.0000   1.0000   1.0000   1.0000   1.0000   1.0000   1.0000   1.0000
     1.0000   1.0000   1.0000   1.0000   1.0000   1.0000   1.0000   1.0000
     1.0000   1.0000   1.0000   1.0000   1.0000   1.0000   1.0000   1.0000
     1.0000   1.0000   1.0000   1.0000   1.0000   1.0000   1.0000   1.0000
     1.0000   1.0000   1.0000   1.0000   1.0000   1.0000   1.0000   1.0000
     1.0000   1.0000   1.0000   1.0000   1.0000   1.0000   1.0000   1.0000
     1.0000   1.0000   1.0000   1.0000   1.0000   1.0000   1.0000   1.0000
     1.0000   1.0000   1.0000   1.0000   1.0000   1.0000   1.0000   1.0000
     1.0000   1.0000   1.0000   1.0000   1.0000   1.0000   1.0000   1.0000
     1.0000   1.0000   1.0000   1.0000   1.0000   1.0000   1.0000   1.0000
     1.0000   1.0000   1.0000   1.0000   1.0000   1.0000   1.0000   1.0000
     1.0000   1.0000   1.0000   1.0000   1.0000   1.0000   1.0000   1.0000
     1.0000   1.0000   1.0000   1.0000   1.0000   1.0000   1.0000   1.0000
     1.0000   1.0000   1.0000   1.0000   1.0000   1.0000   1.0000   1.0000
     1.0000   1.0000   1.0000   1.0000   1.0000   1.0000   1.0000   1.0000
     1.0000   1.0000   1.0000   1.0000   1.0000   1.0000   1.0000   1.0000
     1.0000   1.0000   1.0000   1.0000   1.0000   1.0000   1.0000   1.0000
     1.0000   1.0000   1.0000   1.0000   1.0000   1.0000   1.0000   1.0000
     1.0000   1.0000   1.0000   1.0000   1.0000   1.0000   1.0000   1.0000
     1.0000   1.0000   1.0000   1.0000   1.0000   1.0000   1.0000   1.0000
     1.0000   1.0000   1.0000   1.0000   1.0000   1.0000   1.0000   1.0000
     1.0000   1.0000   1.0000   1.0000   1.0000   1.0000   1.0000   1.0000
     1.0000   1.0000   1.0000   1.0000   1.0000   1.0000   1.0000   1.0000
     1.0000   1.0000   1.0000   1.0000   1.0000   1.0000   1.0000   1.0000
     1.0000   1.0000   1.0000   1.0000   1.0000   1.0000   1.0000   1.0000
     1.0000   1.0000   1.0000   1.0000   1.0000   1.0000   1.0000   1.0000
     1.0000   1.0000   1.0000   1.0000   1.0000   1.0000   1.0000   1.0000
     1.0000   1.0000   1.0000   1.0000   1.0000   1.0000   1.0000   1.0000
     1.0000   1.0000   1.0000   1.0000   1.0000   1.0000   1.0000   1.0000
     1.0000   1.0000   1.0000   1.0000   1.0000   1.0000   1.0000   1.0000
     1.0000   1.0000   1.0000   1.0000   1.0000   1.0000   1.0000   1.0000
     1.0000   1.0000   1.0000   1.0000   1.0000   1.0000   1.0000   1.0000
     1.0000   1.0000   1.0000   1.0000   1.0000   1.0000   1.0000   1.0000
     1.0000   1.0000   1.0000   1.0000   1.0000   1.0000   1.0000   1.0000
     1.0000   1.0000   1.0000   1.0000   1.0000   1.0000   1.0000   1.0000
     1.0000   1.0000   1.0000   1.0000   1.0000   1.0000   1.0000   1.0000
     1.0000   1.0000   1.0000   1.0000   1.0000   1.0000   1.0000   1.0000
     1.0000   1.0000   1.0000   1.0000   1.0000   1.0000   1.0000   1.0000
     1.0000   1.0000   1.0000   1.0000   1.0000   1.0000   1.0000   1.0000
     1.0000   1.0000   1.0000   1.0000   1.0000   1.0000   1.0000   1.0000
     1.0000   1.0000   1.0000   1.0000   1.0000   1.0000   1.0000   1.0000
     1.0000   1.0000   1.0000   1.0000   0.9898   0.7244   0.0000   0.0000
     0.0000   0.0000   0.0000   0.0000   0.0000   0.0000   0.0000   0.0000
     0.0000   0.0000   0.0000   0.0000   0.0000   0.0000   0.0000   0.0000
     0.0000   0.0000   0.0000   0.0000   0.0000   0.0000   0.0000   0.0000
     0.0000

          k = 0.2500 0.4330 0.0000 ( 51293 PWs)   bands (ev):

    -6.2967  -6.1145  -6.0956  -6.0620  -6.0453  -5.9213  -5.9180  -5.8994
    -5.8780  -5.7740  -5.7610  -5.7252  -5.7242  -5.6930  -5.6808  -5.6790
    -5.6773  -5.6694  -5.6678  -5.6646  -5.6615  -5.6588  -5.6537  -5.6419
    -5.6371  -5.6348  -5.6210  -5.6180  -5.6144  -5.6070  -5.6060  -5.5959
    -5.5927  -5.5851  -5.5843  -5.5743  -5.5685  -5.5668  -5.5602  -5.5587
    -5.5546  -5.5534  -5.5515  -5.5495  -5.5483  -5.5474  -5.5426  -5.5371
    -5.5307  -5.5038  -5.5024  -5.4858  -5.4842  -4.1941  -4.1887  -4.1850
    -4.1806  -4.1778  -4.1770  -4.1755  -4.1721  -4.1702  -4.1685  -4.1656
    -4.1650  -4.1645  -4.1619  -4.1603  -4.1602  -4.1595  -4.1579  -4.1562
    -4.1551  -4.1535  -4.1520  -4.1513  -4.1501  -4.1456  -4.1439  -4.1422
    -4.1420  -4.1401  -4.1392  -4.1373  -4.1360  -4.1351  -4.1336  -4.1327
    -4.1316  -4.1304  -4.1296  -4.1294  -4.1284  -4.1251  -4.1248  -4.1238
    -4.1232  -4.1217  -4.1213  -4.1203  -4.1176  -4.1171  -4.1165  -4.1153
    -4.1124  -4.1115  -4.1108  -4.1090  -4.1083  -4.1070  -4.1056  -4.1047
    -4.1039  -4.1020  -4.0993  -4.0986  -4.0974  -4.0960  -4.0953  -4.0947
    -4.0931  -4.0920  -4.0907  -4.0874  -4.0858  -4.0839  -4.0821  -4.0810
    -4.0791  -4.0760  -4.0736  -4.0691  -4.0636  -4.0614  -4.0560  -4.0533
    -4.0525  -4.0500  -4.0443  -4.0437  -4.0427  -4.0395  -4.0379  -4.0343
    -4.0304  -4.0278  -4.0263  -4.0253  -4.0242  -4.0211  -4.0198  -4.0189
    -4.0164  -4.0160  -4.0158  -4.0137  -4.0136  -4.0127  -4.0114  -4.0099
    -4.0084  -4.0078  -4.0063  -4.0055  -4.0037  -4.0027  -4.0008  -3.9980
    -3.9972  -3.9949  -3.9935  -3.9924  -3.9910  -3.9902  -3.9891  -3.9872
    -3.9870  -3.9865  -3.9843  -3.9835  -3.9822  -3.9811  -3.9805  -3.9802
    -3.9795  -3.9784  -3.9771  -3.9767  -3.9747  -3.9735  -3.9720  -3.9705
    -3.9692  -3.9688  -3.9682  -3.9668  -3.9657  -3.9630  -3.9602  -3.9554
    -3.9524  -3.9504  -3.9493  -3.9476  -3.9466  -3.9440  -3.9417  -3.9409
    -3.9388  -3.9366  -3.9356  -3.9340  -3.9330  -3.9309  -3.9294  -3.9277
    -3.9269  -3.9249  -3.9243  -3.9229  -3.9221  -3.9203  -3.9190  -3.9176
    -3.9167  -3.9155  -3.9131  -3.9117  -3.9113  -3.9110  -3.9101  -3.9092
    -3.9078  -3.9073  -3.9067  -3.9058  -3.9054  -3.9043  -3.9033  -3.9022
    -3.9004  -3.8991  -3.8976  -3.8949  -3.8940  -3.8929  -3.8916  -3.8900
    -3.8892  -3.8874  -3.8854  -3.8805  -3.8773  -3.8755  -3.8736  -3.8703
    -3.8685  -3.8644  -3.8514  -3.8401  -3.8270  -3.8218  -3.8001  -3.7984
    -3.7844  -3.7751  -3.7570  -3.7391  -3.7288  -3.7185  -3.7061  -3.6882
    -3.6855  -3.6684  -3.6664  -3.6648  -3.6479  -3.5727  -3.5702  -3.3286
    -3.3146  -3.2297  -3.2141  -3.1282  -3.1233  -3.1063  -3.0783  -3.0286
    -3.0247  -3.0054  -2.9652  -2.8946  -2.7892  -2.7682  -2.7281  -2.7109
    -2.6636  -2.6598  -2.6452  -2.5957  -2.5661  -2.4989  -2.4926  -2.4892
    -2.4850  -2.4720  -2.4598  -2.4125  -2.3396  -2.3273  -2.3249  -2.3165
    -2.3040  -2.2842  -2.2477  -2.2424  -2.2288  -2.1571  -2.1233  -2.0965
    -2.0474  -2.0133  -1.9615  -0.0389   2.6704   2.7762   2.7813   2.7936
     2.8073   2.9084   2.9202   2.9948   3.0407   3.0613   3.0688   3.2256
     3.3053   3.3119   3.3518   3.3602   3.3644   3.3749   3.3856   3.4111
     3.5333   3.5423   3.5472   3.5673   3.5851   3.6198   3.6504   3.7718
     3.8024   4.1091   4.1137   4.1245   4.1293   4.1472   4.1565   4.1752
     4.1935   4.2116   4.2561   4.2709   4.2963   4.3040   4.4213   4.7212
     4.7515   5.1282   5.1448   5.1640   5.1725   5.2108   5.3538   5.4068
     5.5494   5.5730   5.6671   5.6809   5.7817   5.7961   5.8093   5.8666
     5.8841   5.9561   5.9989   6.1944   6.2085   6.2312   6.2394   6.2535
     6.2749   6.3175   6.3237   6.3268   6.3447   6.3503   6.3862   6.5061
     6.5164   6.5248   6.5401   6.5424   6.5626   6.5742   6.5887   6.6368
     6.6464   6.6608   6.6648   6.6981   6.7074   6.7283   6.8070   6.8622
     6.8645   6.9132   6.9338   6.9407   6.9561   7.0068   7.0324   7.0624
     7.0686   7.1912   7.2322   7.2389   7.2482   7.2499   7.2673   7.3168
     7.4163   7.4219   7.4274   7.4301   7.4357   7.4611   7.4694   7.4814
     7.5211   7.5656   7.5871   7.6502   7.6537   7.6924   7.7440   7.8000
     7.8031   7.8125   7.8549   7.8570   7.8655   7.8799   7.9075   7.9321
     7.9485   7.9669   7.9991   8.0448   8.0553   8.0728   8.0762   8.0818
     8.0867   8.1272   8.1542   8.1860   8.1917   8.2128   8.2960   8.3539
     8.3701   8.4018   8.4083   8.4974   8.5468   8.6388   8.7044   8.7163
     8.7248   8.8910   8.9187   8.9738   9.2757   9.2822  12.3095  13.1496
    13.1938  13.3767  13.4020  13.5833  13.5888  13.5967  13.6408  13.7726
    13.7904  13.8198  13.9085  14.2191  14.2475  14.3689  14.3735  14.3853
    14.4064  14.4192  14.4641  14.4988  14.5477  14.5574  14.5624  14.6121
    14.6791

     occupation numbers 
     1.0000   1.0000   1.0000   1.0000   1.0000   1.0000   1.0000   1.0000
     1.0000   1.0000   1.0000   1.0000   1.0000   1.0000   1.0000   1.0000
     1.0000   1.0000   1.0000   1.0000   1.0000   1.0000   1.0000   1.0000
     1.0000   1.0000   1.0000   1.0000   1.0000   1.0000   1.0000   1.0000
     1.0000   1.0000   1.0000   1.0000   1.0000   1.0000   1.0000   1.0000
     1.0000   1.0000   1.0000   1.0000   1.0000   1.0000   1.0000   1.0000
     1.0000   1.0000   1.0000   1.0000   1.0000   1.0000   1.0000   1.0000
     1.0000   1.0000   1.0000   1.0000   1.0000   1.0000   1.0000   1.0000
     1.0000   1.0000   1.0000   1.0000   1.0000   1.0000   1.0000   1.0000
     1.0000   1.0000   1.0000   1.0000   1.0000   1.0000   1.0000   1.0000
     1.0000   1.0000   1.0000   1.0000   1.0000   1.0000   1.0000   1.0000
     1.0000   1.0000   1.0000   1.0000   1.0000   1.0000   1.0000   1.0000
     1.0000   1.0000   1.0000   1.0000   1.0000   1.0000   1.0000   1.0000
     1.0000   1.0000   1.0000   1.0000   1.0000   1.0000   1.0000   1.0000
     1.0000   1.0000   1.0000   1.0000   1.0000   1.0000   1.0000   1.0000
     1.0000   1.0000   1.0000   1.0000   1.0000   1.0000   1.0000   1.0000
     1.0000   1.0000   1.0000   1.0000   1.0000   1.0000   1.0000   1.0000
     1.0000   1.0000   1.0000   1.0000   1.0000   1.0000   1.0000   1.0000
     1.0000   1.0000   1.0000   1.0000   1.0000   1.0000   1.0000   1.0000
     1.0000   1.0000   1.0000   1.0000   1.0000   1.0000   1.0000   1.0000
     1.0000   1.0000   1.0000   1.0000   1.0000   1.0000   1.0000   1.0000
     1.0000   1.0000   1.0000   1.0000   1.0000   1.0000   1.0000   1.0000
     1.0000   1.0000   1.0000   1.0000   1.0000   1.0000   1.0000   1.0000
     1.0000   1.0000   1.0000   1.0000   1.0000   1.0000   1.0000   1.0000
     1.0000   1.0000   1.0000   1.0000   1.0000   1.0000   1.0000   1.0000
     1.0000   1.0000   1.0000   1.0000   1.0000   1.0000   1.0000   1.0000
     1.0000   1.0000   1.0000   1.0000   1.0000   1.0000   1.0000   1.0000
     1.0000   1.0000   1.0000   1.0000   1.0000   1.0000   1.0000   1.0000
     1.0000   1.0000   1.0000   1.0000   1.0000   1.0000   1.0000   1.0000
     1.0000   1.0000   1.0000   1.0000   1.0000   1.0000   1.0000   1.0000
     1.0000   1.0000   1.0000   1.0000   1.0000   1.0000   1.0000   1.0000
     1.0000   1.0000   1.0000   1.0000   1.0000   1.0000   1.0000   1.0000
     1.0000   1.0000   1.0000   1.0000   1.0000   1.0000   1.0000   1.0000
     1.0000   1.0000   1.0000   1.0000   1.0000   1.0000   1.0000   1.0000
     1.0000   1.0000   1.0000   1.0000   1.0000   1.0000   1.0000   1.0000
     1.0000   1.0000   1.0000   1.0000   1.0000   1.0000   1.0000   1.0000
     1.0000   1.0000   1.0000   1.0000   1.0000   1.0000   1.0000   1.0000
     1.0000   1.0000   1.0000   1.0000   1.0000   1.0000   1.0000   1.0000
     1.0000   1.0000   1.0000   1.0000   1.0000   1.0000   1.0000   1.0000
     1.0000   1.0000   1.0000   1.0000   1.0000   1.0000   1.0000   1.0000
     1.0000   1.0000   1.0000   1.0000   1.0000   1.0000   1.0000   1.0000
     1.0000   1.0000   1.0000   1.0000   1.0000   1.0000   1.0000   1.0000
     1.0000   1.0000   1.0000   1.0000   1.0000   1.0000   1.0000   1.0000
     1.0000   1.0000   1.0000   1.0000   1.0000   1.0000   1.0000   1.0000
     1.0000   1.0000   1.0000   1.0000   1.0000   1.0000   1.0000   1.0000
     1.0000   1.0000   1.0000   1.0000   1.0000   1.0000   1.0000   1.0000
     1.0000   1.0000   1.0000   1.0000   1.0000   1.0000   1.0000   1.0000
     1.0000   1.0000   1.0000   1.0000   1.0000   1.0000   1.0000   1.0000
     1.0000   1.0000   1.0000   1.0000   1.0000   1.0000   1.0000   1.0000
     1.0000   1.0000   1.0000   1.0000   1.0000   1.0000   1.0000   1.0000
     1.0000   1.0000   1.0000   1.0000   1.0000   1.0000   1.0000   1.0000
     1.0000   1.0000   1.0000   1.0000   1.0000   1.0000   1.0000   1.0000
     1.0000   1.0000   1.0000   1.0000   1.0000   1.0000   1.0000   1.0000
     1.0000   1.0000   1.0000   1.0000   1.0000   1.0000   1.0000   1.0000
     1.0000   1.0000   1.0000   1.0000   1.0000   1.0000   1.0000   1.0000
     1.0000   1.0000   1.0000   1.0000   1.0000   1.0000   1.0000   1.0000
     1.0000   1.0000   1.0000   1.0000   1.0000   1.0000   1.0000   1.0000
     1.0000   1.0000   1.0000   1.0000   1.0000   1.0000   1.0000   1.0000
     1.0000   1.0000   1.0000   1.0000   1.0000   1.0000   1.0000   1.0000
     1.0000   1.0000   1.0000   1.0000   1.0000   1.0000   1.0000   1.0000
     1.0000   1.0000   1.0000   1.0000   0.9522   0.9432   0.0000   0.0000
     0.0000   0.0000   0.0000   0.0000   0.0000   0.0000   0.0000   0.0000
     0.0000   0.0000   0.0000   0.0000   0.0000   0.0000   0.0000   0.0000
     0.0000   0.0000   0.0000   0.0000   0.0000   0.0000   0.0000   0.0000
     0.0000

          k = 0.2500 0.4330-0.3067 ( 51274 PWs)   bands (ev):

    -6.2415  -6.2194  -6.0610  -6.0567  -6.0525  -6.0002  -5.8641  -5.8612
    -5.7686  -5.7683  -5.7532  -5.7505  -5.7460  -5.7391  -5.7390  -5.7145
    -5.6730  -5.6693  -5.6657  -5.6613  -5.6552  -5.6537  -5.6468  -5.6324
    -5.6301  -5.6214  -5.6191  -5.6167  -5.6144  -5.6057  -5.6041  -5.5941
    -5.5896  -5.5876  -5.5778  -5.5714  -5.5672  -5.5648  -5.5619  -5.5572
    -5.5551  -5.5536  -5.5527  -5.5494  -5.5484  -5.5475  -5.5437  -5.5386
    -5.5339  -5.5053  -5.5033  -5.4860  -5.4845  -4.1907  -4.1882  -4.1868
    -4.1779  -4.1754  -4.1726  -4.1716  -4.1706  -4.1693  -4.1680  -4.1659
    -4.1645  -4.1635  -4.1626  -4.1598  -4.1589  -4.1580  -4.1565  -4.1557
    -4.1554  -4.1548  -4.1532  -4.1530  -4.1519  -4.1508  -4.1499  -4.1467
    -4.1458  -4.1446  -4.1430  -4.1401  -4.1395  -4.1384  -4.1367  -4.1353
    -4.1336  -4.1316  -4.1313  -4.1306  -4.1285  -4.1281  -4.1265  -4.1250
    -4.1243  -4.1231  -4.1221  -4.1211  -4.1194  -4.1178  -4.1164  -4.1149
    -4.1140  -4.1135  -4.1128  -4.1116  -4.1107  -4.1093  -4.1083  -4.1053
    -4.1038  -4.1012  -4.1002  -4.0975  -4.0969  -4.0914  -4.0908  -4.0876
    -4.0874  -4.0846  -4.0830  -4.0805  -4.0797  -4.0747  -4.0729  -4.0706
    -4.0683  -4.0668  -4.0658  -4.0621  -4.0610  -4.0586  -4.0572  -4.0547
    -4.0530  -4.0515  -4.0502  -4.0486  -4.0465  -4.0446  -4.0432  -4.0423
    -4.0369  -4.0355  -4.0346  -4.0313  -4.0305  -4.0262  -4.0245  -4.0240
    -4.0221  -4.0185  -4.0181  -4.0155  -4.0146  -4.0103  -4.0100  -4.0083
    -4.0074  -4.0054  -4.0030  -4.0020  -4.0008  -3.9998  -3.9981  -3.9973
    -3.9964  -3.9961  -3.9934  -3.9920  -3.9906  -3.9904  -3.9894  -3.9877
    -3.9862  -3.9857  -3.9855  -3.9834  -3.9824  -3.9814  -3.9811  -3.9799
    -3.9787  -3.9781  -3.9748  -3.9736  -3.9727  -3.9710  -3.9702  -3.9700
    -3.9680  -3.9675  -3.9658  -3.9632  -3.9613  -3.9589  -3.9585  -3.9549
    -3.9525  -3.9517  -3.9502  -3.9487  -3.9462  -3.9455  -3.9448  -3.9427
    -3.9406  -3.9382  -3.9356  -3.9341  -3.9327  -3.9301  -3.9291  -3.9275
    -3.9252  -3.9238  -3.9234  -3.9228  -3.9213  -3.9202  -3.9193  -3.9181
    -3.9178  -3.9166  -3.9157  -3.9142  -3.9122  -3.9117  -3.9115  -3.9101
    -3.9094  -3.9087  -3.9074  -3.9057  -3.9048  -3.9044  -3.9037  -3.9027
    -3.9004  -3.8996  -3.8983  -3.8974  -3.8931  -3.8927  -3.8913  -3.8909
    -3.8884  -3.8874  -3.8835  -3.8817  -3.8805  -3.8771  -3.8734  -3.8704
    -3.8667  -3.8611  -3.8553  -3.8351  -3.8328  -3.8230  -3.8147  -3.7957
    -3.7881  -3.7682  -3.7567  -3.7541  -3.7120  -3.6980  -3.6926  -3.6815
    -3.6720  -3.6677  -3.6431  -3.6179  -3.5786  -3.5682  -3.4569  -3.4498
    -3.4313  -3.4109  -3.2930  -3.2883  -3.2621  -3.2213  -2.8723  -2.8549
    -2.8535  -2.8482  -2.8262  -2.8022  -2.7653  -2.7590  -2.7490  -2.7417
    -2.7162  -2.6812  -2.5660  -2.5594  -2.5575  -2.5548  -2.5300  -2.5243
    -2.5186  -2.5107  -2.5048  -2.4951  -2.4755  -2.4033  -2.3536  -2.2961
    -2.1851  -2.1801  -2.1764  -2.1638  -2.1611  -2.1594  -2.1468  -2.1402
    -2.1204  -2.0500  -2.0388  -0.0439   2.8937   2.8968   2.9098   2.9186
     2.9309   2.9335   2.9534   2.9842   3.0048   3.0195   3.0636   3.0872
     3.1087   3.1140   3.3345   3.3367   3.3558   3.3918   3.4257   3.4332
     3.4564   3.4774   3.4873   3.4988   3.5371   3.5688   3.8172   3.8341
     3.8397   3.8433   3.8671   3.8717   3.8865   3.9115   3.9383   3.9777
     4.1125   4.1814   4.6389   4.6441   4.6902   4.7264   5.0047   5.0144
     5.0427   5.1156   5.3015   5.3318   5.3560   5.3664   5.3880   5.4262
     5.4575   5.4742   5.4848   5.5041   5.5619   5.5786   5.5822   5.6518
     5.8197   5.8652   5.9924   6.0004   6.0691   6.0701   6.1013   6.1245
     6.1692   6.1785   6.1912   6.1948   6.2116   6.2184   6.2468   6.3125
     6.4478   6.4534   6.4579   6.4597   6.4686   6.4953   6.5426   6.6033
     6.6993   6.7049   6.7265   6.7749   6.9232   6.9304   6.9381   6.9695
     7.0351   7.0898   7.1219   7.1419   7.1577   7.1886   7.3416   7.3765
     7.3810   7.3835   7.3865   7.4046   7.4156   7.4222   7.4493   7.4520
     7.4539   7.4902   7.4982   7.4996   7.5018   7.5057   7.5247   7.5417
     7.5452   7.5758   7.5864   7.5948   7.6153   7.6336   7.6403   7.6463
     7.6504   7.6589   7.6634   7.6925   7.6971   7.7229   7.7929   7.8563
     7.8881   7.8940   7.9021   7.9219   7.9432   7.9546   7.9778   7.9906
     8.0149   8.0179   8.0551   8.0573   8.0691   8.2014   8.3011   8.3126
     8.4105   8.4965   8.5976   8.6103   8.6247   8.6665   8.6690   8.7734
     8.7798   8.7983   8.9315   9.0362   9.2336   9.2674  12.6044  12.6828
    13.2749  13.2908  13.3106  13.4181  13.8802  13.8852  13.8899  13.9142
    14.0629  14.0665  14.0719  14.0807  14.1281  14.1888  14.4398  14.4771
    14.4879  14.4921  14.5151  14.5174  14.5314  14.5321  14.5372  14.5558
    14.5749

     occupation numbers 
     1.0000   1.0000   1.0000   1.0000   1.0000   1.0000   1.0000   1.0000
     1.0000   1.0000   1.0000   1.0000   1.0000   1.0000   1.0000   1.0000
     1.0000   1.0000   1.0000   1.0000   1.0000   1.0000   1.0000   1.0000
     1.0000   1.0000   1.0000   1.0000   1.0000   1.0000   1.0000   1.0000
     1.0000   1.0000   1.0000   1.0000   1.0000   1.0000   1.0000   1.0000
     1.0000   1.0000   1.0000   1.0000   1.0000   1.0000   1.0000   1.0000
     1.0000   1.0000   1.0000   1.0000   1.0000   1.0000   1.0000   1.0000
     1.0000   1.0000   1.0000   1.0000   1.0000   1.0000   1.0000   1.0000
     1.0000   1.0000   1.0000   1.0000   1.0000   1.0000   1.0000   1.0000
     1.0000   1.0000   1.0000   1.0000   1.0000   1.0000   1.0000   1.0000
     1.0000   1.0000   1.0000   1.0000   1.0000   1.0000   1.0000   1.0000
     1.0000   1.0000   1.0000   1.0000   1.0000   1.0000   1.0000   1.0000
     1.0000   1.0000   1.0000   1.0000   1.0000   1.0000   1.0000   1.0000
     1.0000   1.0000   1.0000   1.0000   1.0000   1.0000   1.0000   1.0000
     1.0000   1.0000   1.0000   1.0000   1.0000   1.0000   1.0000   1.0000
     1.0000   1.0000   1.0000   1.0000   1.0000   1.0000   1.0000   1.0000
     1.0000   1.0000   1.0000   1.0000   1.0000   1.0000   1.0000   1.0000
     1.0000   1.0000   1.0000   1.0000   1.0000   1.0000   1.0000   1.0000
     1.0000   1.0000   1.0000   1.0000   1.0000   1.0000   1.0000   1.0000
     1.0000   1.0000   1.0000   1.0000   1.0000   1.0000   1.0000   1.0000
     1.0000   1.0000   1.0000   1.0000   1.0000   1.0000   1.0000   1.0000
     1.0000   1.0000   1.0000   1.0000   1.0000   1.0000   1.0000   1.0000
     1.0000   1.0000   1.0000   1.0000   1.0000   1.0000   1.0000   1.0000
     1.0000   1.0000   1.0000   1.0000   1.0000   1.0000   1.0000   1.0000
     1.0000   1.0000   1.0000   1.0000   1.0000   1.0000   1.0000   1.0000
     1.0000   1.0000   1.0000   1.0000   1.0000   1.0000   1.0000   1.0000
     1.0000   1.0000   1.0000   1.0000   1.0000   1.0000   1.0000   1.0000
     1.0000   1.0000   1.0000   1.0000   1.0000   1.0000   1.0000   1.0000
     1.0000   1.0000   1.0000   1.0000   1.0000   1.0000   1.0000   1.0000
     1.0000   1.0000   1.0000   1.0000   1.0000   1.0000   1.0000   1.0000
     1.0000   1.0000   1.0000   1.0000   1.0000   1.0000   1.0000   1.0000
     1.0000   1.0000   1.0000   1.0000   1.0000   1.0000   1.0000   1.0000
     1.0000   1.0000   1.0000   1.0000   1.0000   1.0000   1.0000   1.0000
     1.0000   1.0000   1.0000   1.0000   1.0000   1.0000   1.0000   1.0000
     1.0000   1.0000   1.0000   1.0000   1.0000   1.0000   1.0000   1.0000
     1.0000   1.0000   1.0000   1.0000   1.0000   1.0000   1.0000   1.0000
     1.0000   1.0000   1.0000   1.0000   1.0000   1.0000   1.0000   1.0000
     1.0000   1.0000   1.0000   1.0000   1.0000   1.0000   1.0000   1.0000
     1.0000   1.0000   1.0000   1.0000   1.0000   1.0000   1.0000   1.0000
     1.0000   1.0000   1.0000   1.0000   1.0000   1.0000   1.0000   1.0000
     1.0000   1.0000   1.0000   1.0000   1.0000   1.0000   1.0000   1.0000
     1.0000   1.0000   1.0000   1.0000   1.0000   1.0000   1.0000   1.0000
     1.0000   1.0000   1.0000   1.0000   1.0000   1.0000   1.0000   1.0000
     1.0000   1.0000   1.0000   1.0000   1.0000   1.0000   1.0000   1.0000
     1.0000   1.0000   1.0000   1.0000   1.0000   1.0000   1.0000   1.0000
     1.0000   1.0000   1.0000   1.0000   1.0000   1.0000   1.0000   1.0000
     1.0000   1.0000   1.0000   1.0000   1.0000   1.0000   1.0000   1.0000
     1.0000   1.0000   1.0000   1.0000   1.0000   1.0000   1.0000   1.0000
     1.0000   1.0000   1.0000   1.0000   1.0000   1.0000   1.0000   1.0000
     1.0000   1.0000   1.0000   1.0000   1.0000   1.0000   1.0000   1.0000
     1.0000   1.0000   1.0000   1.0000   1.0000   1.0000   1.0000   1.0000
     1.0000   1.0000   1.0000   1.0000   1.0000   1.0000   1.0000   1.0000
     1.0000   1.0000   1.0000   1.0000   1.0000   1.0000   1.0000   1.0000
     1.0000   1.0000   1.0000   1.0000   1.0000   1.0000   1.0000   1.0000
     1.0000   1.0000   1.0000   1.0000   1.0000   1.0000   1.0000   1.0000
     1.0000   1.0000   1.0000   1.0000   1.0000   1.0000   1.0000   1.0000
     1.0000   1.0000   1.0000   1.0000   1.0000   1.0000   1.0000   1.0000
     1.0000   1.0000   1.0000   1.0000   1.0000   1.0000   1.0000   1.0000
     1.0000   1.0000   1.0000   1.0000   1.0000   1.0000   1.0000   1.0000
     1.0000   1.0000   1.0000   1.0000   1.0000   1.0000   1.0000   1.0000
     1.0000   1.0000   1.0000   1.0000   0.9866   0.9620   0.0000   0.0000
     0.0000   0.0000   0.0000   0.0000   0.0000   0.0000   0.0000   0.0000
     0.0000   0.0000   0.0000   0.0000   0.0000   0.0000   0.0000   0.0000
     0.0000   0.0000   0.0000   0.0000   0.0000   0.0000   0.0000   0.0000
     0.0000

     the Fermi energy is     9.4040 ev

!    total energy              =  -16525.38126600 Ry
     total all-electron energy =   -215840.873366 Ry
     estimated scf accuracy    <          9.8E-09 Ry
     smearing contrib. (-TS)   =      -0.00411761 Ry
     internal energy E=F+TS    =  -16525.37714839 Ry

     The total energy is F=E-TS. E is the sum of the following terms:
     one-electron contribution =   -4987.30358610 Ry
     hartree contribution      =    3540.14089289 Ry
     xc contribution           =   -2384.22042101 Ry
     ewald contribution        =   -6224.65797915 Ry
     one-center paw contrib.   =   -6469.33605502 Ry
      -> PAW hartree energy AE =     782.74329953 Ry
      -> PAW hartree energy PS =    -777.11234194 Ry
      -> PAW xc energy AE      =    -805.93239437 Ry
      -> PAW xc energy PS      =     210.95369549 Ry
      -> total E_H with PAW    =    3545.77185047 Ry
      -> total E_XC with PAW   =   -2979.19911989 Ry

     total magnetization       =     0.00 Bohr mag/cell
     absolute magnetization    =     0.00 Bohr mag/cell

     convergence has been achieved in  26 iterations

     Forces acting on atoms (cartesian axes, Ry/au):

     atom    1 type  1   force =     0.00000000   -0.00000000    0.01630666
     atom    2 type  1   force =    -0.00780619    0.00450690    0.00280701
     atom    3 type  3   force =     0.00000000    0.00000000   -0.00971339
     atom    4 type  2   force =     0.00896285   -0.00517470    0.01078606
     atom    5 type  1   force =    -0.00476555   -0.00103399    0.00002053
     atom    6 type  1   force =    -0.00000000    0.00093036    0.00054102
     atom    7 type  2   force =     0.01184607    0.00061998   -0.00050206
     atom    8 type  2   force =     0.00000000   -0.00084234   -0.00086136
     atom    9 type  1   force =     0.00476555   -0.00103399    0.00002053
     atom   10 type  1   force =     0.00780619    0.00450690    0.00280701
     atom   11 type  2   force =    -0.01184607    0.00061998   -0.00050206
     atom   12 type  2   force =    -0.00896285   -0.00517470    0.01078606
     atom   13 type  1   force =     0.00327824   -0.00361009    0.00002053
     atom   14 type  1   force =    -0.00000000   -0.00901381    0.00280701
     atom   15 type  2   force =    -0.00645995    0.00994901   -0.00050206
     atom   16 type  2   force =     0.00000000    0.01034940    0.01078606
     atom   17 type  1   force =    -0.00327824   -0.00361009    0.00002053
     atom   18 type  1   force =    -0.00280202   -0.00161775   -0.00001690
     atom   19 type  2   force =     0.00645995    0.00994901   -0.00050206
     atom   20 type  2   force =     0.00098317    0.00056763    0.00029386
     atom   21 type  1   force =     0.00000000   -0.00000000   -0.00162435
     atom   22 type  1   force =     0.00280202   -0.00161775   -0.00001690
     atom   23 type  2   force =     0.00000000    0.00000000    0.00022485
     atom   24 type  2   force =    -0.00098317    0.00056763    0.00029386
     atom   25 type  1   force =    -0.00148731    0.00464408    0.00002053
     atom   26 type  1   force =    -0.00080571   -0.00046518    0.00054102
     atom   27 type  2   force =     0.00538612   -0.01056899   -0.00050206
     atom   28 type  2   force =     0.00072949    0.00042117   -0.00086136
     atom   29 type  1   force =     0.00000000   -0.00000000   -0.00123902
     atom   30 type  1   force =     0.00080571   -0.00046518    0.00054102
     atom   31 type  2   force =     0.00000000    0.00000000    0.00030186
     atom   32 type  2   force =    -0.00072949    0.00042117   -0.00086136
     atom   33 type  1   force =     0.00148731    0.00464408    0.00002053
     atom   34 type  1   force =     0.00000000    0.00323549   -0.00001690
     atom   35 type  2   force =    -0.00538612   -0.01056899   -0.00050206
     atom   36 type  2   force =     0.00000000   -0.00113526    0.00029386
     atom   37 type  1   force =     0.00000000   -0.00000000   -0.00770511
     atom   38 type  1   force =    -0.00006520    0.00003764   -0.00106766
     atom   39 type  2   force =     0.00000000    0.00000000    0.00150648
     atom   40 type  2   force =     0.00010328   -0.00005963    0.00031184
     atom   41 type  1   force =    -0.00323560   -0.00105081   -0.00044526
     atom   42 type  1   force =     0.00000000    0.00024237   -0.00032601
     atom   43 type  2   force =     0.00063398    0.00050296    0.00120372
     atom   44 type  2   force =    -0.00000000   -0.00021111    0.00030949
     atom   45 type  1   force =     0.00323560   -0.00105081   -0.00044526
     atom   46 type  1   force =     0.00006520    0.00003764   -0.00106766
     atom   47 type  2   force =    -0.00063398    0.00050296    0.00120372
     atom   48 type  2   force =    -0.00010328   -0.00005963    0.00031184
     atom   49 type  1   force =     0.00252783   -0.00227670   -0.00044526
     atom   50 type  1   force =    -0.00000000   -0.00007528   -0.00106766
     atom   51 type  2   force =    -0.00075257    0.00029756    0.00120372
     atom   52 type  2   force =     0.00000000    0.00011925    0.00031184
     atom   53 type  1   force =    -0.00252783   -0.00227670   -0.00044526
     atom   54 type  1   force =    -0.00007935   -0.00004581   -0.00035333
     atom   55 type  2   force =     0.00075257    0.00029756    0.00120372
     atom   56 type  2   force =     0.00001038    0.00000599    0.00036843
     atom   57 type  1   force =     0.00000000   -0.00000000   -0.00034443
     atom   58 type  1   force =     0.00007935   -0.00004581   -0.00035333
     atom   59 type  2   force =     0.00000000    0.00000000    0.00030186
     atom   60 type  2   force =    -0.00001038    0.00000599    0.00036843
     atom   61 type  1   force =    -0.00070777    0.00332752   -0.00044526
     atom   62 type  1   force =    -0.00020990   -0.00012119   -0.00032601
     atom   63 type  2   force =    -0.00011859   -0.00080052    0.00120372
     atom   64 type  2   force =     0.00018283    0.00010556    0.00030949
     atom   65 type  1   force =     0.00000000   -0.00000000    0.00033435
     atom   66 type  1   force =     0.00020990   -0.00012119   -0.00032601
     atom   67 type  2   force =     0.00000000    0.00000000    0.00018937
     atom   68 type  2   force =    -0.00018283    0.00010556    0.00030949
     atom   69 type  1   force =     0.00070777    0.00332752   -0.00044526
     atom   70 type  1   force =     0.00000000    0.00009163   -0.00035333
     atom   71 type  2   force =     0.00011859   -0.00080052    0.00120372
     atom   72 type  2   force =     0.00000000   -0.00001198    0.00036843
     atom   73 type  1   force =     0.00000000   -0.00000000    0.00009436
     atom   74 type  1   force =     0.00070912   -0.00040941    0.00308716
     atom   75 type  2   force =     0.00000000    0.00000000   -0.00117665
     atom   76 type  2   force =     0.00863101   -0.00498312   -0.01374212
     atom   77 type  1   force =     0.00004375    0.00018012   -0.00014486
     atom   78 type  1   force =     0.00000000    0.00017788   -0.00080163
     atom   79 type  2   force =     0.00076052    0.00050454   -0.00066646
     atom   80 type  2   force =     0.00000000   -0.00060326    0.00040917
     atom   81 type  1   force =    -0.00004375    0.00018012   -0.00014486
     atom   82 type  1   force =    -0.00070912   -0.00040941    0.00308716
     atom   83 type  2   force =    -0.00076052    0.00050454   -0.00066646
     atom   84 type  2   force =    -0.00863101   -0.00498312   -0.01374212
     atom   85 type  1   force =    -0.00017786   -0.00005217   -0.00014486
     atom   86 type  1   force =     0.00000000    0.00081882    0.00308716
     atom   87 type  2   force =    -0.00081720    0.00040636   -0.00066646
     atom   88 type  2   force =     0.00000000    0.00996623   -0.01374212
     atom   89 type  1   force =     0.00017786   -0.00005217   -0.00014486
     atom   90 type  1   force =    -0.00026190   -0.00015121   -0.00054577
     atom   91 type  2   force =     0.00081720    0.00040636   -0.00066646
     atom   92 type  2   force =     0.00093571    0.00054023    0.00064652
     atom   93 type  1   force =     0.00000000   -0.00000000   -0.00029708
     atom   94 type  1   force =     0.00026190   -0.00015121   -0.00054577
     atom   95 type  2   force =     0.00000000    0.00000000    0.00039744
     atom   96 type  2   force =    -0.00093571    0.00054023    0.00064652
     atom   97 type  1   force =    -0.00013411   -0.00012795   -0.00014486
     atom   98 type  1   force =    -0.00015405   -0.00008894   -0.00080163
     atom   99 type  2   force =    -0.00005668   -0.00091089   -0.00066646
     atom  100 type  2   force =     0.00052244    0.00030163    0.00040917
     atom  101 type  1   force =     0.00000000   -0.00000000   -0.00038308
     atom  102 type  1   force =     0.00015405   -0.00008894   -0.00080163
     atom  103 type  2   force =     0.00000000    0.00000000    0.00049484
     atom  104 type  2   force =    -0.00052244    0.00030163    0.00040917
     atom  105 type  1   force =     0.00013411   -0.00012795   -0.00014486
     atom  106 type  1   force =    -0.00000000    0.00030241   -0.00054577
     atom  107 type  2   force =     0.00005668   -0.00091089   -0.00066646
     atom  108 type  2   force =    -0.00000000   -0.00108046    0.00064652
     The non-local contrib.  to forces
     atom    1 type  1   force =     0.00000000   -0.00000000   -0.36466860
     atom    2 type  1   force =     0.25272963   -0.14591352    0.07209442
     atom    3 type  3   force =     0.00000000    0.00000000    0.01454906
     atom    4 type  2   force =     0.02959461   -0.01708646    0.07464975
     atom    5 type  1   force =     0.02168852    0.00683012    0.00564260
     atom    6 type  1   force =    -0.00000000   -0.01880238    0.00823587
     atom    7 type  2   force =     0.05318377    0.00746072    0.00857806
     atom    8 type  2   force =    -0.00000000   -0.00218785    0.01316525
     atom    9 type  1   force =    -0.02168852    0.00683012    0.00564260
     atom   10 type  1   force =    -0.25272963   -0.14591352    0.07209442
     atom   11 type  2   force =    -0.05318377    0.00746072    0.00857806
     atom   12 type  2   force =    -0.02959461   -0.01708646    0.07464975
     atom   13 type  1   force =    -0.01675932    0.01536774    0.00564260
     atom   14 type  1   force =     0.00000000    0.29182704    0.07209442
     atom   15 type  2   force =    -0.03305306    0.04232814    0.00857806
     atom   16 type  2   force =     0.00000000    0.03417292    0.07464975
     atom   17 type  1   force =     0.01675932    0.01536774    0.00564260
     atom   18 type  1   force =     0.00871730    0.00503294   -0.00030431
     atom   19 type  2   force =     0.03305306    0.04232814    0.00857806
     atom   20 type  2   force =     0.00368938    0.00213006    0.01382263
     atom   21 type  1   force =     0.00000000   -0.00000000    0.01278900
     atom   22 type  1   force =    -0.00871730    0.00503294   -0.00030431
     atom   23 type  2   force =     0.00000000   -0.00000000    0.01417091
     atom   24 type  2   force =    -0.00368938    0.00213006    0.01382263
     atom   25 type  1   force =     0.00492920   -0.02219787    0.00564260
     atom   26 type  1   force =     0.01628334    0.00940119    0.00823587
     atom   27 type  2   force =     0.02013071   -0.04978886    0.00857806
     atom   28 type  2   force =     0.00189473    0.00109392    0.01316525
     atom   29 type  1   force =     0.00000000    0.00000000    0.00859469
     atom   30 type  1   force =    -0.01628334    0.00940119    0.00823587
     atom   31 type  2   force =     0.00000000    0.00000000    0.01494821
     atom   32 type  2   force =    -0.00189473    0.00109392    0.01316525
     atom   33 type  1   force =    -0.00492920   -0.02219787    0.00564260
     atom   34 type  1   force =     0.00000000   -0.01006587   -0.00030431
     atom   35 type  2   force =    -0.02013071   -0.04978886    0.00857806
     atom   36 type  2   force =    -0.00000000   -0.00426013    0.01382263
     atom   37 type  1   force =     0.00000000    0.00000000    0.02668842
     atom   38 type  1   force =     0.00104496   -0.00060331    0.00592522
     atom   39 type  2   force =     0.00000000   -0.00000000    0.02118977
     atom   40 type  2   force =     0.00058435   -0.00033737    0.01376920
     atom   41 type  1   force =     0.02242242    0.01027687    0.00427378
     atom   42 type  1   force =     0.00000000   -0.00191088    0.00373605
     atom   43 type  2   force =     0.00281806    0.00202376    0.01898061
     atom   44 type  2   force =     0.00000000   -0.00102461    0.01390007
     atom   45 type  1   force =    -0.02242242    0.01027687    0.00427378
     atom   46 type  1   force =    -0.00104496   -0.00060331    0.00592522
     atom   47 type  2   force =    -0.00281806    0.00202376    0.01898061
     atom   48 type  2   force =    -0.00058435   -0.00033737    0.01376920
     atom   49 type  1   force =    -0.02011124    0.01427995    0.00427378
     atom   50 type  1   force =     0.00000000    0.00120662    0.00592522
     atom   51 type  2   force =    -0.00316166    0.00142863    0.01898061
     atom   52 type  2   force =     0.00000000    0.00067474    0.01376920
     atom   53 type  1   force =     0.02011124    0.01427995    0.00427378
     atom   54 type  1   force =     0.00085823    0.00049550    0.00378098
     atom   55 type  2   force =     0.00316166    0.00142863    0.01898061
     atom   56 type  2   force =     0.00043004    0.00024828    0.01391631
     atom   57 type  1   force =    -0.00000000    0.00000000    0.00524798
     atom   58 type  1   force =    -0.00085823    0.00049550    0.00378098
     atom   59 type  2   force =     0.00000000   -0.00000000    0.01386261
     atom   60 type  2   force =    -0.00043004    0.00024828    0.01391631
     atom   61 type  1   force =     0.00231118   -0.02455682    0.00427378
     atom   62 type  1   force =     0.00165487    0.00095544    0.00373605
     atom   63 type  2   force =    -0.00034360   -0.00345239    0.01898061
     atom   64 type  2   force =     0.00088734    0.00051230    0.01390007
     atom   65 type  1   force =     0.00000000   -0.00000000   -0.00037605
     atom   66 type  1   force =    -0.00165487    0.00095544    0.00373605
     atom   67 type  2   force =     0.00000000    0.00000000    0.01357031
     atom   68 type  2   force =    -0.00088734    0.00051230    0.01390007
     atom   69 type  1   force =    -0.00231118   -0.02455682    0.00427378
     atom   70 type  1   force =     0.00000000   -0.00099100    0.00378098
     atom   71 type  2   force =     0.00034360   -0.00345239    0.01898061
     atom   72 type  2   force =     0.00000000   -0.00049657    0.01391631
     atom   73 type  1   force =    -0.00000000    0.00000000   -0.00043320
     atom   74 type  1   force =    -0.00580855    0.00335357   -0.02880345
     atom   75 type  2   force =     0.00000000   -0.00000000    0.00710754
     atom   76 type  2   force =     0.04510683   -0.02604244   -0.03783305
     atom   77 type  1   force =    -0.00027841   -0.00110676    0.00140117
     atom   78 type  1   force =     0.00000000   -0.00122017    0.00701835
     atom   79 type  2   force =     0.00466100    0.00319734    0.00937987
     atom   80 type  2   force =     0.00000000   -0.00335505    0.01385538
     atom   81 type  1   force =     0.00027841   -0.00110676    0.00140117
     atom   82 type  1   force =     0.00580855    0.00335357   -0.02880345
     atom   83 type  2   force =    -0.00466100    0.00319734    0.00937987
     atom   84 type  2   force =    -0.04510683   -0.02604244   -0.03783305
     atom   85 type  1   force =     0.00109769    0.00031227    0.00140117
     atom   86 type  1   force =     0.00000000   -0.00670713   -0.02880345
     atom   87 type  2   force =    -0.00509948    0.00243788    0.00937987
     atom   88 type  2   force =    -0.00000000    0.05208488   -0.03783305
     atom   89 type  1   force =    -0.00109769    0.00031227    0.00140117
     atom   90 type  1   force =     0.00074513    0.00043020    0.00505315
     atom   91 type  2   force =     0.00509948    0.00243788    0.00937987
     atom   92 type  2   force =     0.00421943    0.00243609    0.01386009
     atom   93 type  1   force =     0.00000000   -0.00000000    0.00343909
     atom   94 type  1   force =    -0.00074513    0.00043020    0.00505315
     atom   95 type  2   force =     0.00000000    0.00000000    0.01398792
     atom   96 type  2   force =    -0.00421943    0.00243609    0.01386009
     atom   97 type  1   force =     0.00081928    0.00079449    0.00140117
     atom   98 type  1   force =     0.00105670    0.00061009    0.00701835
     atom   99 type  2   force =    -0.00043848   -0.00563522    0.00937987
     atom  100 type  2   force =     0.00290556    0.00167753    0.01385538
     atom  101 type  1   force =     0.00000000   -0.00000000    0.00407430
     atom  102 type  1   force =    -0.00105670    0.00061009    0.00701835
     atom  103 type  2   force =     0.00000000    0.00000000    0.01393903
     atom  104 type  2   force =    -0.00290556    0.00167753    0.01385538
     atom  105 type  1   force =    -0.00081928    0.00079449    0.00140117
     atom  106 type  1   force =    -0.00000000   -0.00086040    0.00505315
     atom  107 type  2   force =     0.00043848   -0.00563522    0.00937987
     atom  108 type  2   force =    -0.00000000   -0.00487217    0.01386009
     The ionic contribution  to forces
     atom    1 type  1   force =     0.00000000   -0.00000020    2.04963769
     atom    2 type  1   force =    -1.46298672    0.84465575   -0.47540403
     atom    3 type  3   force =     0.00000000   -0.00000008   -0.12598438
     atom    4 type  2   force =    -0.11263123    0.06502765   -0.39371126
     atom    5 type  1   force =    -0.29585915   -0.00000020    0.47906860
     atom    6 type  1   force =     0.00000000    0.04452445    0.07450488
     atom    7 type  2   force =    -0.20803577   -0.00000010   -0.15748047
     atom    8 type  2   force =     0.00000000    0.00940947   -0.24594237
     atom    9 type  1   force =     0.29585915   -0.00000020    0.47906860
     atom   10 type  1   force =     1.46298672    0.84465575   -0.47540403
     atom   11 type  2   force =     0.20803577   -0.00000010   -0.15748047
     atom   12 type  2   force =     0.11263123    0.06502765   -0.39371126
     atom   13 type  1   force =     0.14792958   -0.25622174    0.47906859
     atom   14 type  1   force =    -0.00000000   -1.68931161   -0.47540400
     atom   15 type  2   force =     0.10401789   -0.18016436   -0.15748046
     atom   16 type  2   force =     0.00000000   -0.13005533   -0.39371131
     atom   17 type  1   force =    -0.14792958   -0.25622174    0.47906859
     atom   18 type  1   force =    -0.28796156   -0.16625473    0.04478687
     atom   19 type  2   force =    -0.10401789   -0.18016436   -0.15748046
     atom   20 type  2   force =    -0.05057982   -0.02920226   -0.26306085
     atom   21 type  1   force =     0.00000000   -0.00000020    0.34204980
     atom   22 type  1   force =     0.28796156   -0.16625473    0.04478687
     atom   23 type  2   force =     0.00000000   -0.00000010   -0.15748046
     atom   24 type  2   force =     0.05057982   -0.02920226   -0.26306085
     atom   25 type  1   force =    -0.14792958    0.25622183    0.47906859
     atom   26 type  1   force =    -0.03855933   -0.02226207    0.07450497
     atom   27 type  2   force =    -0.10401788    0.18016437   -0.15748047
     atom   28 type  2   force =    -0.00814886   -0.00470464   -0.24594246
     atom   29 type  1   force =    -0.00000000    0.00000029    0.34204980
     atom   30 type  1   force =     0.03855933   -0.02226207    0.07450497
     atom   31 type  2   force =     0.00000000    0.00000011   -0.15748047
     atom   32 type  2   force =     0.00814886   -0.00470464   -0.24594246
     atom   33 type  1   force =     0.14792958    0.25622183    0.47906859
     atom   34 type  1   force =     0.00000000    0.33250954    0.04478691
     atom   35 type  2   force =     0.10401788    0.18016437   -0.15748047
     atom   36 type  2   force =     0.00000000    0.05840465   -0.26306089
     atom   37 type  1   force =     0.00000000   -0.00000020   -0.55068265
     atom   38 type  1   force =    -0.02085400    0.01204004   -0.00625619
     atom   39 type  2   force =     0.00000000   -0.00000010   -0.25688313
     atom   40 type  2   force =    -0.00336171    0.00194086   -0.15748042
     atom   41 type  1   force =    -0.13235983   -0.00000020   -0.15099521
     atom   42 type  1   force =     0.00000000    0.00372700    0.02942063
     atom   43 type  2   force =    -0.01265757   -0.00000010   -0.22935684
     atom   44 type  2   force =     0.00000000    0.00067097   -0.15748042
     atom   45 type  1   force =     0.13235983   -0.00000020   -0.15099521
     atom   46 type  1   force =     0.02085400    0.01204004   -0.00625619
     atom   47 type  2   force =     0.01265757   -0.00000010   -0.22935684
     atom   48 type  2   force =     0.00336171    0.00194086   -0.15748042
     atom   49 type  1   force =     0.06617992   -0.11462717   -0.15099522
     atom   50 type  1   force =    -0.00000000   -0.02408017   -0.00625614
     atom   51 type  2   force =     0.00632878   -0.01096187   -0.22935683
     atom   52 type  2   force =    -0.00000000   -0.00388175   -0.15748047
     atom   53 type  1   force =    -0.06617992   -0.11462717   -0.15099522
     atom   54 type  1   force =    -0.01556431   -0.00898610    0.02316790
     atom   55 type  2   force =    -0.00632878   -0.01096187   -0.22935683
     atom   56 type  2   force =    -0.00265993   -0.00153570   -0.15748047
     atom   57 type  1   force =     0.00000000   -0.00000020   -0.06090352
     atom   58 type  1   force =     0.01556431   -0.00898610    0.02316790
     atom   59 type  2   force =     0.00000000   -0.00000010   -0.21877207
     atom   60 type  2   force =     0.00265993   -0.00153570   -0.15748047
     atom   61 type  1   force =    -0.06617991    0.11462726   -0.15099521
     atom   62 type  1   force =    -0.00322771   -0.00186334    0.02942072
     atom   63 type  2   force =    -0.00632878    0.01096188   -0.22935684
     atom   64 type  2   force =    -0.00058109   -0.00033539   -0.15748051
     atom   65 type  1   force =     0.00000000    0.00000029   -0.06090351
     atom   66 type  1   force =     0.00322771   -0.00186334    0.02942072
     atom   67 type  2   force =     0.00000000    0.00000011   -0.21877208
     atom   68 type  2   force =     0.00058109   -0.00033539   -0.15748051
     atom   69 type  1   force =     0.06617991    0.11462726   -0.15099521
     atom   70 type  1   force =     0.00000000    0.01797229    0.02316794
     atom   71 type  2   force =     0.00632878    0.01096188   -0.22935684
     atom   72 type  2   force =     0.00000000    0.00307153   -0.15748051
     atom   73 type  1   force =     0.00000000   -0.00000020    0.21371832
     atom   74 type  1   force =    -0.05573622    0.03217929    0.45234148
     atom   75 type  2   force =    -0.00000000   -0.00000010   -0.05807781
     atom   76 type  2   force =    -0.11263123    0.06502765    0.07875042
     atom   77 type  1   force =    -0.01024306   -0.00000020    0.20401723
     atom   78 type  1   force =     0.00000000    0.00833312    0.35506323
     atom   79 type  2   force =    -0.01265757   -0.00000010   -0.08560410
     atom   80 type  2   force =     0.00000000    0.00940947   -0.06901847
     atom   81 type  1   force =     0.01024306   -0.00000020    0.20401723
     atom   82 type  1   force =     0.05573622    0.03217929    0.45234148
     atom   83 type  2   force =     0.01265757   -0.00000010   -0.08560410
     atom   84 type  2   force =     0.11263123    0.06502765    0.07875042
     atom   85 type  1   force =     0.00512153   -0.00887094    0.20401722
     atom   86 type  1   force =    -0.00000000   -0.06435869    0.45234153
     atom   87 type  2   force =     0.00632878   -0.01096187   -0.08560409
     atom   88 type  2   force =     0.00000000   -0.13005533    0.07875037
     atom   89 type  1   force =    -0.00512153   -0.00887094    0.20401722
     atom   90 type  1   force =    -0.03744694   -0.02162004    0.37090012
     atom   91 type  2   force =    -0.00632878   -0.01096187   -0.08560409
     atom   92 type  2   force =    -0.05057982   -0.02920226   -0.05190008
     atom   93 type  1   force =     0.00000000   -0.00000020    0.19968204
     atom   94 type  1   force =     0.03744694   -0.02162004    0.37090012
     atom   95 type  2   force =    -0.00000000   -0.00000010   -0.09618885
     atom   96 type  2   force =     0.05057982   -0.02920226   -0.05190008
     atom   97 type  1   force =    -0.00512153    0.00887104    0.20401722
     atom   98 type  1   force =    -0.00721672   -0.00416640    0.35506331
     atom   99 type  2   force =    -0.00632878    0.01096188   -0.08560410
     atom  100 type  2   force =    -0.00814886   -0.00470464   -0.06901856
     atom  101 type  1   force =     0.00000000    0.00000029    0.19968204
     atom  102 type  1   force =     0.00721672   -0.00416640    0.35506331
     atom  103 type  2   force =    -0.00000000    0.00000011   -0.09618886
     atom  104 type  2   force =     0.00814886   -0.00470464   -0.06901856
     atom  105 type  1   force =     0.00512153    0.00887104    0.20401722
     atom  106 type  1   force =     0.00000000    0.04324017    0.37090016
     atom  107 type  2   force =     0.00632878    0.01096188   -0.08560410
     atom  108 type  2   force =     0.00000000    0.05840465   -0.05190012
     The local contribution  to forces
     atom    1 type  1   force =     0.00000000    0.00000000   -1.67696341
     atom    2 type  1   force =     1.20827332   -0.69759463    0.40823461
     atom    3 type  3   force =    -0.00000000    0.00000000    0.10203429
     atom    4 type  2   force =     0.09252609   -0.05341978    0.33119551
     atom    5 type  1   force =     0.26947159   -0.00772782   -0.48487221
     atom    6 type  1   force =     0.00000000   -0.02510576   -0.08220697
     atom    7 type  2   force =     0.16767547   -0.00669084    0.14852199
     atom    8 type  2   force =    -0.00000000   -0.00809634    0.23211272
     atom    9 type  1   force =    -0.26947159   -0.00772782   -0.48487221
     atom   10 type  1   force =    -1.20827332   -0.69759463    0.40823461
     atom   11 type  2   force =    -0.16767547   -0.00669084    0.14852199
     atom   12 type  2   force =    -0.09252609   -0.05341978    0.33119551
     atom   13 type  1   force =    -0.12804331    0.23723315   -0.48487221
     atom   14 type  1   force =    -0.00000000    1.39519617    0.40823462
     atom   15 type  2   force =    -0.07804329    0.14855664    0.14852199
     atom   16 type  2   force =    -0.00000000    0.10684011    0.33119551
     atom   17 type  1   force =     0.12804331    0.23723315   -0.48487221
     atom   18 type  1   force =     0.27639178    0.15957717   -0.04464746
     atom   19 type  2   force =     0.07804329    0.14855664    0.14852199
     atom   20 type  2   force =     0.04793383    0.02767479    0.24973410
     atom   21 type  1   force =    -0.00000000    0.00000000   -0.35662855
     atom   22 type  1   force =    -0.27639178    0.15957717   -0.04464746
     atom   23 type  2   force =    -0.00000000    0.00000000    0.14375686
     atom   24 type  2   force =    -0.04793383    0.02767479    0.24973410
     atom   25 type  1   force =     0.14142828   -0.22950188   -0.48487221
     atom   26 type  1   force =     0.02174422    0.01255633   -0.08220697
     atom   27 type  2   force =     0.08963217   -0.14186551    0.14852199
     atom   28 type  2   force =     0.00701179    0.00404844    0.23211272
     atom   29 type  1   force =     0.00000000    0.00000345   -0.35207763
     atom   30 type  1   force =    -0.02174422    0.01255633   -0.08220697
     atom   31 type  2   force =    -0.00000000    0.00000028    0.14307384
     atom   32 type  2   force =    -0.00701179    0.00404844    0.23211272
     atom   33 type  1   force =    -0.14142828   -0.22950188   -0.48487221
     atom   34 type  1   force =    -0.00000000   -0.31914743   -0.04464746
     atom   35 type  2   force =    -0.08963217   -0.14186551    0.14852199
     atom   36 type  2   force =    -0.00000000   -0.05534903    0.24973410
     atom   37 type  1   force =     0.00000000    0.00000000    0.51575817
     atom   38 type  1   force =     0.01976192   -0.01140725   -0.00102514
     atom   39 type  2   force =    -0.00000000    0.00000000    0.23752458
     atom   40 type  2   force =     0.00289245   -0.00166977    0.14424400
     atom   41 type  1   force =     0.10689223   -0.01119830    0.14604445
     atom   42 type  1   force =    -0.00000000   -0.00158770   -0.03372681
     atom   43 type  2   force =     0.01052318   -0.00148220    0.21187027
     atom   44 type  2   force =    -0.00000000    0.00012525    0.14411507
     atom   45 type  1   force =    -0.10689223   -0.01119830    0.14604445
     atom   46 type  1   force =    -0.01976192   -0.01140725   -0.00102514
     atom   47 type  2   force =    -0.01052318   -0.00148220    0.21187027
     atom   48 type  2   force =    -0.00289245   -0.00166977    0.14424400
     atom   49 type  1   force =    -0.04374810    0.09817054    0.14604445
     atom   50 type  1   force =    -0.00000000    0.02282140   -0.00102514
     atom   51 type  2   force =    -0.00397796    0.00985444    0.21187027
     atom   52 type  2   force =    -0.00000000    0.00334010    0.14424400
     atom   53 type  1   force =     0.04374810    0.09817054    0.14604445
     atom   54 type  1   force =     0.01464479    0.00845748   -0.02754881
     atom   55 type  2   force =     0.00397796    0.00985444    0.21187027
     atom   56 type  2   force =     0.00225127    0.00129995    0.14415817
     atom   57 type  1   force =     0.00000000    0.00000000    0.05509391
     atom   58 type  1   force =    -0.01464479    0.00845748   -0.02754881
     atom   59 type  2   force =    -0.00000000    0.00000000    0.20540803
     atom   60 type  2   force =    -0.00225127    0.00129995    0.14415817
     atom   61 type  1   force =     0.06314413   -0.08696878    0.14604445
     atom   62 type  1   force =     0.00137698    0.00079730   -0.03372681
     atom   63 type  2   force =     0.00654522   -0.00837196    0.21187027
     atom   64 type  2   force =    -0.00010831   -0.00006235    0.14411507
     atom   65 type  1   force =     0.00000000    0.00000345    0.06137294
     atom   66 type  1   force =    -0.00137698    0.00079730   -0.03372681
     atom   67 type  2   force =    -0.00000000    0.00000028    0.20558416
     atom   68 type  2   force =     0.00010831   -0.00006235    0.14411507
     atom   69 type  1   force =    -0.06314413   -0.08696878    0.14604445
     atom   70 type  1   force =    -0.00000000   -0.01690805   -0.02754881
     atom   71 type  2   force =    -0.00654522   -0.00837196    0.21187027
     atom   72 type  2   force =    -0.00000000   -0.00259936    0.14415817
     atom   73 type  1   force =     0.00000000    0.00000000   -0.21343743
     atom   74 type  1   force =     0.06218791   -0.03590191   -0.42104119
     atom   75 type  2   force =    -0.00000000    0.00000000    0.04990475
     atom   76 type  2   force =     0.07699689   -0.04445399   -0.05538291
     atom   77 type  1   force =     0.01056983    0.00128573   -0.20578815
     atom   78 type  1   force =    -0.00000000   -0.00694639   -0.36303214
     atom   79 type  2   force =     0.00884856   -0.00262906    0.07570902
     atom   80 type  2   force =    -0.00000000   -0.00671351    0.05578455
     atom   81 type  1   force =    -0.01056983    0.00128573   -0.20578815
     atom   82 type  1   force =    -0.06218791   -0.03590191   -0.42104119
     atom   83 type  2   force =    -0.00884856   -0.00262906    0.07570902
     atom   84 type  2   force =    -0.07699689   -0.04445399   -0.05538291
     atom   85 type  1   force =    -0.00639839    0.00851088   -0.20578815
     atom   86 type  1   force =    -0.00000000    0.07181072   -0.42104119
     atom   87 type  2   force =    -0.00214745    0.00897761    0.07570902
     atom   88 type  2   force =    -0.00000000    0.08890854   -0.05538291
     atom   89 type  1   force =     0.00639839    0.00851088   -0.20578815
     atom   90 type  1   force =     0.03645308    0.02104850   -0.37665674
     atom   91 type  2   force =     0.00214745    0.00897761    0.07570902
     atom   92 type  2   force =     0.04737776    0.02735374    0.03889844
     atom   93 type  1   force =     0.00000000    0.00000000   -0.20360524
     atom   94 type  1   force =    -0.03645308    0.02104850   -0.37665674
     atom   95 type  2   force =    -0.00000000    0.00000000    0.08283766
     atom   96 type  2   force =    -0.04737776    0.02735374    0.03889844
     atom   97 type  1   force =     0.00417144   -0.00979315   -0.20578815
     atom   98 type  1   force =     0.00601774    0.00347665   -0.36303214
     atom   99 type  2   force =     0.00670111   -0.00634827    0.07570902
     atom  100 type  2   force =     0.00581423    0.00335703    0.05578455
     atom  101 type  1   force =     0.00000000    0.00000345   -0.20432264
     atom  102 type  1   force =    -0.00601774    0.00347665   -0.36303214
     atom  103 type  2   force =    -0.00000000    0.00000028    0.08297731
     atom  104 type  2   force =    -0.00581423    0.00335703    0.05578455
     atom  105 type  1   force =    -0.00417144   -0.00979315   -0.20578815
     atom  106 type  1   force =    -0.00000000   -0.04209009   -0.37665674
     atom  107 type  2   force =    -0.00670111   -0.00634827    0.07570902
     atom  108 type  2   force =    -0.00000000   -0.05470694    0.03889844
     The core correction contribution to forces
     atom    1 type  1   force =    -0.00000000    0.00000000    0.00818540
     atom    2 type  1   force =    -0.00572488    0.00330543   -0.00204094
     atom    3 type  3   force =    -0.00000000   -0.00000000   -0.00030432
     atom    4 type  2   force =    -0.00053052    0.00030630   -0.00135009
     atom    5 type  1   force =    -0.00004529   -0.00011885    0.00016241
     atom    6 type  1   force =     0.00000000    0.00033753    0.00003169
     atom    7 type  2   force =    -0.00096815   -0.00014183   -0.00011775
     atom    8 type  2   force =     0.00000000    0.00003816   -0.00020751
     atom    9 type  1   force =     0.00004529   -0.00011885    0.00016241
     atom   10 type  1   force =     0.00572488    0.00330543   -0.00204094
     atom   11 type  2   force =     0.00096815   -0.00014183   -0.00011775
     atom   12 type  2   force =     0.00053052    0.00030630   -0.00135009
     atom   13 type  1   force =     0.00012557    0.00002020    0.00016241
     atom   14 type  1   force =     0.00000000   -0.00661035   -0.00204094
     atom   15 type  2   force =     0.00060690   -0.00076753   -0.00011775
     atom   16 type  2   force =     0.00000000   -0.00061260   -0.00135009
     atom   17 type  1   force =    -0.00012557    0.00002020    0.00016241
     atom   18 type  1   force =     0.00005275    0.00003062    0.00016304
     atom   19 type  2   force =    -0.00060690   -0.00076753   -0.00011775
     atom   20 type  2   force =    -0.00006344   -0.00003663   -0.00021372
     atom   21 type  1   force =    -0.00000000    0.00000000    0.00013697
     atom   22 type  1   force =    -0.00005275    0.00003062    0.00016304
     atom   23 type  2   force =    -0.00000000   -0.00000000   -0.00022298
     atom   24 type  2   force =     0.00006344   -0.00003663   -0.00021372
     atom   25 type  1   force =     0.00008028    0.00009890    0.00016241
     atom   26 type  1   force =    -0.00029216   -0.00016851    0.00003169
     atom   27 type  2   force =    -0.00036124    0.00090935   -0.00011775
     atom   28 type  2   force =    -0.00003305   -0.00001909   -0.00020751
     atom   29 type  1   force =    -0.00000000    0.00000026    0.00016148
     atom   30 type  1   force =     0.00029216   -0.00016851    0.00003169
     atom   31 type  2   force =    -0.00000000   -0.00000000   -0.00023731
     atom   32 type  2   force =     0.00003305   -0.00001909   -0.00020751
     atom   33 type  1   force =    -0.00008028    0.00009890    0.00016241
     atom   34 type  1   force =     0.00000000   -0.00006074    0.00016304
     atom   35 type  2   force =     0.00036124    0.00090935   -0.00011775
     atom   36 type  2   force =     0.00000000    0.00007325   -0.00021372
     atom   37 type  1   force =    -0.00000000    0.00000000    0.00048427
     atom   38 type  1   force =    -0.00001656    0.00000973    0.00024716
     atom   39 type  2   force =    -0.00000000   -0.00000000   -0.00035157
     atom   40 type  2   force =    -0.00001092    0.00000630   -0.00021366
     atom   41 type  1   force =    -0.00020429   -0.00012276    0.00018821
     atom   42 type  1   force =     0.00000000    0.00001848    0.00021352
     atom   43 type  2   force =    -0.00005164   -0.00003699   -0.00031167
     atom   44 type  2   force =     0.00000000    0.00001892   -0.00021617
     atom   45 type  1   force =     0.00020429   -0.00012276    0.00018821
     atom   46 type  1   force =     0.00001656    0.00000973    0.00024716
     atom   47 type  2   force =     0.00005164   -0.00003699   -0.00031167
     atom   48 type  2   force =     0.00001092    0.00000630   -0.00021366
     atom   49 type  1   force =     0.00020846   -0.00011554    0.00018821
     atom   50 type  1   force =     0.00000000   -0.00001895    0.00024716
     atom   51 type  2   force =     0.00005786   -0.00002623   -0.00031167
     atom   52 type  2   force =     0.00000000   -0.00001262   -0.00021366
     atom   53 type  1   force =    -0.00020846   -0.00011554    0.00018821
     atom   54 type  1   force =    -0.00001535   -0.00000869    0.00021241
     atom   55 type  2   force =    -0.00005786   -0.00002623   -0.00031167
     atom   56 type  2   force =    -0.00000853   -0.00000493   -0.00021609
     atom   57 type  1   force =    -0.00000000    0.00000000    0.00017905
     atom   58 type  1   force =     0.00001535   -0.00000869    0.00021241
     atom   59 type  2   force =    -0.00000000   -0.00000000   -0.00021513
     atom   60 type  2   force =     0.00000853   -0.00000493   -0.00021609
     atom   61 type  1   force =     0.00000417    0.00023856    0.00018821
     atom   62 type  1   force =    -0.00001586   -0.00000898    0.00021352
     atom   63 type  2   force =     0.00000622    0.00006322   -0.00031167
     atom   64 type  2   force =    -0.00001639   -0.00000946   -0.00021617
     atom   65 type  1   force =    -0.00000000    0.00000026    0.00020785
     atom   66 type  1   force =     0.00001586   -0.00000898    0.00021352
     atom   67 type  2   force =    -0.00000000   -0.00000000   -0.00021052
     atom   68 type  2   force =     0.00001639   -0.00000946   -0.00021617
     atom   69 type  1   force =    -0.00000417    0.00023856    0.00018821
     atom   70 type  1   force =     0.00000000    0.00001790    0.00021241
     atom   71 type  2   force =    -0.00000622    0.00006322   -0.00031167
     atom   72 type  2   force =     0.00000000    0.00000985   -0.00021609
     atom   73 type  1   force =    -0.00000000    0.00000000    0.00027082
     atom   74 type  1   force =     0.00006797   -0.00003907    0.00061988
     atom   75 type  2   force =    -0.00000000   -0.00000000   -0.00009523
     atom   76 type  2   force =    -0.00083427    0.00048166    0.00071649
     atom   77 type  1   force =     0.00000301    0.00000663    0.00025075
     atom   78 type  1   force =     0.00000000    0.00002159    0.00018991
     atom   79 type  2   force =    -0.00008749   -0.00006027   -0.00013273
     atom   80 type  2   force =     0.00000000    0.00006219   -0.00021554
     atom   81 type  1   force =    -0.00000301    0.00000663    0.00025075
     atom   82 type  1   force =    -0.00006797   -0.00003907    0.00061988
     atom   83 type  2   force =     0.00008749   -0.00006027   -0.00013273
     atom   84 type  2   force =     0.00083427    0.00048166    0.00071649
     atom   85 type  1   force =    -0.00000724   -0.00000071    0.00025075
     atom   86 type  1   force =     0.00000000    0.00007865    0.00061988
     atom   87 type  2   force =     0.00009594   -0.00004563   -0.00013273
     atom   88 type  2   force =     0.00000000   -0.00096333    0.00071649
     atom   89 type  1   force =     0.00000724   -0.00000071    0.00025075
     atom   90 type  1   force =     0.00000403    0.00000250    0.00020556
     atom   91 type  2   force =    -0.00009594   -0.00004563   -0.00013273
     atom   92 type  2   force =    -0.00007428   -0.00004289   -0.00021458
     atom   93 type  1   force =    -0.00000000    0.00000000    0.00021920
     atom   94 type  1   force =    -0.00000403    0.00000250    0.00020556
     atom   95 type  2   force =    -0.00000000   -0.00000000   -0.00021711
     atom   96 type  2   force =     0.00007428   -0.00004289   -0.00021458
     atom   97 type  1   force =    -0.00000423   -0.00000566    0.00025075
     atom   98 type  1   force =    -0.00001855   -0.00001054    0.00018991
     atom   99 type  2   force =     0.00000845    0.00010590   -0.00013273
     atom  100 type  2   force =    -0.00005386   -0.00003110   -0.00021554
     atom  101 type  1   force =    -0.00000000    0.00000026    0.00021122
     atom  102 type  1   force =     0.00001855   -0.00001054    0.00018991
     atom  103 type  2   force =    -0.00000000   -0.00000000   -0.00021571
     atom  104 type  2   force =     0.00005386   -0.00003110   -0.00021554
     atom  105 type  1   force =     0.00000423   -0.00000566    0.00025075
     atom  106 type  1   force =     0.00000000   -0.00000448    0.00020556
     atom  107 type  2   force =    -0.00000845    0.00010590   -0.00013273
     atom  108 type  2   force =     0.00000000    0.00008576   -0.00021458
     The Hubbard contrib.    to forces
     atom    1 type  1   force =     0.00000000    0.00000000    0.00000000
     atom    2 type  1   force =     0.00000000    0.00000000    0.00000000
     atom    3 type  3   force =     0.00000000    0.00000000    0.00000000
     atom    4 type  2   force =     0.00000000    0.00000000    0.00000000
     atom    5 type  1   force =     0.00000000    0.00000000    0.00000000
     atom    6 type  1   force =     0.00000000    0.00000000    0.00000000
     atom    7 type  2   force =     0.00000000    0.00000000    0.00000000
     atom    8 type  2   force =     0.00000000    0.00000000    0.00000000
     atom    9 type  1   force =     0.00000000    0.00000000    0.00000000
     atom   10 type  1   force =     0.00000000    0.00000000    0.00000000
     atom   11 type  2   force =     0.00000000    0.00000000    0.00000000
     atom   12 type  2   force =     0.00000000    0.00000000    0.00000000
     atom   13 type  1   force =     0.00000000    0.00000000    0.00000000
     atom   14 type  1   force =     0.00000000    0.00000000    0.00000000
     atom   15 type  2   force =     0.00000000    0.00000000    0.00000000
     atom   16 type  2   force =     0.00000000    0.00000000    0.00000000
     atom   17 type  1   force =     0.00000000    0.00000000    0.00000000
     atom   18 type  1   force =     0.00000000    0.00000000    0.00000000
     atom   19 type  2   force =     0.00000000    0.00000000    0.00000000
     atom   20 type  2   force =     0.00000000    0.00000000    0.00000000
     atom   21 type  1   force =     0.00000000    0.00000000    0.00000000
     atom   22 type  1   force =     0.00000000    0.00000000    0.00000000
     atom   23 type  2   force =     0.00000000    0.00000000    0.00000000
     atom   24 type  2   force =     0.00000000    0.00000000    0.00000000
     atom   25 type  1   force =     0.00000000    0.00000000    0.00000000
     atom   26 type  1   force =     0.00000000    0.00000000    0.00000000
     atom   27 type  2   force =     0.00000000    0.00000000    0.00000000
     atom   28 type  2   force =     0.00000000    0.00000000    0.00000000
     atom   29 type  1   force =     0.00000000    0.00000000    0.00000000
     atom   30 type  1   force =     0.00000000    0.00000000    0.00000000
     atom   31 type  2   force =     0.00000000    0.00000000    0.00000000
     atom   32 type  2   force =     0.00000000    0.00000000    0.00000000
     atom   33 type  1   force =     0.00000000    0.00000000    0.00000000
     atom   34 type  1   force =     0.00000000    0.00000000    0.00000000
     atom   35 type  2   force =     0.00000000    0.00000000    0.00000000
     atom   36 type  2   force =     0.00000000    0.00000000    0.00000000
     atom   37 type  1   force =     0.00000000    0.00000000    0.00000000
     atom   38 type  1   force =     0.00000000    0.00000000    0.00000000
     atom   39 type  2   force =     0.00000000    0.00000000    0.00000000
     atom   40 type  2   force =     0.00000000    0.00000000    0.00000000
     atom   41 type  1   force =     0.00000000    0.00000000    0.00000000
     atom   42 type  1   force =     0.00000000    0.00000000    0.00000000
     atom   43 type  2   force =     0.00000000    0.00000000    0.00000000
     atom   44 type  2   force =     0.00000000    0.00000000    0.00000000
     atom   45 type  1   force =     0.00000000    0.00000000    0.00000000
     atom   46 type  1   force =     0.00000000    0.00000000    0.00000000
     atom   47 type  2   force =     0.00000000    0.00000000    0.00000000
     atom   48 type  2   force =     0.00000000    0.00000000    0.00000000
     atom   49 type  1   force =     0.00000000    0.00000000    0.00000000
     atom   50 type  1   force =     0.00000000    0.00000000    0.00000000
     atom   51 type  2   force =     0.00000000    0.00000000    0.00000000
     atom   52 type  2   force =     0.00000000    0.00000000    0.00000000
     atom   53 type  1   force =     0.00000000    0.00000000    0.00000000
     atom   54 type  1   force =     0.00000000    0.00000000    0.00000000
     atom   55 type  2   force =     0.00000000    0.00000000    0.00000000
     atom   56 type  2   force =     0.00000000    0.00000000    0.00000000
     atom   57 type  1   force =     0.00000000    0.00000000    0.00000000
     atom   58 type  1   force =     0.00000000    0.00000000    0.00000000
     atom   59 type  2   force =     0.00000000    0.00000000    0.00000000
     atom   60 type  2   force =     0.00000000    0.00000000    0.00000000
     atom   61 type  1   force =     0.00000000    0.00000000    0.00000000
     atom   62 type  1   force =     0.00000000    0.00000000    0.00000000
     atom   63 type  2   force =     0.00000000    0.00000000    0.00000000
     atom   64 type  2   force =     0.00000000    0.00000000    0.00000000
     atom   65 type  1   force =     0.00000000    0.00000000    0.00000000
     atom   66 type  1   force =     0.00000000    0.00000000    0.00000000
     atom   67 type  2   force =     0.00000000    0.00000000    0.00000000
     atom   68 type  2   force =     0.00000000    0.00000000    0.00000000
     atom   69 type  1   force =     0.00000000    0.00000000    0.00000000
     atom   70 type  1   force =     0.00000000    0.00000000    0.00000000
     atom   71 type  2   force =     0.00000000    0.00000000    0.00000000
     atom   72 type  2   force =     0.00000000    0.00000000    0.00000000
     atom   73 type  1   force =     0.00000000    0.00000000    0.00000000
     atom   74 type  1   force =     0.00000000    0.00000000    0.00000000
     atom   75 type  2   force =     0.00000000    0.00000000    0.00000000
     atom   76 type  2   force =     0.00000000    0.00000000    0.00000000
     atom   77 type  1   force =     0.00000000    0.00000000    0.00000000
     atom   78 type  1   force =     0.00000000    0.00000000    0.00000000
     atom   79 type  2   force =     0.00000000    0.00000000    0.00000000
     atom   80 type  2   force =     0.00000000    0.00000000    0.00000000
     atom   81 type  1   force =     0.00000000    0.00000000    0.00000000
     atom   82 type  1   force =     0.00000000    0.00000000    0.00000000
     atom   83 type  2   force =     0.00000000    0.00000000    0.00000000
     atom   84 type  2   force =     0.00000000    0.00000000    0.00000000
     atom   85 type  1   force =     0.00000000    0.00000000    0.00000000
     atom   86 type  1   force =     0.00000000    0.00000000    0.00000000
     atom   87 type  2   force =     0.00000000    0.00000000    0.00000000
     atom   88 type  2   force =     0.00000000    0.00000000    0.00000000
     atom   89 type  1   force =     0.00000000    0.00000000    0.00000000
     atom   90 type  1   force =     0.00000000    0.00000000    0.00000000
     atom   91 type  2   force =     0.00000000    0.00000000    0.00000000
     atom   92 type  2   force =     0.00000000    0.00000000    0.00000000
     atom   93 type  1   force =     0.00000000    0.00000000    0.00000000
     atom   94 type  1   force =     0.00000000    0.00000000    0.00000000
     atom   95 type  2   force =     0.00000000    0.00000000    0.00000000
     atom   96 type  2   force =     0.00000000    0.00000000    0.00000000
     atom   97 type  1   force =     0.00000000    0.00000000    0.00000000
     atom   98 type  1   force =     0.00000000    0.00000000    0.00000000
     atom   99 type  2   force =     0.00000000    0.00000000    0.00000000
     atom  100 type  2   force =     0.00000000    0.00000000    0.00000000
     atom  101 type  1   force =     0.00000000    0.00000000    0.00000000
     atom  102 type  1   force =     0.00000000    0.00000000    0.00000000
     atom  103 type  2   force =     0.00000000    0.00000000    0.00000000
     atom  104 type  2   force =     0.00000000    0.00000000    0.00000000
     atom  105 type  1   force =     0.00000000    0.00000000    0.00000000
     atom  106 type  1   force =     0.00000000    0.00000000    0.00000000
     atom  107 type  2   force =     0.00000000    0.00000000    0.00000000
     atom  108 type  2   force =     0.00000000    0.00000000    0.00000000
     The SCF correction term to forces
     atom    1 type  1   force =    -0.00000000    0.00000000    0.00011518
     atom    2 type  1   force =    -0.00009754    0.00005631   -0.00007747
     atom    3 type  3   force =     0.00000000    0.00000000   -0.00000846
     atom    4 type  2   force =     0.00000389   -0.00000224    0.00000176
     atom    5 type  1   force =    -0.00002000   -0.00001675    0.00001872
     atom    6 type  1   force =     0.00000000   -0.00002098   -0.00002492
     atom    7 type  2   force =    -0.00000911   -0.00000799   -0.00000430
     atom    8 type  2   force =     0.00000000   -0.00000559    0.00001021
     atom    9 type  1   force =     0.00002000   -0.00001675    0.00001872
     atom   10 type  1   force =     0.00009754    0.00005631   -0.00007747
     atom   11 type  2   force =     0.00000911   -0.00000799   -0.00000430
     atom   12 type  2   force =    -0.00000389   -0.00000224    0.00000176
     atom   13 type  1   force =     0.00002451   -0.00000894    0.00001872
     atom   14 type  1   force =     0.00000000   -0.00011263   -0.00007747
     atom   15 type  2   force =     0.00001148   -0.00000390   -0.00000430
     atom   16 type  2   force =     0.00000000    0.00000449    0.00000176
     atom   17 type  1   force =    -0.00002451   -0.00000894    0.00001872
     atom   18 type  1   force =    -0.00000223   -0.00000129   -0.00001547
     atom   19 type  2   force =    -0.00001148   -0.00000390   -0.00000430
     atom   20 type  2   force =     0.00000324    0.00000187    0.00001130
     atom   21 type  1   force =     0.00000000    0.00000000    0.00002802
     atom   22 type  1   force =     0.00000223   -0.00000129   -0.00001547
     atom   23 type  2   force =     0.00000000    0.00000000    0.00000011
     atom   24 type  2   force =    -0.00000324    0.00000187    0.00001130
     atom   25 type  1   force =     0.00000451    0.00002569    0.00001872
     atom   26 type  1   force =     0.00001817    0.00001049   -0.00002492
     atom   27 type  2   force =     0.00000236    0.00001189   -0.00000430
     atom   28 type  2   force =     0.00000484    0.00000280    0.00001021
     atom   29 type  1   force =     0.00000000    0.00000000    0.00003222
     atom   30 type  1   force =    -0.00001817    0.00001049   -0.00002492
     atom   31 type  2   force =     0.00000000    0.00000000   -0.00000282
     atom   32 type  2   force =    -0.00000484    0.00000280    0.00001021
     atom   33 type  1   force =    -0.00000451    0.00002569    0.00001872
     atom   34 type  1   force =     0.00000000    0.00000257   -0.00001547
     atom   35 type  2   force =    -0.00000236    0.00001189   -0.00000430
     atom   36 type  2   force =     0.00000000   -0.00000374    0.00001130
     atom   37 type  1   force =    -0.00000000    0.00000000    0.00004627
     atom   38 type  1   force =    -0.00000151    0.00000087    0.00004086
     atom   39 type  2   force =     0.00000000    0.00000000    0.00002642
     atom   40 type  2   force =    -0.00000090    0.00000052   -0.00000767
     atom   41 type  1   force =     0.00001508   -0.00000592    0.00004311
     atom   42 type  1   force =     0.00000000   -0.00000203    0.00003013
     atom   43 type  2   force =     0.00000209   -0.00000152    0.00002094
     atom   44 type  2   force =     0.00000000   -0.00000143   -0.00000941
     atom   45 type  1   force =    -0.00001508   -0.00000592    0.00004311
     atom   46 type  1   force =     0.00000151    0.00000087    0.00004086
     atom   47 type  2   force =    -0.00000209   -0.00000152    0.00002094
     atom   48 type  2   force =     0.00000090    0.00000052   -0.00000767
     atom   49 type  1   force =    -0.00000242    0.00001602    0.00004311
     atom   50 type  1   force =     0.00000000   -0.00000174    0.00004086
     atom   51 type  2   force =     0.00000027    0.00000257    0.00002094
     atom   52 type  2   force =     0.00000000   -0.00000104   -0.00000767
     atom   53 type  1   force =     0.00000242    0.00001602    0.00004311
     atom   54 type  1   force =    -0.00000265   -0.00000153    0.00003377
     atom   55 type  2   force =    -0.00000027    0.00000257    0.00002094
     atom   56 type  2   force =    -0.00000244   -0.00000141   -0.00000990
     atom   57 type  1   force =    -0.00000000    0.00000000    0.00003773
     atom   58 type  1   force =     0.00000265   -0.00000153    0.00003377
     atom   59 type  2   force =     0.00000000    0.00000000    0.00001800
     atom   60 type  2   force =     0.00000244   -0.00000141   -0.00000990
     atom   61 type  1   force =     0.00001267   -0.00001010    0.00004311
     atom   62 type  1   force =     0.00000176    0.00000101    0.00003013
     atom   63 type  2   force =     0.00000236   -0.00000105    0.00002094
     atom   64 type  2   force =     0.00000124    0.00000072   -0.00000941
     atom   65 type  1   force =    -0.00000000   -0.00000000    0.00003270
     atom   66 type  1   force =    -0.00000176    0.00000101    0.00003013
     atom   67 type  2   force =     0.00000000    0.00000000    0.00001709
     atom   68 type  2   force =    -0.00000124    0.00000072   -0.00000941
     atom   69 type  1   force =    -0.00001267   -0.00001010    0.00004311
     atom   70 type  1   force =     0.00000000    0.00000306    0.00003377
     atom   71 type  2   force =    -0.00000236   -0.00000105    0.00002094
     atom   72 type  2   force =     0.00000000    0.00000282   -0.00000990
     atom   73 type  1   force =    -0.00000000    0.00000000   -0.00002456
     atom   74 type  1   force =    -0.00000199    0.00000115   -0.00002999
     atom   75 type  2   force =     0.00000000    0.00000000   -0.00001631
     atom   76 type  2   force =    -0.00000722    0.00000417    0.00000654
     atom   77 type  1   force =    -0.00000641   -0.00000478   -0.00002627
     atom   78 type  1   force =     0.00000000   -0.00000775   -0.00004144
     atom   79 type  2   force =    -0.00000385   -0.00000340   -0.00001892
     atom   80 type  2   force =     0.00000000   -0.00000616    0.00000290
     atom   81 type  1   force =     0.00000641   -0.00000478   -0.00002627
     atom   82 type  1   force =     0.00000199    0.00000115   -0.00002999
     atom   83 type  2   force =     0.00000385   -0.00000340   -0.00001892
     atom   84 type  2   force =     0.00000722    0.00000417    0.00000654
     atom   85 type  1   force =     0.00000734   -0.00000316   -0.00002627
     atom   86 type  1   force =    -0.00000000   -0.00000229   -0.00002999
     atom   87 type  2   force =     0.00000487   -0.00000164   -0.00001892
     atom   88 type  2   force =     0.00000000   -0.00000834    0.00000654
     atom   89 type  1   force =    -0.00000734   -0.00000316   -0.00002627
     atom   90 type  1   force =    -0.00001713   -0.00000989   -0.00004827
     atom   91 type  2   force =    -0.00000487   -0.00000164   -0.00001892
     atom   92 type  2   force =    -0.00000735   -0.00000424    0.00000225
     atom   93 type  1   force =    -0.00000000    0.00000000   -0.00003258
     atom   94 type  1   force =     0.00001713   -0.00000989   -0.00004827
     atom   95 type  2   force =     0.00000000    0.00000000   -0.00002259
     atom   96 type  2   force =     0.00000735   -0.00000424    0.00000225
     atom   97 type  1   force =     0.00000093    0.00000794   -0.00002627
     atom   98 type  1   force =     0.00000671    0.00000388   -0.00004144
     atom   99 type  2   force =     0.00000102    0.00000504   -0.00001892
     atom  100 type  2   force =     0.00000533    0.00000308    0.00000290
     atom  101 type  1   force =     0.00000000   -0.00000000   -0.00002842
     atom  102 type  1   force =    -0.00000671    0.00000388   -0.00004144
     atom  103 type  2   force =     0.00000000   -0.00000000   -0.00001734
     atom  104 type  2   force =    -0.00000533    0.00000308    0.00000290
     atom  105 type  1   force =    -0.00000093    0.00000794   -0.00002627
     atom  106 type  1   force =    -0.00000000    0.00001979   -0.00004827
     atom  107 type  2   force =    -0.00000102    0.00000504   -0.00001892
     atom  108 type  2   force =     0.00000000    0.00000849    0.00000225

     Total force =     0.058306     Total SCF correction =     0.000379

     Writing all to output data dir ./tmp/GaN.save/ :
     XML data file, charge density, pseudopotentials, collected wavefunctions
 
     init_run     :     97.56s CPU     98.75s WALL (       1 calls)
     electrons    :   8860.51s CPU   9000.16s WALL (       1 calls)
     forces       :     46.94s CPU     47.95s WALL (       1 calls)

     Called by init_run:
     wfcinit      :     92.93s CPU     93.65s WALL (       1 calls)
     wfcinit:atom :      0.47s CPU      0.51s WALL (      16 calls)
     wfcinit:wfcr :     89.66s CPU     90.10s WALL (      16 calls)
     potinit      :      2.16s CPU      2.26s WALL (       1 calls)
     hinit0       :      0.71s CPU      0.73s WALL (       1 calls)

     Called by electrons:
     c_bands      :   7995.22s CPU   8107.44s WALL (      26 calls)
     sum_band     :    775.98s CPU    790.99s WALL (      26 calls)
     v_of_rho     :     11.89s CPU     13.01s WALL (      27 calls)
     v_h          :      0.54s CPU      0.56s WALL (      27 calls)
     v_xc         :     11.79s CPU     12.92s WALL (      28 calls)
     newd         :     31.26s CPU     42.06s WALL (      27 calls)
     PAW_pot      :     45.79s CPU     46.04s WALL (      27 calls)
     mix_rho      :      2.41s CPU      2.63s WALL (      26 calls)

     Called by c_bands:
     init_us_2    :     51.80s CPU     51.89s WALL (     864 calls)
     cegterg      :   7898.22s CPU   8009.49s WALL (     417 calls)

     Called by sum_band:
     sum_band:wei :      0.17s CPU      0.17s WALL (      26 calls)
     sum_band:loo :    729.38s CPU    732.53s WALL (      26 calls)
     sum_band:buf :      6.52s CPU      6.53s WALL (     416 calls)
     sum_band:ini :     24.96s CPU     24.98s WALL (     416 calls)
     sum_band:cal :    247.08s CPU    247.19s WALL (     416 calls)
     sum_band:bec :      2.46s CPU      2.46s WALL (     416 calls)
     addusdens    :     44.41s CPU     55.97s WALL (      26 calls)
                                        0.00s GPU  (      26 calls)
     addusd:skk   :      1.93s CPU      4.18s WALL (      78 calls)
                                        0.00s GPU  (      78 calls)

     Called by *egterg:
     cdiaghg      :   1400.66s CPU   1425.52s WALL (    3632 calls)
     cegterg:over :    665.49s CPU    670.68s WALL (    3215 calls)
     cegterg:upda :    494.31s CPU    509.22s WALL (    3215 calls)
     cegterg:last :   1046.28s CPU   1047.11s WALL (    1083 calls)
     cdiaghg:chol :     37.70s CPU     48.81s WALL (    3632 calls)
     cdiaghg:inve :     16.93s CPU     20.84s WALL (    3632 calls)
     cdiaghg:para :    245.43s CPU    248.97s WALL (    7264 calls)
     h_psi        :   3392.67s CPU   3423.25s WALL (    3648 calls)
     s_psi        :    797.43s CPU    799.82s WALL (    3648 calls)
     g_psi        :      8.58s CPU      8.61s WALL (    3215 calls)

     Called by h_psi:
     h_psi:calbec :    780.12s CPU    780.67s WALL (    3648 calls)
     vloc_psi     :   1800.30s CPU   1815.80s WALL (    3648 calls)
     add_vuspsi   :    797.75s CPU    801.06s WALL (    3648 calls)

     General routines
     calbec       :   1065.34s CPU   1066.03s WALL (    4128 calls)
     fft          :      6.89s CPU      7.23s WALL (     688 calls)
     ffts         :      0.15s CPU      0.17s WALL (     106 calls)
     fftw         :   1169.04s CPU   1177.38s WALL ( 1505094 calls)
     interpolate  :      0.71s CPU      0.84s WALL (      54 calls)
 
     Parallel routines

     PAW routines
     PAW_pot      :     45.79s CPU     46.04s WALL (      27 calls)
     PAW_symme    :      0.04s CPU      0.04s WALL (      53 calls)
 
     PWSCF        :      2h30m CPU      2h32m WALL

 
   This run was terminated on:  14:24:44  30Aug2026            

=------------------------------------------------------------------------------=
   JOB DONE.
=------------------------------------------------------------------------------=
