
     Program PWSCF v.7.3.1 starts on 30Aug2026 at  7:16:22 

     This program is part of the open-source Quantum ESPRESSO suite
     for quantum simulation of materials; please cite
         "P. Giannozzi et al., J. Phys.:Condens. Matter 21 395502 (2009);
         "P. Giannozzi et al., J. Phys.:Condens. Matter 29 465901 (2017);
         "P. Giannozzi et al., J. Chem. Phys. 152 154105 (2020);
          URL http://www.quantum-espresso.org", 
     in publications or presentations arising from this work. More details at
     http://www.quantum-espresso.org/quote

     Parallel version (MPI & OpenMP), running on      12 processor cores
     Number of MPI processes:                12
     Threads/MPI process:                     1

     MPI processes distributed on     1 nodes
     120044 MiB available memory on the printing compute node when the environment starts
 
     Waiting for input...
     Reading input from standard input

     Current dimensions of program PWSCF are:
     Max number of different atomic species (ntypx) = 10
     Max number of k-points (npk) =  40000
     Max angular momentum in pseudopotentials (lmaxx) =  4
     file Ga.pbe-dn-kjpaw_psl.1.0.0.UPF: wavefunction(s)  4S renormalized
     file N.pbe-n-kjpaw_psl.1.0.0.UPF: wavefunction(s)  2S renormalized
     file C.pbe-n-kjpaw_psl.1.0.0.UPF: wavefunction(s)  2S 2P renormalized
     Message from routine setup:
     using ibrav=0 with symmetry is DISCOURAGED, use correct ibrav instead
 
     R & G space division:  proc/nbgrp/npool/nimage =      12
     Subspace diagonalization in iterative solution of the eigenvalue problem:
     one sub-group per band group will be used
     custom distributed-memory algorithm (size of sub-group:  3*  3 procs)

 
     Parallelization info
     --------------------
     sticks:   dense  smooth     PW     G-vecs:    dense   smooth      PW
     Min         955     382    102               135143    34186    4687
     Max         956     383    104               135146    34191    4688
     Sum       11461    4591   1237              1621723   410263   56253
 
     Using Slab Decomposition
 


     bravais-lattice index     =            0
     lattice parameter (alat)  =      18.2548  a.u.
     unit-cell volume          =    8589.3845 (a.u.)^3
     number of atoms/cell      =          108
     number of atomic types    =            3
     number of electrons       =       971.00
     number of Kohn-Sham states=          513
     kinetic-energy cutoff     =      50.0000  Ry
     charge density cutoff     =     500.0000  Ry
     scf convergence threshold =      1.0E-08
     mixing beta               =       0.7000
     number of iterations used =            8  plain     mixing
     Exchange-correlation= SLA  PW   PBX  PBC
                           (   1   4   3   4   0   0   0)

     celldm(1)=  18.254754  celldm(2)=   0.000000  celldm(3)=   0.000000
     celldm(4)=   0.000000  celldm(5)=   0.000000  celldm(6)=   0.000000

     crystal axes: (cart. coord. in units of alat)
               a(1) = (   1.000000   0.000000   0.000000 )  
               a(2) = (  -0.500000   0.866025   0.000000 )  
               a(3) = (   0.000000   0.000000   1.630435 )  

     reciprocal axes: (cart. coord. in units 2 pi/alat)
               b(1) = (  1.000000  0.577350  0.000000 )  
               b(2) = (  0.000000  1.154701  0.000000 )  
               b(3) = (  0.000000  0.000000  0.613333 )  


     PseudoPot. # 1 for Ga read from file:
     /data-fast/greenano/Students/cohort2/rojassan/Project_GaN/PSEUDO/Ga.pbe-dn-kjpaw_psl.1.0.0.UPF
     MD5 check sum: 93aceff68ec27daa0acc11ebb2e245f0
     Pseudo is Projector augmented-wave + core cor, Zval = 13.0
     Generated using 'atomic' code by A. Dal Corso  v.7.3.1
     Shape of augmentation charge: PSQ
     Using radial grid of 1205 points,  6 beta functions with: 
                l(1) =   0
                l(2) =   0
                l(3) =   1
                l(4) =   1
                l(5) =   2
                l(6) =   2
     Q(r) pseudized with 0 coefficients 


     PseudoPot. # 2 for N  read from file:
     /data-fast/greenano/Students/cohort2/rojassan/Project_GaN/PSEUDO/N.pbe-n-kjpaw_psl.1.0.0.UPF
     MD5 check sum: 86f48117b7e7b472c01f85d0863ba463
     Pseudo is Projector augmented-wave + core cor, Zval =  5.0
     Generated using 'atomic' code by A. Dal Corso  v.7.3.1
     Shape of augmentation charge: PSQ
     Using radial grid of 1085 points,  4 beta functions with: 
                l(1) =   0
                l(2) =   0
                l(3) =   1
                l(4) =   1
     Q(r) pseudized with 0 coefficients 


     PseudoPot. # 3 for C  read from file:
     /data-fast/greenano/Students/cohort2/rojassan/Project_GaN/PSEUDO/C.pbe-n-kjpaw_psl.1.0.0.UPF
     MD5 check sum: 6e4988b7a1fe6f06f65aa0569fb69d66
     Pseudo is Projector augmented-wave + core cor, Zval =  4.0
     Generated using 'atomic' code by A. Dal Corso  v.7.3.1
     Shape of augmentation charge: PSQ
     Using radial grid of 1073 points,  4 beta functions with: 
                l(1) =   0
                l(2) =   0
                l(3) =   1
                l(4) =   1
     Q(r) pseudized with 0 coefficients 


     atomic species   valence    mass     pseudopotential
     Ga               13.00    69.72300     Ga( 1.00)
     N                 5.00    14.00700     N ( 1.00)
     C                 4.00    12.01100     C ( 1.00)

     Starting magnetic structure 
     atomic species   magnetization
     Ga              0.000
     N               0.000
     C               0.500

      6 Sym. Ops. (no inversion) found ( 4 have fractional translation)


                                    s                        frac. trans.

      isym =  1     identity                                     

 cryst.   s( 1) = (     1          0          0      )
                  (     0          1          0      )
                  (     0          0          1      )

 cart.    s( 1) = (  1.0000000  0.0000000  0.0000000 )
                  (  0.0000000  1.0000000  0.0000000 )
                  (  0.0000000  0.0000000  1.0000000 )


      isym =  2     120 deg rotation - cryst. axis [0,0,1]       

 cryst.   s( 2) = (     0          1          0      )    f =( -0.3333333 )
                  (    -1         -1          0      )       ( -0.3333333 )
                  (     0          0          1      )       (  0.0000000 )

 cart.    s( 2) = ( -0.5000000 -0.8660254  0.0000000 )    f =( -0.1666667 )
                  (  0.8660254 -0.5000000  0.0000000 )       ( -0.2886751 )
                  (  0.0000000  0.0000000  1.0000000 )       (  0.0000000 )


      isym =  3     120 deg rotation - cryst. axis [0,0,-1]      

 cryst.   s( 3) = (    -1         -1          0      )    f =(  0.0000000 )
                  (     1          0          0      )       ( -0.3333333 )
                  (     0          0          1      )       (  0.0000000 )

 cart.    s( 3) = ( -0.5000000  0.8660254  0.0000000 )    f =(  0.1666667 )
                  ( -0.8660254 -0.5000000  0.0000000 )       ( -0.2886751 )
                  (  0.0000000  0.0000000  1.0000000 )       (  0.0000000 )


      isym =  4     inv. 180 deg rotation - cart. axis [1,0,0]   

 cryst.   s( 4) = (    -1          0          0      )
                  (     1          1          0      )
                  (     0          0          1      )

 cart.    s( 4) = ( -1.0000000  0.0000000  0.0000000 )
                  (  0.0000000  1.0000000  0.0000000 )
                  (  0.0000000  0.0000000  1.0000000 )


      isym =  5     inv. 180 deg rotation - cryst. axis [0,1,0]  

 cryst.   s( 5) = (     1          1          0      )    f =(  0.0000000 )
                  (     0         -1          0      )       ( -0.3333333 )
                  (     0          0          1      )       (  0.0000000 )

 cart.    s( 5) = (  0.5000000  0.8660254  0.0000000 )    f =(  0.1666667 )
                  (  0.8660254 -0.5000000  0.0000000 )       ( -0.2886751 )
                  (  0.0000000  0.0000000  1.0000000 )       (  0.0000000 )


      isym =  6     inv. 180 deg rotation - cryst. axis [1,1,0]  

 cryst.   s( 6) = (     0         -1          0      )    f =( -0.3333333 )
                  (    -1          0          0      )       ( -0.3333333 )
                  (     0          0          1      )       (  0.0000000 )

 cart.    s( 6) = (  0.5000000 -0.8660254  0.0000000 )    f =( -0.1666667 )
                  ( -0.8660254 -0.5000000  0.0000000 )       ( -0.2886751 )
                  (  0.0000000  0.0000000  1.0000000 )       (  0.0000000 )


   Cartesian axes

     site n.     atom                  positions (alat units)
         1        Ga     tau(   1) = (   0.0000000   0.1924501   0.0000000  )
         2        Ga     tau(   2) = (   0.1666667   0.0962250   0.2717391  )
         3        C      tau(   3) = (   0.0000000   0.1924501   0.2045554  )
         4        N      tau(   4) = (   0.1666667   0.0962250   0.4762946  )
         5        Ga     tau(   5) = (   0.3333333   0.1924501   0.0000000  )
         6        Ga     tau(   6) = (   0.5000000   0.0962250   0.2717391  )
         7        N      tau(   7) = (   0.3333333   0.1924501   0.2045554  )
         8        N      tau(   8) = (   0.5000000   0.0962250   0.4762946  )
         9        Ga     tau(   9) = (   0.6666667   0.1924501   0.0000000  )
        10        Ga     tau(  10) = (   0.8333333   0.0962250   0.2717391  )
        11        N      tau(  11) = (   0.6666667   0.1924501   0.2045554  )
        12        N      tau(  12) = (   0.8333333   0.0962250   0.4762946  )
        13        Ga     tau(  13) = (  -0.1666667   0.4811252   0.0000000  )
        14        Ga     tau(  14) = (   0.0000000   0.3849002   0.2717391  )
        15        N      tau(  15) = (  -0.1666667   0.4811252   0.2045554  )
        16        N      tau(  16) = (   0.0000000   0.3849002   0.4762946  )
        17        Ga     tau(  17) = (   0.1666667   0.4811252   0.0000000  )
        18        Ga     tau(  18) = (   0.3333333   0.3849002   0.2717391  )
        19        N      tau(  19) = (   0.1666667   0.4811252   0.2045554  )
        20        N      tau(  20) = (   0.3333333   0.3849002   0.4762946  )
        21        Ga     tau(  21) = (   0.5000000   0.4811252   0.0000000  )
        22        Ga     tau(  22) = (   0.6666667   0.3849002   0.2717391  )
        23        N      tau(  23) = (   0.5000000   0.4811252   0.2045554  )
        24        N      tau(  24) = (   0.6666667   0.3849002   0.4762946  )
        25        Ga     tau(  25) = (  -0.3333333   0.7698004   0.0000000  )
        26        Ga     tau(  26) = (  -0.1666667   0.6735753   0.2717391  )
        27        N      tau(  27) = (  -0.3333333   0.7698004   0.2045554  )
        28        N      tau(  28) = (  -0.1666667   0.6735753   0.4762946  )
        29        Ga     tau(  29) = (   0.0000000   0.7698004   0.0000000  )
        30        Ga     tau(  30) = (   0.1666667   0.6735753   0.2717391  )
        31        N      tau(  31) = (   0.0000000   0.7698004   0.2045554  )
        32        N      tau(  32) = (   0.1666667   0.6735753   0.4762946  )
        33        Ga     tau(  33) = (   0.3333333   0.7698004   0.0000000  )
        34        Ga     tau(  34) = (   0.5000000   0.6735753   0.2717391  )
        35        N      tau(  35) = (   0.3333333   0.7698004   0.2045554  )
        36        N      tau(  36) = (   0.5000000   0.6735753   0.4762946  )
        37        Ga     tau(  37) = (   0.0000000   0.1924501   0.5434783  )
        38        Ga     tau(  38) = (   0.1666667   0.0962250   0.8152174  )
        39        N      tau(  39) = (   0.0000000   0.1924501   0.7480337  )
        40        N      tau(  40) = (   0.1666667   0.0962250   1.0197728  )
        41        Ga     tau(  41) = (   0.3333333   0.1924501   0.5434783  )
        42        Ga     tau(  42) = (   0.5000000   0.0962250   0.8152174  )
        43        N      tau(  43) = (   0.3333333   0.1924501   0.7480337  )
        44        N      tau(  44) = (   0.5000000   0.0962250   1.0197728  )
        45        Ga     tau(  45) = (   0.6666667   0.1924501   0.5434783  )
        46        Ga     tau(  46) = (   0.8333333   0.0962250   0.8152174  )
        47        N      tau(  47) = (   0.6666667   0.1924501   0.7480337  )
        48        N      tau(  48) = (   0.8333333   0.0962250   1.0197728  )
        49        Ga     tau(  49) = (  -0.1666667   0.4811252   0.5434783  )
        50        Ga     tau(  50) = (   0.0000000   0.3849002   0.8152174  )
        51        N      tau(  51) = (  -0.1666667   0.4811252   0.7480337  )
        52        N      tau(  52) = (   0.0000000   0.3849002   1.0197728  )
        53        Ga     tau(  53) = (   0.1666667   0.4811252   0.5434783  )
        54        Ga     tau(  54) = (   0.3333333   0.3849002   0.8152174  )
        55        N      tau(  55) = (   0.1666667   0.4811252   0.7480337  )
        56        N      tau(  56) = (   0.3333333   0.3849002   1.0197728  )
        57        Ga     tau(  57) = (   0.5000000   0.4811252   0.5434783  )
        58        Ga     tau(  58) = (   0.6666667   0.3849002   0.8152174  )
        59        N      tau(  59) = (   0.5000000   0.4811252   0.7480337  )
        60        N      tau(  60) = (   0.6666667   0.3849002   1.0197728  )
        61        Ga     tau(  61) = (  -0.3333333   0.7698004   0.5434783  )
        62        Ga     tau(  62) = (  -0.1666667   0.6735753   0.8152174  )
        63        N      tau(  63) = (  -0.3333333   0.7698004   0.7480337  )
        64        N      tau(  64) = (  -0.1666667   0.6735753   1.0197728  )
        65        Ga     tau(  65) = (   0.0000000   0.7698004   0.5434783  )
        66        Ga     tau(  66) = (   0.1666667   0.6735753   0.8152174  )
        67        N      tau(  67) = (   0.0000000   0.7698004   0.7480337  )
        68        N      tau(  68) = (   0.1666667   0.6735753   1.0197728  )
        69        Ga     tau(  69) = (   0.3333333   0.7698004   0.5434783  )
        70        Ga     tau(  70) = (   0.5000000   0.6735753   0.8152174  )
        71        N      tau(  71) = (   0.3333333   0.7698004   0.7480337  )
        72        N      tau(  72) = (   0.5000000   0.6735753   1.0197728  )
        73        Ga     tau(  73) = (   0.0000000   0.1924501   1.0869565  )
        74        Ga     tau(  74) = (   0.1666667   0.0962250   1.3586957  )
        75        N      tau(  75) = (   0.0000000   0.1924501   1.2915120  )
        76        N      tau(  76) = (   0.1666667   0.0962250   1.5632511  )
        77        Ga     tau(  77) = (   0.3333333   0.1924501   1.0869565  )
        78        Ga     tau(  78) = (   0.5000000   0.0962250   1.3586957  )
        79        N      tau(  79) = (   0.3333333   0.1924501   1.2915120  )
        80        N      tau(  80) = (   0.5000000   0.0962250   1.5632511  )
        81        Ga     tau(  81) = (   0.6666667   0.1924501   1.0869565  )
        82        Ga     tau(  82) = (   0.8333333   0.0962250   1.3586957  )
        83        N      tau(  83) = (   0.6666667   0.1924501   1.2915120  )
        84        N      tau(  84) = (   0.8333333   0.0962250   1.5632511  )
        85        Ga     tau(  85) = (  -0.1666667   0.4811252   1.0869565  )
        86        Ga     tau(  86) = (   0.0000000   0.3849002   1.3586957  )
        87        N      tau(  87) = (  -0.1666667   0.4811252   1.2915120  )
        88        N      tau(  88) = (   0.0000000   0.3849002   1.5632511  )
        89        Ga     tau(  89) = (   0.1666667   0.4811252   1.0869565  )
        90        Ga     tau(  90) = (   0.3333333   0.3849002   1.3586957  )
        91        N      tau(  91) = (   0.1666667   0.4811252   1.2915120  )
        92        N      tau(  92) = (   0.3333333   0.3849002   1.5632511  )
        93        Ga     tau(  93) = (   0.5000000   0.4811252   1.0869565  )
        94        Ga     tau(  94) = (   0.6666667   0.3849002   1.3586957  )
        95        N      tau(  95) = (   0.5000000   0.4811252   1.2915120  )
        96        N      tau(  96) = (   0.6666667   0.3849002   1.5632511  )
        97        Ga     tau(  97) = (  -0.3333333   0.7698004   1.0869565  )
        98        Ga     tau(  98) = (  -0.1666667   0.6735753   1.3586957  )
        99        N      tau(  99) = (  -0.3333333   0.7698004   1.2915120  )
       100        N      tau( 100) = (  -0.1666667   0.6735753   1.5632511  )
       101        Ga     tau( 101) = (   0.0000000   0.7698004   1.0869565  )
       102        Ga     tau( 102) = (   0.1666667   0.6735753   1.3586957  )
       103        N      tau( 103) = (   0.0000000   0.7698004   1.2915120  )
       104        N      tau( 104) = (   0.1666667   0.6735753   1.5632511  )
       105        Ga     tau( 105) = (   0.3333333   0.7698004   1.0869565  )
       106        Ga     tau( 106) = (   0.5000000   0.6735753   1.3586957  )
       107        N      tau( 107) = (   0.3333333   0.7698004   1.2915120  )
       108        N      tau( 108) = (   0.5000000   0.6735753   1.5632511  )

   Crystallographic axes

     site n.     atom                  positions (cryst. coord.)
         1        Ga     tau(   1) = (  0.1111111  0.2222222  0.0000000  )
         2        Ga     tau(   2) = (  0.2222222  0.1111111  0.1666667  )
         3        C      tau(   3) = (  0.1111111  0.2222222  0.1254607  )
         4        N      tau(   4) = (  0.2222222  0.1111111  0.2921273  )
         5        Ga     tau(   5) = (  0.4444444  0.2222222  0.0000000  )
         6        Ga     tau(   6) = (  0.5555556  0.1111111  0.1666667  )
         7        N      tau(   7) = (  0.4444444  0.2222222  0.1254607  )
         8        N      tau(   8) = (  0.5555556  0.1111111  0.2921273  )
         9        Ga     tau(   9) = (  0.7777778  0.2222222  0.0000000  )
        10        Ga     tau(  10) = (  0.8888889  0.1111111  0.1666667  )
        11        N      tau(  11) = (  0.7777778  0.2222222  0.1254607  )
        12        N      tau(  12) = (  0.8888889  0.1111111  0.2921273  )
        13        Ga     tau(  13) = (  0.1111111  0.5555556  0.0000000  )
        14        Ga     tau(  14) = (  0.2222222  0.4444444  0.1666667  )
        15        N      tau(  15) = (  0.1111111  0.5555556  0.1254607  )
        16        N      tau(  16) = (  0.2222222  0.4444444  0.2921273  )
        17        Ga     tau(  17) = (  0.4444444  0.5555556  0.0000000  )
        18        Ga     tau(  18) = (  0.5555556  0.4444444  0.1666667  )
        19        N      tau(  19) = (  0.4444444  0.5555556  0.1254607  )
        20        N      tau(  20) = (  0.5555556  0.4444444  0.2921273  )
        21        Ga     tau(  21) = (  0.7777778  0.5555556  0.0000000  )
        22        Ga     tau(  22) = (  0.8888889  0.4444444  0.1666667  )
        23        N      tau(  23) = (  0.7777778  0.5555556  0.1254607  )
        24        N      tau(  24) = (  0.8888889  0.4444444  0.2921273  )
        25        Ga     tau(  25) = (  0.1111111  0.8888889  0.0000000  )
        26        Ga     tau(  26) = (  0.2222222  0.7777778  0.1666667  )
        27        N      tau(  27) = (  0.1111111  0.8888889  0.1254607  )
        28        N      tau(  28) = (  0.2222222  0.7777778  0.2921273  )
        29        Ga     tau(  29) = (  0.4444444  0.8888889  0.0000000  )
        30        Ga     tau(  30) = (  0.5555556  0.7777778  0.1666667  )
        31        N      tau(  31) = (  0.4444444  0.8888889  0.1254607  )
        32        N      tau(  32) = (  0.5555556  0.7777778  0.2921273  )
        33        Ga     tau(  33) = (  0.7777778  0.8888889  0.0000000  )
        34        Ga     tau(  34) = (  0.8888889  0.7777778  0.1666667  )
        35        N      tau(  35) = (  0.7777778  0.8888889  0.1254607  )
        36        N      tau(  36) = (  0.8888889  0.7777778  0.2921273  )
        37        Ga     tau(  37) = (  0.1111111  0.2222222  0.3333333  )
        38        Ga     tau(  38) = (  0.2222222  0.1111111  0.5000000  )
        39        N      tau(  39) = (  0.1111111  0.2222222  0.4587940  )
        40        N      tau(  40) = (  0.2222222  0.1111111  0.6254607  )
        41        Ga     tau(  41) = (  0.4444444  0.2222222  0.3333333  )
        42        Ga     tau(  42) = (  0.5555556  0.1111111  0.5000000  )
        43        N      tau(  43) = (  0.4444444  0.2222222  0.4587940  )
        44        N      tau(  44) = (  0.5555556  0.1111111  0.6254607  )
        45        Ga     tau(  45) = (  0.7777778  0.2222222  0.3333333  )
        46        Ga     tau(  46) = (  0.8888889  0.1111111  0.5000000  )
        47        N      tau(  47) = (  0.7777778  0.2222222  0.4587940  )
        48        N      tau(  48) = (  0.8888889  0.1111111  0.6254607  )
        49        Ga     tau(  49) = (  0.1111111  0.5555556  0.3333333  )
        50        Ga     tau(  50) = (  0.2222222  0.4444444  0.5000000  )
        51        N      tau(  51) = (  0.1111111  0.5555556  0.4587940  )
        52        N      tau(  52) = (  0.2222222  0.4444444  0.6254607  )
        53        Ga     tau(  53) = (  0.4444444  0.5555556  0.3333333  )
        54        Ga     tau(  54) = (  0.5555556  0.4444444  0.5000000  )
        55        N      tau(  55) = (  0.4444444  0.5555556  0.4587940  )
        56        N      tau(  56) = (  0.5555556  0.4444444  0.6254607  )
        57        Ga     tau(  57) = (  0.7777778  0.5555556  0.3333333  )
        58        Ga     tau(  58) = (  0.8888889  0.4444444  0.5000000  )
        59        N      tau(  59) = (  0.7777778  0.5555556  0.4587940  )
        60        N      tau(  60) = (  0.8888889  0.4444444  0.6254607  )
        61        Ga     tau(  61) = (  0.1111111  0.8888889  0.3333333  )
        62        Ga     tau(  62) = (  0.2222222  0.7777778  0.5000000  )
        63        N      tau(  63) = (  0.1111111  0.8888889  0.4587940  )
        64        N      tau(  64) = (  0.2222222  0.7777778  0.6254607  )
        65        Ga     tau(  65) = (  0.4444444  0.8888889  0.3333333  )
        66        Ga     tau(  66) = (  0.5555556  0.7777778  0.5000000  )
        67        N      tau(  67) = (  0.4444444  0.8888889  0.4587940  )
        68        N      tau(  68) = (  0.5555556  0.7777778  0.6254607  )
        69        Ga     tau(  69) = (  0.7777778  0.8888889  0.3333333  )
        70        Ga     tau(  70) = (  0.8888889  0.7777778  0.5000000  )
        71        N      tau(  71) = (  0.7777778  0.8888889  0.4587940  )
        72        N      tau(  72) = (  0.8888889  0.7777778  0.6254607  )
        73        Ga     tau(  73) = (  0.1111111  0.2222222  0.6666667  )
        74        Ga     tau(  74) = (  0.2222222  0.1111111  0.8333333  )
        75        N      tau(  75) = (  0.1111111  0.2222222  0.7921273  )
        76        N      tau(  76) = (  0.2222222  0.1111111  0.9587940  )
        77        Ga     tau(  77) = (  0.4444444  0.2222222  0.6666667  )
        78        Ga     tau(  78) = (  0.5555556  0.1111111  0.8333333  )
        79        N      tau(  79) = (  0.4444444  0.2222222  0.7921273  )
        80        N      tau(  80) = (  0.5555556  0.1111111  0.9587940  )
        81        Ga     tau(  81) = (  0.7777778  0.2222222  0.6666667  )
        82        Ga     tau(  82) = (  0.8888889  0.1111111  0.8333333  )
        83        N      tau(  83) = (  0.7777778  0.2222222  0.7921273  )
        84        N      tau(  84) = (  0.8888889  0.1111111  0.9587940  )
        85        Ga     tau(  85) = (  0.1111111  0.5555556  0.6666667  )
        86        Ga     tau(  86) = (  0.2222222  0.4444444  0.8333333  )
        87        N      tau(  87) = (  0.1111111  0.5555556  0.7921273  )
        88        N      tau(  88) = (  0.2222222  0.4444444  0.9587940  )
        89        Ga     tau(  89) = (  0.4444444  0.5555556  0.6666667  )
        90        Ga     tau(  90) = (  0.5555556  0.4444444  0.8333333  )
        91        N      tau(  91) = (  0.4444444  0.5555556  0.7921273  )
        92        N      tau(  92) = (  0.5555556  0.4444444  0.9587940  )
        93        Ga     tau(  93) = (  0.7777778  0.5555556  0.6666667  )
        94        Ga     tau(  94) = (  0.8888889  0.4444444  0.8333333  )
        95        N      tau(  95) = (  0.7777778  0.5555556  0.7921273  )
        96        N      tau(  96) = (  0.8888889  0.4444444  0.9587940  )
        97        Ga     tau(  97) = (  0.1111111  0.8888889  0.6666667  )
        98        Ga     tau(  98) = (  0.2222222  0.7777778  0.8333333  )
        99        N      tau(  99) = (  0.1111111  0.8888889  0.7921273  )
       100        N      tau( 100) = (  0.2222222  0.7777778  0.9587940  )
       101        Ga     tau( 101) = (  0.4444444  0.8888889  0.6666667  )
       102        Ga     tau( 102) = (  0.5555556  0.7777778  0.8333333  )
       103        N      tau( 103) = (  0.4444444  0.8888889  0.7921273  )
       104        N      tau( 104) = (  0.5555556  0.7777778  0.9587940  )
       105        Ga     tau( 105) = (  0.7777778  0.8888889  0.6666667  )
       106        Ga     tau( 106) = (  0.8888889  0.7777778  0.8333333  )
       107        N      tau( 107) = (  0.7777778  0.8888889  0.7921273  )
       108        N      tau( 108) = (  0.8888889  0.7777778  0.9587940  )

     number of k points=     4  Gaussian smearing, width (Ry)=  0.0010
                       cart. coord. in units 2pi/alat
        k(    1) = (   0.0000000   0.0000000   0.0000000), wk =   0.1250000
        k(    2) = (   0.0000000   0.0000000  -0.3066667), wk =   0.1250000
        k(    3) = (   0.0000000  -0.5773503   0.0000000), wk =   0.3750000
        k(    4) = (   0.0000000  -0.5773503  -0.3066667), wk =   0.3750000

                       cryst. coord.
        k(    1) = (   0.0000000   0.0000000   0.0000000), wk =   0.1250000
        k(    2) = (   0.0000000   0.0000000  -0.5000000), wk =   0.1250000
        k(    3) = (   0.0000000  -0.5000000   0.0000000), wk =   0.3750000
        k(    4) = (   0.0000000  -0.5000000  -0.5000000), wk =   0.3750000

     Dense  grid:  1621723 G-vectors     FFT dimensions: ( 135, 135, 216)

     Smooth grid:   410263 G-vectors     FFT dimensions: (  90,  90, 135)

     Dynamical RAM for                 wfc:      33.45 MB

     Dynamical RAM for     wfc (w. buffer):     301.03 MB

     Dynamical RAM for           str. fact:       6.19 MB

     Dynamical RAM for           local pot:       0.00 MB

     Dynamical RAM for          nlocal pot:      91.54 MB

     Dynamical RAM for                qrad:       5.38 MB

     Dynamical RAM for          rho,v,vnew:      27.39 MB

     Dynamical RAM for               rhoin:       9.13 MB

     Dynamical RAM for            rho*nmix:      65.99 MB

     Dynamical RAM for           G-vectors:       7.99 MB

     Dynamical RAM for          h,s,v(r/c):       5.35 MB

     Dynamical RAM for          <psi|beta>:      10.99 MB

     Dynamical RAM for                 psi:      66.90 MB

     Dynamical RAM for                hpsi:      66.90 MB

     Dynamical RAM for                spsi:      66.90 MB

     Dynamical RAM for      wfcinit/wfcrot:     102.83 MB

     Dynamical RAM for           addusdens:     496.97 MB

     Dynamical RAM for          addusforce:     715.98 MB

     Estimated static dynamical RAM per process >     471.92 MB

     Estimated max dynamical RAM per process >       1.22 GB

     Estimated total dynamical RAM >      14.69 GB
     Generating pointlists ...
     new r_m :   0.0841 (alat units)  1.5349 (a.u.) for type    1
     new r_m :   0.0841 (alat units)  1.5349 (a.u.) for type    2
     new r_m :   0.0841 (alat units)  1.5349 (a.u.) for type    3

     Initial potential from superposition of free atoms

     starting charge     970.8401, renormalised to     971.0000
     Starting wfcs are  702 randomized atomic wfcs
     Checking if some PAW data can be deallocated... 
       PAW data deallocated on   11 nodes for type:  3

     total cpu time spent up to now is       57.9 secs

     Self-consistent Calculation

     iteration #  1     ecut=    50.00 Ry     beta= 0.70
     Davidson diagonalization with overlap

---- Real-time Memory Report at c_bands before calling an iterative solver
           795 MiB given to the printing process from OS
             0 MiB allocation reported by mallinfo(arena+hblkhd)
        111965 MiB available memory on the node where the printing process lives
------------------
     ethr =  1.00E-02,  avg # of iterations =  2.0

     total cpu time spent up to now is      171.8 secs

     total energy              =  -16505.04796102 Ry
     estimated scf accuracy    <      29.94533419 Ry

     total magnetization       =     1.00 Bohr mag/cell
     absolute magnetization    =     2.60 Bohr mag/cell

     iteration #  2     ecut=    50.00 Ry     beta= 0.70
     Davidson diagonalization with overlap

---- Real-time Memory Report at c_bands before calling an iterative solver
          1272 MiB given to the printing process from OS
             0 MiB allocation reported by mallinfo(arena+hblkhd)
        112703 MiB available memory on the node where the printing process lives
------------------
     ethr =  3.08E-03,  avg # of iterations =  6.2

     total cpu time spent up to now is      360.0 secs

     total energy              =  -16516.92608661 Ry
     estimated scf accuracy    <      38.22277095 Ry

     total magnetization       =     0.25 Bohr mag/cell
     absolute magnetization    =     1.02 Bohr mag/cell

     iteration #  3     ecut=    50.00 Ry     beta= 0.70
     Davidson diagonalization with overlap

---- Real-time Memory Report at c_bands before calling an iterative solver
          1362 MiB given to the printing process from OS
             0 MiB allocation reported by mallinfo(arena+hblkhd)
        112211 MiB available memory on the node where the printing process lives
------------------
     ethr =  3.08E-03,  avg # of iterations =  2.1

     total cpu time spent up to now is      504.4 secs

     total energy              =  -16523.98030697 Ry
     estimated scf accuracy    <       1.38877685 Ry

     total magnetization       =     1.20 Bohr mag/cell
     absolute magnetization    =     1.64 Bohr mag/cell

     iteration #  4     ecut=    50.00 Ry     beta= 0.70
     Davidson diagonalization with overlap

---- Real-time Memory Report at c_bands before calling an iterative solver
          1362 MiB given to the printing process from OS
             0 MiB allocation reported by mallinfo(arena+hblkhd)
        112139 MiB available memory on the node where the printing process lives
------------------
     ethr =  1.43E-04,  avg # of iterations = 10.5

     total cpu time spent up to now is      765.0 secs

     total energy              =  -16525.23430338 Ry
     estimated scf accuracy    <       0.99120310 Ry

     total magnetization       =     0.01 Bohr mag/cell
     absolute magnetization    =     0.65 Bohr mag/cell

     iteration #  5     ecut=    50.00 Ry     beta= 0.70
     Davidson diagonalization with overlap

---- Real-time Memory Report at c_bands before calling an iterative solver
          1447 MiB given to the printing process from OS
             0 MiB allocation reported by mallinfo(arena+hblkhd)
        111601 MiB available memory on the node where the printing process lives
------------------
     ethr =  1.02E-04,  avg # of iterations =  2.2

     total cpu time spent up to now is      884.7 secs

     total energy              =  -16525.29950934 Ry
     estimated scf accuracy    <       0.35580265 Ry

     total magnetization       =     1.00 Bohr mag/cell
     absolute magnetization    =     1.32 Bohr mag/cell

     iteration #  6     ecut=    50.00 Ry     beta= 0.70
     Davidson diagonalization with overlap

---- Real-time Memory Report at c_bands before calling an iterative solver
          1447 MiB given to the printing process from OS
             0 MiB allocation reported by mallinfo(arena+hblkhd)
        111460 MiB available memory on the node where the printing process lives
------------------
     c_bands:  3 eigenvalues not converged
     c_bands:  4 eigenvalues not converged
     ethr =  3.66E-05,  avg # of iterations = 15.9

     total cpu time spent up to now is     1102.2 secs

     total energy              =  -16525.28784368 Ry
     estimated scf accuracy    <       1.14369633 Ry

     total magnetization       =    -0.00 Bohr mag/cell
     absolute magnetization    =     0.43 Bohr mag/cell

     iteration #  7     ecut=    50.00 Ry     beta= 0.70
     Davidson diagonalization with overlap

---- Real-time Memory Report at c_bands before calling an iterative solver
          1500 MiB given to the printing process from OS
             0 MiB allocation reported by mallinfo(arena+hblkhd)
        111032 MiB available memory on the node where the printing process lives
------------------
     c_bands:  1 eigenvalues not converged
     c_bands:  1 eigenvalues not converged
     ethr =  3.66E-05,  avg # of iterations = 16.2

     total cpu time spent up to now is     1300.6 secs

     total energy              =  -16525.32498547 Ry
     estimated scf accuracy    <       0.57347690 Ry

     total magnetization       =     0.00 Bohr mag/cell
     absolute magnetization    =     0.49 Bohr mag/cell

     iteration #  8     ecut=    50.00 Ry     beta= 0.70
     Davidson diagonalization with overlap

---- Real-time Memory Report at c_bands before calling an iterative solver
          1502 MiB given to the printing process from OS
             0 MiB allocation reported by mallinfo(arena+hblkhd)
        110836 MiB available memory on the node where the printing process lives
------------------
     ethr =  3.66E-05,  avg # of iterations = 12.5

     total cpu time spent up to now is     1447.3 secs

     total energy              =  -16525.35573657 Ry
     estimated scf accuracy    <       0.07476730 Ry

     total magnetization       =     0.45 Bohr mag/cell
     absolute magnetization    =     0.78 Bohr mag/cell

     iteration #  9     ecut=    50.00 Ry     beta= 0.70
     Davidson diagonalization with overlap

---- Real-time Memory Report at c_bands before calling an iterative solver
          1502 MiB given to the printing process from OS
             0 MiB allocation reported by mallinfo(arena+hblkhd)
        110918 MiB available memory on the node where the printing process lives
------------------
     c_bands:  1 eigenvalues not converged
     c_bands:  2 eigenvalues not converged
     c_bands:  1 eigenvalues not converged
     c_bands:  2 eigenvalues not converged
     ethr =  7.70E-06,  avg # of iterations = 15.2

     total cpu time spent up to now is     1628.0 secs

     total energy              =  -16525.36512918 Ry
     estimated scf accuracy    <       0.00688765 Ry

     total magnetization       =     1.00 Bohr mag/cell
     absolute magnetization    =     1.21 Bohr mag/cell

     iteration # 10     ecut=    50.00 Ry     beta= 0.70
     Davidson diagonalization with overlap

---- Real-time Memory Report at c_bands before calling an iterative solver
          1530 MiB given to the printing process from OS
             0 MiB allocation reported by mallinfo(arena+hblkhd)
        110476 MiB available memory on the node where the printing process lives
------------------
     c_bands:  1 eigenvalues not converged
     ethr =  7.09E-07,  avg # of iterations = 10.1

     total cpu time spent up to now is     1948.6 secs

     total energy              =  -16525.37226253 Ry
     estimated scf accuracy    <       0.00148723 Ry

     total magnetization       =     1.00 Bohr mag/cell
     absolute magnetization    =     1.20 Bohr mag/cell

     iteration # 11     ecut=    50.00 Ry     beta= 0.70
     Davidson diagonalization with overlap

---- Real-time Memory Report at c_bands before calling an iterative solver
          1534 MiB given to the printing process from OS
             0 MiB allocation reported by mallinfo(arena+hblkhd)
        110524 MiB available memory on the node where the printing process lives
------------------
     c_bands:  2 eigenvalues not converged
     c_bands:  4 eigenvalues not converged
     ethr =  1.53E-07,  avg # of iterations = 11.6

     total cpu time spent up to now is     2197.4 secs

     total energy              =  -16525.37274462 Ry
     estimated scf accuracy    <       0.00101502 Ry

     total magnetization       =     1.00 Bohr mag/cell
     absolute magnetization    =     1.20 Bohr mag/cell

     iteration # 12     ecut=    50.00 Ry     beta= 0.70
     Davidson diagonalization with overlap

---- Real-time Memory Report at c_bands before calling an iterative solver
          1546 MiB given to the printing process from OS
             0 MiB allocation reported by mallinfo(arena+hblkhd)
        110457 MiB available memory on the node where the printing process lives
------------------
     ethr =  1.05E-07,  avg # of iterations =  4.0

     total cpu time spent up to now is     2342.7 secs

     total energy              =  -16525.37271410 Ry
     estimated scf accuracy    <       0.00040197 Ry

     total magnetization       =     1.00 Bohr mag/cell
     absolute magnetization    =     1.19 Bohr mag/cell

     iteration # 13     ecut=    50.00 Ry     beta= 0.70
     Davidson diagonalization with overlap

---- Real-time Memory Report at c_bands before calling an iterative solver
          1546 MiB given to the printing process from OS
             0 MiB allocation reported by mallinfo(arena+hblkhd)
        110602 MiB available memory on the node where the printing process lives
------------------
     ethr =  4.14E-08,  avg # of iterations =  6.6

     total cpu time spent up to now is     2582.5 secs

     total energy              =  -16525.37287874 Ry
     estimated scf accuracy    <       0.00034068 Ry

     total magnetization       =     1.00 Bohr mag/cell
     absolute magnetization    =     1.19 Bohr mag/cell

     iteration # 14     ecut=    50.00 Ry     beta= 0.70
     Davidson diagonalization with overlap

---- Real-time Memory Report at c_bands before calling an iterative solver
          1546 MiB given to the printing process from OS
             0 MiB allocation reported by mallinfo(arena+hblkhd)
        110407 MiB available memory on the node where the printing process lives
------------------
     ethr =  3.51E-08,  avg # of iterations =  1.9

     total cpu time spent up to now is     2696.5 secs

     total energy              =  -16525.37285464 Ry
     estimated scf accuracy    <       0.00014333 Ry

     total magnetization       =     1.00 Bohr mag/cell
     absolute magnetization    =     1.19 Bohr mag/cell

     iteration # 15     ecut=    50.00 Ry     beta= 0.70
     Davidson diagonalization with overlap

---- Real-time Memory Report at c_bands before calling an iterative solver
          1546 MiB given to the printing process from OS
             0 MiB allocation reported by mallinfo(arena+hblkhd)
        110647 MiB available memory on the node where the printing process lives
------------------
     ethr =  1.48E-08,  avg # of iterations =  2.6

     total cpu time spent up to now is     2820.7 secs

     total energy              =  -16525.37285673 Ry
     estimated scf accuracy    <       0.00002521 Ry

     total magnetization       =     1.00 Bohr mag/cell
     absolute magnetization    =     1.19 Bohr mag/cell

     iteration # 16     ecut=    50.00 Ry     beta= 0.70
     Davidson diagonalization with overlap

---- Real-time Memory Report at c_bands before calling an iterative solver
          1546 MiB given to the printing process from OS
             0 MiB allocation reported by mallinfo(arena+hblkhd)
        110708 MiB available memory on the node where the printing process lives
------------------
     ethr =  2.60E-09,  avg # of iterations =  8.0

     total cpu time spent up to now is     3122.0 secs

     total energy              =  -16525.37288015 Ry
     estimated scf accuracy    <       0.00000995 Ry

     total magnetization       =     1.00 Bohr mag/cell
     absolute magnetization    =     1.19 Bohr mag/cell

     iteration # 17     ecut=    50.00 Ry     beta= 0.70
     Davidson diagonalization with overlap

---- Real-time Memory Report at c_bands before calling an iterative solver
          1564 MiB given to the printing process from OS
             0 MiB allocation reported by mallinfo(arena+hblkhd)
        110076 MiB available memory on the node where the printing process lives
------------------
     ethr =  1.02E-09,  avg # of iterations =  6.2

     total cpu time spent up to now is     3271.1 secs

     total energy              =  -16525.37288033 Ry
     estimated scf accuracy    <       0.00000864 Ry

     total magnetization       =     1.00 Bohr mag/cell
     absolute magnetization    =     1.19 Bohr mag/cell

     iteration # 18     ecut=    50.00 Ry     beta= 0.70
     Davidson diagonalization with overlap

---- Real-time Memory Report at c_bands before calling an iterative solver
          1564 MiB given to the printing process from OS
             0 MiB allocation reported by mallinfo(arena+hblkhd)
        110317 MiB available memory on the node where the printing process lives
------------------
     ethr =  8.90E-10,  avg # of iterations =  3.8

     total cpu time spent up to now is     3408.1 secs

     total energy              =  -16525.37288109 Ry
     estimated scf accuracy    <       0.00000360 Ry

     total magnetization       =     1.00 Bohr mag/cell
     absolute magnetization    =     1.19 Bohr mag/cell

     iteration # 19     ecut=    50.00 Ry     beta= 0.70
     Davidson diagonalization with overlap

---- Real-time Memory Report at c_bands before calling an iterative solver
          1564 MiB given to the printing process from OS
             0 MiB allocation reported by mallinfo(arena+hblkhd)
        110542 MiB available memory on the node where the printing process lives
------------------
     ethr =  3.71E-10,  avg # of iterations =  6.2

     total cpu time spent up to now is     3550.4 secs

     total energy              =  -16525.37288134 Ry
     estimated scf accuracy    <       0.00000127 Ry

     total magnetization       =     1.00 Bohr mag/cell
     absolute magnetization    =     1.19 Bohr mag/cell

     iteration # 20     ecut=    50.00 Ry     beta= 0.70
     Davidson diagonalization with overlap

---- Real-time Memory Report at c_bands before calling an iterative solver
          1564 MiB given to the printing process from OS
             0 MiB allocation reported by mallinfo(arena+hblkhd)
        109933 MiB available memory on the node where the printing process lives
------------------
     ethr =  1.31E-10,  avg # of iterations =  8.5

     total cpu time spent up to now is     3887.0 secs

     total energy              =  -16525.37288254 Ry
     estimated scf accuracy    <       0.00000082 Ry

     total magnetization       =     1.00 Bohr mag/cell
     absolute magnetization    =     1.19 Bohr mag/cell

     iteration # 21     ecut=    50.00 Ry     beta= 0.70
     Davidson diagonalization with overlap

---- Real-time Memory Report at c_bands before calling an iterative solver
          1564 MiB given to the printing process from OS
             0 MiB allocation reported by mallinfo(arena+hblkhd)
        110584 MiB available memory on the node where the printing process lives
------------------
