
     Program PWSCF v.7.3.1 starts on 30Aug2026 at  4:44:42 

     This program is part of the open-source Quantum ESPRESSO suite
     for quantum simulation of materials; please cite
         "P. Giannozzi et al., J. Phys.:Condens. Matter 21 395502 (2009);
         "P. Giannozzi et al., J. Phys.:Condens. Matter 29 465901 (2017);
         "P. Giannozzi et al., J. Chem. Phys. 152 154105 (2020);
          URL http://www.quantum-espresso.org", 
     in publications or presentations arising from this work. More details at
     http://www.quantum-espresso.org/quote

     Parallel version (MPI & OpenMP), running on      12 processor cores
     Number of MPI processes:                12
     Threads/MPI process:                     1

     MPI processes distributed on     1 nodes
     120100 MiB available memory on the printing compute node when the environment starts
 
     Waiting for input...
     Reading input from standard input

     Current dimensions of program PWSCF are:
     Max number of different atomic species (ntypx) = 10
     Max number of k-points (npk) =  40000
     Max angular momentum in pseudopotentials (lmaxx) =  4
     file C.pbe-n-kjpaw_psl.1.0.0.UPF: wavefunction(s)  2S 2P renormalized
 
     R & G space division:  proc/nbgrp/npool/nimage =      12
     Subspace diagonalization in iterative solution of the eigenvalue problem:
     a serial algorithm will be used

 
     Parallelization info
     --------------------
     sticks:   dense  smooth     PW     G-vecs:    dense   smooth      PW
     Min        2662    1065    265               358290    90709   11322
     Max        2663    1066    267               358295    90712   11326
     Sum       31949   12785   3189              4299501  1088527  135883
 
     Using Slab Decomposition
 


     bravais-lattice index     =            1
     lattice parameter (alat)  =      28.3459  a.u.
     unit-cell volume          =   22775.6289 (a.u.)^3
     number of atoms/cell      =            1
     number of atomic types    =            1
     number of electrons       =         4.00 (up:   3.00, down:   1.00)
     number of Kohn-Sham states=            3
     kinetic-energy cutoff     =      50.0000  Ry
     charge density cutoff     =     500.0000  Ry
     scf convergence threshold =      1.0E-08
     mixing beta               =       0.7000
     number of iterations used =            8  plain     mixing
     Exchange-correlation= SLA  PW   PBX  PBC
                           (   1   4   3   4   0   0   0)

     celldm(1)=  28.345892  celldm(2)=   0.000000  celldm(3)=   0.000000
     celldm(4)=   0.000000  celldm(5)=   0.000000  celldm(6)=   0.000000

     crystal axes: (cart. coord. in units of alat)
               a(1) = (   1.000000   0.000000   0.000000 )  
               a(2) = (   0.000000   1.000000   0.000000 )  
               a(3) = (   0.000000   0.000000   1.000000 )  

     reciprocal axes: (cart. coord. in units 2 pi/alat)
               b(1) = (  1.000000  0.000000  0.000000 )  
               b(2) = (  0.000000  1.000000  0.000000 )  
               b(3) = (  0.000000  0.000000  1.000000 )  


     PseudoPot. # 1 for C  read from file:
     /data-fast/greenano/Students/cohort2/rojassan/Project_GaN/PSEUDO/C.pbe-n-kjpaw_psl.1.0.0.UPF
     MD5 check sum: 6e4988b7a1fe6f06f65aa0569fb69d66
     Pseudo is Projector augmented-wave + core cor, Zval =  4.0
     Generated using 'atomic' code by A. Dal Corso  v.7.3.1
     Shape of augmentation charge: PSQ
     Using radial grid of 1073 points,  4 beta functions with: 
                l(1) =   0
                l(2) =   0
                l(3) =   1
                l(4) =   1
     Q(r) pseudized with 0 coefficients 


     atomic species   valence    mass     pseudopotential
     C                 4.00    12.01100     C ( 1.00)

     Starting magnetic structure 
     atomic species   magnetization
     C               0.000

     48 Sym. Ops., with inversion, found



   Cartesian axes

     site n.     atom                  positions (alat units)
         1        C      tau(   1) = (   0.0000000   0.0000000   0.0000000  )

     number of k points=     1
                       cart. coord. in units 2pi/alat
        k(    1) = (   0.0000000   0.0000000   0.0000000), wk =   1.0000000

     Dense  grid:  4299501 G-vectors     FFT dimensions: ( 216, 216, 216)

     Smooth grid:  1088527 G-vectors     FFT dimensions: ( 128, 128, 128)

     Estimated max dynamical RAM per process >     595.46 MB

     Estimated total dynamical RAM >       6.98 GB
     Generating pointlists ...
     new r_m :   0.4125 (alat units) 11.6927 (a.u.) for type    1

     Initial potential from superposition of free atoms

     starting charge       4.0000, renormalised to       4.0000

     negative rho (up, down):  3.019E-04 3.019E-04
     Starting wfcs are    4 randomized atomic wfcs
     Checking if some PAW data can be deallocated... 

     total cpu time spent up to now is        4.9 secs

     Self-consistent Calculation

     iteration #  1     ecut=    50.00 Ry     beta= 0.70
     Davidson diagonalization with overlap
     ethr =  1.00E-02,  avg # of iterations =  1.0

     Threshold (ethr) on eigenvalues was too large:
     Diagonalizing with lowered threshold

     Davidson diagonalization with overlap
     ethr =  6.57E-04,  avg # of iterations =  1.0

     negative rho (up, down):  3.662E-04 1.601E-04

     total cpu time spent up to now is        8.7 secs

     total energy              =     -17.84547683 Ry
     estimated scf accuracy    <       0.02632732 Ry

     total magnetization       =     2.00 Bohr mag/cell
     absolute magnetization    =     2.00 Bohr mag/cell

     iteration #  2     ecut=    50.00 Ry     beta= 0.70
     Davidson diagonalization with overlap
     ethr =  6.58E-04,  avg # of iterations =  1.0

     negative rho (up, down):  4.087E-04 1.662E-04

     total cpu time spent up to now is       11.4 secs

     total energy              =     -17.85588629 Ry
     estimated scf accuracy    <       0.00359223 Ry

     total magnetization       =     2.00 Bohr mag/cell
     absolute magnetization    =     2.00 Bohr mag/cell

     iteration #  3     ecut=    50.00 Ry     beta= 0.70
     Davidson diagonalization with overlap
     ethr =  8.98E-05,  avg # of iterations =  1.5

     negative rho (up, down):  4.078E-04 1.187E-04

     total cpu time spent up to now is       14.2 secs

     total energy              =     -17.85618443 Ry
     estimated scf accuracy    <       0.00003977 Ry

     total magnetization       =     2.00 Bohr mag/cell
     absolute magnetization    =     2.00 Bohr mag/cell

     iteration #  4     ecut=    50.00 Ry     beta= 0.70
     Davidson diagonalization with overlap
     ethr =  9.94E-07,  avg # of iterations =  2.5

     negative rho (up, down):  4.209E-04 1.064E-04

     total cpu time spent up to now is       17.0 secs

     total energy              =     -17.85621857 Ry
     estimated scf accuracy    <       0.00000444 Ry

     total magnetization       =     2.00 Bohr mag/cell
     absolute magnetization    =     2.00 Bohr mag/cell

     iteration #  5     ecut=    50.00 Ry     beta= 0.70
     Davidson diagonalization with overlap
     ethr =  1.11E-07,  avg # of iterations =  2.0

     negative rho (up, down):  4.240E-04 1.042E-04

     total cpu time spent up to now is       19.8 secs

     total energy              =     -17.85621999 Ry
     estimated scf accuracy    <       0.00000008 Ry

     total magnetization       =     2.00 Bohr mag/cell
     absolute magnetization    =     2.00 Bohr mag/cell

     iteration #  6     ecut=    50.00 Ry     beta= 0.70
     Davidson diagonalization with overlap
     ethr =  1.99E-09,  avg # of iterations =  2.0

     negative rho (up, down):  4.244E-04 1.037E-04

     total cpu time spent up to now is       22.7 secs

     total energy              =     -17.85622002 Ry
     estimated scf accuracy    <       0.00000002 Ry

     total magnetization       =     2.00 Bohr mag/cell
     absolute magnetization    =     2.00 Bohr mag/cell

     iteration #  7     ecut=    50.00 Ry     beta= 0.70
     Davidson diagonalization with overlap
     ethr =  5.97E-10,  avg # of iterations =  2.0

     negative rho (up, down):  4.247E-04 1.035E-04
 
     Magnetic moment per site  (integrated on atomic sphere of radius R)
     atom   1 (R=0.413)  charge=  4.0000  magn=  2.0000

     total cpu time spent up to now is       25.3 secs

     End of self-consistent calculation

 ------ SPIN UP ------------


          k = 0.0000 0.0000 0.0000 (135883 PWs)   bands (ev):

   -14.6079  -6.0599  -6.0599

 ------ SPIN DOWN ----------


          k = 0.0000 0.0000 0.0000 (135883 PWs)   bands (ev):

   -11.8483  -3.5734  -3.5734

     highest occupied, lowest unoccupied level (ev):    -6.0599   -3.5734

!    total energy              =     -17.85622003 Ry
     total all-electron energy =       -75.620317 Ry
     estimated scf accuracy    <          2.3E-09 Ry

     The total energy is the sum of the following terms:
     one-electron contribution =     -13.24329854 Ry
     hartree contribution      =       7.25575127 Ry
     xc contribution           =      -4.06956376 Ry
     ewald contribution        =      -1.60152871 Ry
     one-center paw contrib.   =      -6.19758029 Ry

     total magnetization       =     2.00 Bohr mag/cell
     absolute magnetization    =     2.00 Bohr mag/cell

     convergence has been achieved in   7 iterations

     Writing all to output data dir ./tmp/Ga_atom.save/ :
     XML data file, charge density, pseudopotentials, collected wavefunctions
 
     init_run     :      4.38s CPU      4.85s WALL (       1 calls)
     electrons    :     17.75s CPU     20.84s WALL (       1 calls)

     Called by init_run:
     wfcinit      :      0.07s CPU      0.08s WALL (       1 calls)
     potinit      :      1.30s CPU      1.46s WALL (       1 calls)
     hinit0       :      0.35s CPU      0.40s WALL (       1 calls)

     Called by electrons:
     c_bands      :      0.94s CPU      0.97s WALL (       8 calls)
     sum_band     :      5.89s CPU      6.93s WALL (       8 calls)
     v_of_rho     :      7.66s CPU      8.27s WALL (       8 calls)
     newd         :      2.31s CPU      3.48s WALL (       8 calls)
     PAW_pot      :      0.12s CPU      0.17s WALL (       8 calls)
     mix_rho      :      1.32s CPU      1.39s WALL (       8 calls)

     Called by c_bands:
     init_us_2    :      0.05s CPU      0.05s WALL (      34 calls)
     cegterg      :      0.89s CPU      0.91s WALL (      16 calls)

     Called by *egterg:
     cdiaghg      :      0.00s CPU      0.00s WALL (      40 calls)
     h_psi        :      0.89s CPU      0.92s WALL (      44 calls)
     s_psi        :      0.01s CPU      0.01s WALL (      44 calls)
     g_psi        :      0.00s CPU      0.00s WALL (      26 calls)

     Called by h_psi:
     h_psi:calbec :      0.02s CPU      0.02s WALL (      44 calls)
     vloc_psi     :      0.86s CPU      0.89s WALL (      44 calls)
     add_vuspsi   :      0.01s CPU      0.01s WALL (      44 calls)

     General routines
     calbec       :      0.03s CPU      0.03s WALL (      60 calls)
     fft          :      5.81s CPU      6.09s WALL (     196 calls)
     ffts         :      0.09s CPU      0.12s WALL (      32 calls)
     fftw         :      0.43s CPU      0.45s WALL (     298 calls)
     interpolate  :      0.56s CPU      0.63s WALL (      16 calls)
 
     Parallel routines
 
     PWSCF        :     22.38s CPU     26.63s WALL

 
   This run was terminated on:   4:45: 9  30Aug2026            

=------------------------------------------------------------------------------=
   JOB DONE.
=------------------------------------------------------------------------------=
