
     Program PWSCF v.7.3.1 starts on 30Aug2026 at  4:41: 6 

     This program is part of the open-source Quantum ESPRESSO suite
     for quantum simulation of materials; please cite
         "P. Giannozzi et al., J. Phys.:Condens. Matter 21 395502 (2009);
         "P. Giannozzi et al., J. Phys.:Condens. Matter 29 465901 (2017);
         "P. Giannozzi et al., J. Chem. Phys. 152 154105 (2020);
          URL http://www.quantum-espresso.org", 
     in publications or presentations arising from this work. More details at
     http://www.quantum-espresso.org/quote

     Parallel version (MPI & OpenMP), running on      12 processor cores
     Number of MPI processes:                12
     Threads/MPI process:                     1

     MPI processes distributed on     1 nodes
     120536 MiB available memory on the printing compute node when the environment starts
 
     Waiting for input...
     Reading input from standard input

     Current dimensions of program PWSCF are:
     Max number of different atomic species (ntypx) = 10
     Max number of k-points (npk) =  40000
     Max angular momentum in pseudopotentials (lmaxx) =  4
     file Ga.pbe-dn-kjpaw_psl.1.0.0.UPF: wavefunction(s)  4S renormalized
     Message from routine setup:
     the system is metallic, specify occupations
 
     R & G space division:  proc/nbgrp/npool/nimage =      12
     Subspace diagonalization in iterative solution of the eigenvalue problem:
     a serial algorithm will be used

 
     Parallelization info
     --------------------
     sticks:   dense  smooth     PW     G-vecs:    dense   smooth      PW
     Min        2662    1065    265               358290    90709   11322
     Max        2663    1066    267               358295    90712   11326
     Sum       31949   12785   3189              4299501  1088527  135883
 
     Using Slab Decomposition
 


     bravais-lattice index     =            1
     lattice parameter (alat)  =      28.3459  a.u.
     unit-cell volume          =   22775.6289 (a.u.)^3
     number of atoms/cell      =            1
     number of atomic types    =            1
     number of electrons       =        13.00 (up:   7.00, down:   6.00)
     number of Kohn-Sham states=            7
     kinetic-energy cutoff     =      50.0000  Ry
     charge density cutoff     =     500.0000  Ry
     scf convergence threshold =      1.0E-08
     mixing beta               =       0.7000
     number of iterations used =            8  plain     mixing
     Exchange-correlation= SLA  PW   PBX  PBC
                           (   1   4   3   4   0   0   0)

     celldm(1)=  28.345892  celldm(2)=   0.000000  celldm(3)=   0.000000
     celldm(4)=   0.000000  celldm(5)=   0.000000  celldm(6)=   0.000000

     crystal axes: (cart. coord. in units of alat)
               a(1) = (   1.000000   0.000000   0.000000 )  
               a(2) = (   0.000000   1.000000   0.000000 )  
               a(3) = (   0.000000   0.000000   1.000000 )  

     reciprocal axes: (cart. coord. in units 2 pi/alat)
               b(1) = (  1.000000  0.000000  0.000000 )  
               b(2) = (  0.000000  1.000000  0.000000 )  
               b(3) = (  0.000000  0.000000  1.000000 )  


     PseudoPot. # 1 for Ga read from file:
     /data-fast/greenano/Students/cohort2/rojassan/Project_GaN/PSEUDO/Ga.pbe-dn-kjpaw_psl.1.0.0.UPF
     MD5 check sum: 93aceff68ec27daa0acc11ebb2e245f0
     Pseudo is Projector augmented-wave + core cor, Zval = 13.0
     Generated using 'atomic' code by A. Dal Corso  v.7.3.1
     Shape of augmentation charge: PSQ
     Using radial grid of 1205 points,  6 beta functions with: 
                l(1) =   0
                l(2) =   0
                l(3) =   1
                l(4) =   1
                l(5) =   2
                l(6) =   2
     Q(r) pseudized with 0 coefficients 


     atomic species   valence    mass     pseudopotential
     Ga               13.00    69.72300     Ga( 1.00)

     Starting magnetic structure 
     atomic species   magnetization
     Ga              0.000

     48 Sym. Ops., with inversion, found



   Cartesian axes

     site n.     atom                  positions (alat units)
         1        Ga     tau(   1) = (   0.0000000   0.0000000   0.0000000  )

     number of k points=     1
                       cart. coord. in units 2pi/alat
        k(    1) = (   0.0000000   0.0000000   0.0000000), wk =   1.0000000

     Dense  grid:  4299501 G-vectors     FFT dimensions: ( 216, 216, 216)

     Smooth grid:  1088527 G-vectors     FFT dimensions: ( 128, 128, 128)

     Estimated max dynamical RAM per process >       1.35 GB

     Estimated total dynamical RAM >      16.20 GB
     Generating pointlists ...
     new r_m :   0.4125 (alat units) 11.6927 (a.u.) for type    1

     Initial potential from superposition of free atoms

     starting charge      12.9970, renormalised to      13.0000

     negative rho (up, down):  4.282E-04 4.282E-04
     Starting wfcs are    9 randomized atomic wfcs
     Checking if some PAW data can be deallocated... 

     total cpu time spent up to now is        6.8 secs

     Self-consistent Calculation

     iteration #  1     ecut=    50.00 Ry     beta= 0.70
     Davidson diagonalization with overlap
     ethr =  1.00E-02,  avg # of iterations =  1.0

     Threshold (ethr) on eigenvalues was too large:
     Diagonalizing with lowered threshold

     Davidson diagonalization with overlap
     ethr =  6.53E-06,  avg # of iterations =  3.5

     negative rho (up, down):  2.083E-04 3.789E-04

     total cpu time spent up to now is       17.5 secs

     total energy              =    -277.72491717 Ry
     estimated scf accuracy    <       0.00084641 Ry

     total magnetization       =     1.00 Bohr mag/cell
     absolute magnetization    =     1.00 Bohr mag/cell

     iteration #  2     ecut=    50.00 Ry     beta= 0.70
     Davidson diagonalization with overlap
     ethr =  6.51E-06,  avg # of iterations =  3.0

     negative rho (up, down):  1.930E-04 3.702E-04

     total cpu time spent up to now is       24.9 secs

     total energy              =    -277.72650874 Ry
     estimated scf accuracy    <       0.00009907 Ry

     total magnetization       =     1.00 Bohr mag/cell
     absolute magnetization    =     1.00 Bohr mag/cell

     iteration #  3     ecut=    50.00 Ry     beta= 0.70
     Davidson diagonalization with overlap
     ethr =  7.62E-07,  avg # of iterations =  4.5

     negative rho (up, down):  1.944E-04 3.735E-04

     total cpu time spent up to now is       32.6 secs

     total energy              =    -277.72661163 Ry
     estimated scf accuracy    <       0.00001373 Ry

     total magnetization       =     1.00 Bohr mag/cell
     absolute magnetization    =     1.00 Bohr mag/cell

     iteration #  4     ecut=    50.00 Ry     beta= 0.70
     Davidson diagonalization with overlap
     ethr =  1.06E-07,  avg # of iterations =  7.5

     negative rho (up, down):  1.985E-04 3.686E-04

     total cpu time spent up to now is       40.3 secs

     total energy              =    -277.72663037 Ry
     estimated scf accuracy    <       0.00001105 Ry

     total magnetization       =     1.00 Bohr mag/cell
     absolute magnetization    =     1.01 Bohr mag/cell

     iteration #  5     ecut=    50.00 Ry     beta= 0.70
     Davidson diagonalization with overlap
     ethr =  8.50E-08,  avg # of iterations =  5.5

     negative rho (up, down):  1.992E-04 3.738E-04

     total cpu time spent up to now is       47.9 secs

     total energy              =    -277.72663917 Ry
     estimated scf accuracy    <       0.00001643 Ry

     total magnetization       =     1.00 Bohr mag/cell
     absolute magnetization    =     1.01 Bohr mag/cell

     iteration #  6     ecut=    50.00 Ry     beta= 0.70
     Davidson diagonalization with overlap
     ethr =  8.50E-08,  avg # of iterations =  1.0

     negative rho (up, down):  1.992E-04 3.729E-04

     total cpu time spent up to now is       55.6 secs

     total energy              =    -277.72663651 Ry
     estimated scf accuracy    <       0.00000658 Ry

     total magnetization       =     1.00 Bohr mag/cell
     absolute magnetization    =     1.01 Bohr mag/cell

     iteration #  7     ecut=    50.00 Ry     beta= 0.70
     Davidson diagonalization with overlap
     ethr =  5.06E-08,  avg # of iterations =  5.0

     negative rho (up, down):  1.991E-04 3.717E-04

     total cpu time spent up to now is       63.2 secs

     total energy              =    -277.72663890 Ry
     estimated scf accuracy    <       0.00000308 Ry

     total magnetization       =     1.00 Bohr mag/cell
     absolute magnetization    =     1.01 Bohr mag/cell

     iteration #  8     ecut=    50.00 Ry     beta= 0.70
     Davidson diagonalization with overlap
     ethr =  2.37E-08,  avg # of iterations =  3.0

     negative rho (up, down):  1.990E-04 3.710E-04

     total cpu time spent up to now is       70.4 secs

     total energy              =    -277.72663908 Ry
     estimated scf accuracy    <       0.00000075 Ry

     total magnetization       =     1.00 Bohr mag/cell
     absolute magnetization    =     1.01 Bohr mag/cell

     iteration #  9     ecut=    50.00 Ry     beta= 0.70
     Davidson diagonalization with overlap
     ethr =  5.78E-09,  avg # of iterations =  3.5

     negative rho (up, down):  1.993E-04 3.709E-04

     total cpu time spent up to now is       77.9 secs

     total energy              =    -277.72663929 Ry
     estimated scf accuracy    <       0.00000008 Ry

     total magnetization       =     1.00 Bohr mag/cell
     absolute magnetization    =     1.01 Bohr mag/cell

     iteration # 10     ecut=    50.00 Ry     beta= 0.70
     Davidson diagonalization with overlap
     ethr =  6.39E-10,  avg # of iterations = 11.0

     negative rho (up, down):  1.996E-04 3.710E-04

     total cpu time spent up to now is       86.0 secs

     total energy              =    -277.72663940 Ry
     estimated scf accuracy    <       0.00000005 Ry

     total magnetization       =     1.00 Bohr mag/cell
     absolute magnetization    =     1.01 Bohr mag/cell

     iteration # 11     ecut=    50.00 Ry     beta= 0.70
     Davidson diagonalization with overlap
     ethr =  3.66E-10,  avg # of iterations =  1.0

     negative rho (up, down):  1.999E-04 3.710E-04

     total cpu time spent up to now is       93.4 secs

     total energy              =    -277.72663941 Ry
     estimated scf accuracy    <       0.00000002 Ry

     total magnetization       =     1.00 Bohr mag/cell
     absolute magnetization    =     1.01 Bohr mag/cell

     iteration # 12     ecut=    50.00 Ry     beta= 0.70
     Davidson diagonalization with overlap
     ethr =  1.58E-10,  avg # of iterations = 11.0

     negative rho (up, down):  1.997E-04 3.707E-04

     total cpu time spent up to now is      102.4 secs

     total energy              =    -277.72663939 Ry
     estimated scf accuracy    <       0.00000037 Ry

     total magnetization       =     1.00 Bohr mag/cell
     absolute magnetization    =     1.01 Bohr mag/cell

     iteration # 13     ecut=    50.00 Ry     beta= 0.70
     Davidson diagonalization with overlap
     ethr =  1.58E-10,  avg # of iterations =  6.5

     negative rho (up, down):  1.997E-04 3.708E-04

     total cpu time spent up to now is      111.4 secs

     total energy              =    -277.72663940 Ry
     estimated scf accuracy    <       0.00000005 Ry

     total magnetization       =     1.00 Bohr mag/cell
     absolute magnetization    =     1.01 Bohr mag/cell

     iteration # 14     ecut=    50.00 Ry     beta= 0.70
     Davidson diagonalization with overlap
     ethr =  1.58E-10,  avg # of iterations =  1.0

     negative rho (up, down):  1.997E-04 3.708E-04

     total cpu time spent up to now is      118.7 secs

     total energy              =    -277.72663941 Ry
     estimated scf accuracy    <       0.00000002 Ry

     total magnetization       =     1.00 Bohr mag/cell
     absolute magnetization    =     1.01 Bohr mag/cell

     iteration # 15     ecut=    50.00 Ry     beta= 0.70
     Davidson diagonalization with overlap
     ethr =  1.58E-10,  avg # of iterations =  1.0

     negative rho (up, down):  1.997E-04 3.708E-04

     total cpu time spent up to now is      126.1 secs

     total energy              =    -277.72663940 Ry
     estimated scf accuracy    <       0.00000002 Ry

     total magnetization       =     1.00 Bohr mag/cell
     absolute magnetization    =     1.01 Bohr mag/cell

     iteration # 16     ecut=    50.00 Ry     beta= 0.70
     Davidson diagonalization with overlap
     ethr =  1.58E-10,  avg # of iterations =  4.0

     negative rho (up, down):  1.998E-04 3.709E-04
 
     Magnetic moment per site  (integrated on atomic sphere of radius R)
     atom   1 (R=0.413)  charge= 12.9998  magn=  0.9998

     total cpu time spent up to now is      133.4 secs

     End of self-consistent calculation

 ------ SPIN UP ------------


          k = 0.0000 0.0000 0.0000 (135883 PWs)   bands (ev):

   -19.0008 -19.0008 -19.0008 -19.0008 -19.0008  -9.1295  -2.7822

 ------ SPIN DOWN ----------


          k = 0.0000 0.0000 0.0000 (135883 PWs)   bands (ev):

   -18.9386 -18.9386 -18.9386 -18.9386 -18.9386  -8.4353  -2.0222

     highest occupied, lowest unoccupied level (ev):    -2.7822   -2.0222

!    total energy              =    -277.72663940 Ry
     total all-electron energy =     -3887.891300 Ry
     estimated scf accuracy    <          8.4E-11 Ry

     The total energy is the sum of the following terms:
     one-electron contribution =    -238.61255067 Ry
     hartree contribution      =     126.52332587 Ry
     xc contribution           =     -37.80934878 Ry
     ewald contribution        =     -16.91614701 Ry
     one-center paw contrib.   =    -110.91191880 Ry

     total magnetization       =     1.00 Bohr mag/cell
     absolute magnetization    =     1.01 Bohr mag/cell

     convergence has been achieved in  16 iterations

     Writing all to output data dir ./tmp/Ga_atom.save/ :
     XML data file, charge density, pseudopotentials, collected wavefunctions
 
     init_run     :      5.51s CPU      6.66s WALL (       1 calls)
     electrons    :    104.58s CPU    127.58s WALL (       1 calls)

     Called by init_run:
     wfcinit      :      0.14s CPU      0.15s WALL (       1 calls)
     potinit      :      1.35s CPU      1.62s WALL (       1 calls)
     hinit0       :      0.36s CPU      0.42s WALL (       1 calls)

     Called by electrons:
     c_bands      :      7.22s CPU      7.38s WALL (      17 calls)
     sum_band     :     53.71s CPU     64.30s WALL (      17 calls)
     v_of_rho     :     17.50s CPU     18.82s WALL (      17 calls)
     newd         :     21.48s CPU     32.17s WALL (      17 calls)
     PAW_pot      :      1.23s CPU      1.31s WALL (      17 calls)
     mix_rho      :      3.87s CPU      4.07s WALL (      17 calls)

     Called by c_bands:
     init_us_2    :      0.24s CPU      0.24s WALL (      70 calls)
     cegterg      :      6.88s CPU      7.03s WALL (      34 calls)

     Called by *egterg:
     cdiaghg      :      0.02s CPU      0.02s WALL (     178 calls)
     h_psi        :      6.34s CPU      6.49s WALL (     182 calls)
     s_psi        :      0.07s CPU      0.07s WALL (     182 calls)
     g_psi        :      0.02s CPU      0.02s WALL (     146 calls)

     Called by h_psi:
     h_psi:calbec :      0.16s CPU      0.16s WALL (     182 calls)
     vloc_psi     :      6.01s CPU      6.15s WALL (     182 calls)
     add_vuspsi   :      0.13s CPU      0.13s WALL (     182 calls)

     General routines
     calbec       :      0.19s CPU      0.20s WALL (     216 calls)
     fft          :     13.06s CPU     13.94s WALL (     421 calls)
     ffts         :      0.22s CPU      0.30s WALL (      68 calls)
     fftw         :      3.00s CPU      3.08s WALL (    1996 calls)
     interpolate  :      1.22s CPU      1.37s WALL (      34 calls)
 
     Parallel routines
 
     PWSCF        :   1m50.42s CPU   2m17.85s WALL

 
   This run was terminated on:   4:43:24  30Aug2026            

=------------------------------------------------------------------------------=
   JOB DONE.
=------------------------------------------------------------------------------=
