
     Program PWSCF v.7.3.1 starts on 30Aug2026 at  4:47:20 

     This program is part of the open-source Quantum ESPRESSO suite
     for quantum simulation of materials; please cite
         "P. Giannozzi et al., J. Phys.:Condens. Matter 21 395502 (2009);
         "P. Giannozzi et al., J. Phys.:Condens. Matter 29 465901 (2017);
         "P. Giannozzi et al., J. Chem. Phys. 152 154105 (2020);
          URL http://www.quantum-espresso.org", 
     in publications or presentations arising from this work. More details at
     http://www.quantum-espresso.org/quote

     Parallel version (MPI & OpenMP), running on      12 processor cores
     Number of MPI processes:                12
     Threads/MPI process:                     1

     MPI processes distributed on     1 nodes
     120127 MiB available memory on the printing compute node when the environment starts
 
     Waiting for input...
     Reading input from standard input

     Current dimensions of program PWSCF are:
     Max number of different atomic species (ntypx) = 10
     Max number of k-points (npk) =  40000
     Max angular momentum in pseudopotentials (lmaxx) =  4
     file Ga.pbe-dn-kjpaw_psl.1.0.0.UPF: wavefunction(s)  4S renormalized
     file N.pbe-n-kjpaw_psl.1.0.0.UPF: wavefunction(s)  2S renormalized
 
     R & G space division:  proc/nbgrp/npool/nimage =      12
     Subspace diagonalization in iterative solution of the eigenvalue problem:
     a serial algorithm will be used

 
     Parallelization info
     --------------------
     sticks:   dense  smooth     PW     G-vecs:    dense   smooth      PW
     Min         107      42     13                 5013     1274     220
     Max         108      43     15                 5016     1279     223
     Sum        1285     511    163                60167    15303    2671
 
     Using Slab Decomposition
 


     bravais-lattice index     =            4
     lattice parameter (alat)  =       6.0849  a.u.
     unit-cell volume          =     318.1254 (a.u.)^3
     number of atoms/cell      =            4
     number of atomic types    =            2
     number of electrons       =        36.00
     number of Kohn-Sham states=           22
     kinetic-energy cutoff     =      50.0000  Ry
     charge density cutoff     =     500.0000  Ry
     scf convergence threshold =      1.0E-08
     mixing beta               =       0.7000
     number of iterations used =            8  plain     mixing
     Exchange-correlation= SLA  PW   PBX  PBC
                           (   1   4   3   4   0   0   0)

     celldm(1)=   6.084918  celldm(2)=   0.000000  celldm(3)=   1.630435
     celldm(4)=   0.000000  celldm(5)=   0.000000  celldm(6)=   0.000000

     crystal axes: (cart. coord. in units of alat)
               a(1) = (   1.000000   0.000000   0.000000 )  
               a(2) = (  -0.500000   0.866025   0.000000 )  
               a(3) = (   0.000000   0.000000   1.630435 )  

     reciprocal axes: (cart. coord. in units 2 pi/alat)
               b(1) = (  1.000000  0.577350  0.000000 )  
               b(2) = (  0.000000  1.154701  0.000000 )  
               b(3) = (  0.000000  0.000000  0.613333 )  


     PseudoPot. # 1 for Ga read from file:
     /data-fast/greenano/Students/cohort2/rojassan/Project_GaN/PSEUDO/Ga.pbe-dn-kjpaw_psl.1.0.0.UPF
     MD5 check sum: 93aceff68ec27daa0acc11ebb2e245f0
     Pseudo is Projector augmented-wave + core cor, Zval = 13.0
     Generated using 'atomic' code by A. Dal Corso  v.7.3.1
     Shape of augmentation charge: PSQ
     Using radial grid of 1205 points,  6 beta functions with: 
                l(1) =   0
                l(2) =   0
                l(3) =   1
                l(4) =   1
                l(5) =   2
                l(6) =   2
     Q(r) pseudized with 0 coefficients 


     PseudoPot. # 2 for N  read from file:
     /data-fast/greenano/Students/cohort2/rojassan/Project_GaN/PSEUDO/N.pbe-n-kjpaw_psl.1.0.0.UPF
     MD5 check sum: 86f48117b7e7b472c01f85d0863ba463
     Pseudo is Projector augmented-wave + core cor, Zval =  5.0
     Generated using 'atomic' code by A. Dal Corso  v.7.3.1
     Shape of augmentation charge: PSQ
     Using radial grid of 1085 points,  4 beta functions with: 
                l(1) =   0
                l(2) =   0
                l(3) =   1
                l(4) =   1
     Q(r) pseudized with 0 coefficients 


     atomic species   valence    mass     pseudopotential
     Ga               13.00    69.72300     Ga( 1.00)
     N                 5.00    14.00700     N ( 1.00)

     12 Sym. Ops. (no inversion) found ( 6 have fractional translation)


                                    s                        frac. trans.

      isym =  1     identity                                     

 cryst.   s( 1) = (     1          0          0      )
                  (     0          1          0      )
                  (     0          0          1      )

 cart.    s( 1) = (  1.0000000  0.0000000  0.0000000 )
                  (  0.0000000  1.0000000  0.0000000 )
                  (  0.0000000  0.0000000  1.0000000 )


      isym =  2     180 deg rotation - cart. axis [0,0,1]        

 cryst.   s( 2) = (    -1          0          0      )    f =(  0.0000000 )
                  (     0         -1          0      )       (  0.0000000 )
                  (     0          0          1      )       ( -0.5000000 )

 cart.    s( 2) = ( -1.0000000  0.0000000  0.0000000 )    f =(  0.0000000 )
                  (  0.0000000 -1.0000000  0.0000000 )       (  0.0000000 )
                  (  0.0000000  0.0000000  1.0000000 )       ( -0.8152174 )


      isym =  3      60 deg rotation - cryst. axis [0,0,1]       

 cryst.   s( 3) = (     1          1          0      )    f =(  0.0000000 )
                  (    -1          0          0      )       (  0.0000000 )
                  (     0          0          1      )       ( -0.5000000 )

 cart.    s( 3) = (  0.5000000 -0.8660254  0.0000000 )    f =(  0.0000000 )
                  (  0.8660254  0.5000000  0.0000000 )       (  0.0000000 )
                  (  0.0000000  0.0000000  1.0000000 )       ( -0.8152174 )


      isym =  4      60 deg rotation - cryst. axis [0,0,-1]      

 cryst.   s( 4) = (     0         -1          0      )    f =(  0.0000000 )
                  (     1          1          0      )       (  0.0000000 )
                  (     0          0          1      )       ( -0.5000000 )

 cart.    s( 4) = (  0.5000000  0.8660254  0.0000000 )    f =( -0.0000000 )
                  ( -0.8660254  0.5000000  0.0000000 )       (  0.0000000 )
                  (  0.0000000  0.0000000  1.0000000 )       ( -0.8152174 )


      isym =  5     120 deg rotation - cryst. axis [0,0,1]       

 cryst.   s( 5) = (     0          1          0      )
                  (    -1         -1          0      )
                  (     0          0          1      )

 cart.    s( 5) = ( -0.5000000 -0.8660254  0.0000000 )
                  (  0.8660254 -0.5000000  0.0000000 )
                  (  0.0000000  0.0000000  1.0000000 )


      isym =  6     120 deg rotation - cryst. axis [0,0,-1]      

 cryst.   s( 6) = (    -1         -1          0      )
                  (     1          0          0      )
                  (     0          0          1      )

 cart.    s( 6) = ( -0.5000000  0.8660254  0.0000000 )
                  ( -0.8660254 -0.5000000  0.0000000 )
                  (  0.0000000  0.0000000  1.0000000 )


      isym =  7     inv. 180 deg rotation - cart. axis [0,1,0]   

 cryst.   s( 7) = (     1          0          0      )    f =(  0.0000000 )
                  (    -1         -1          0      )       (  0.0000000 )
                  (     0          0          1      )       ( -0.5000000 )

 cart.    s( 7) = (  1.0000000  0.0000000  0.0000000 )    f =( -0.0000000 )
                  (  0.0000000 -1.0000000  0.0000000 )       (  0.0000000 )
                  (  0.0000000  0.0000000  1.0000000 )       ( -0.8152174 )


      isym =  8     inv. 180 deg rotation - cart. axis [1,0,0]   

 cryst.   s( 8) = (    -1          0          0      )
                  (     1          1          0      )
                  (     0          0          1      )

 cart.    s( 8) = ( -1.0000000  0.0000000  0.0000000 )
                  (  0.0000000  1.0000000  0.0000000 )
                  (  0.0000000  0.0000000  1.0000000 )


      isym =  9     inv. 180 deg rotation - cryst. axis [1,-1,0] 

 cryst.   s( 9) = (     0          1          0      )    f =(  0.0000000 )
                  (     1          0          0      )       (  0.0000000 )
                  (     0          0          1      )       ( -0.5000000 )

 cart.    s( 9) = ( -0.5000000  0.8660254  0.0000000 )    f =(  0.0000000 )
                  (  0.8660254  0.5000000  0.0000000 )       (  0.0000000 )
                  (  0.0000000  0.0000000  1.0000000 )       ( -0.8152174 )


      isym = 10     inv. 180 deg rotation - cryst. axis [2,1,0]  

 cryst.   s(10) = (    -1         -1          0      )    f =(  0.0000000 )
                  (     0          1          0      )       (  0.0000000 )
                  (     0          0          1      )       ( -0.5000000 )

 cart.    s(10) = ( -0.5000000 -0.8660254  0.0000000 )    f =(  0.0000000 )
                  ( -0.8660254  0.5000000  0.0000000 )       (  0.0000000 )
                  (  0.0000000  0.0000000  1.0000000 )       ( -0.8152174 )


      isym = 11     inv. 180 deg rotation - cryst. axis [0,1,0]  

 cryst.   s(11) = (     1          1          0      )
                  (     0         -1          0      )
                  (     0          0          1      )

 cart.    s(11) = (  0.5000000  0.8660254  0.0000000 )
                  (  0.8660254 -0.5000000  0.0000000 )
                  (  0.0000000  0.0000000  1.0000000 )


      isym = 12     inv. 180 deg rotation - cryst. axis [1,1,0]  

 cryst.   s(12) = (     0         -1          0      )
                  (    -1          0          0      )
                  (     0          0          1      )

 cart.    s(12) = (  0.5000000 -0.8660254  0.0000000 )
                  ( -0.8660254 -0.5000000  0.0000000 )
                  (  0.0000000  0.0000000  1.0000000 )


     point group C_6v (6mm) 
     there are  6 classes
     the character table:

       E     2C6   2C3   C2    3s_v  3s_d 
A_1    1.00  1.00  1.00  1.00  1.00  1.00
A_2    1.00  1.00  1.00  1.00 -1.00 -1.00
B_1    1.00 -1.00  1.00 -1.00  1.00 -1.00
B_2    1.00 -1.00  1.00 -1.00 -1.00  1.00
E_1    2.00  1.00 -1.00 -2.00  0.00  0.00
E_2    2.00 -1.00 -1.00  2.00  0.00  0.00

     the symmetry operations in each class and the name of the first element:

     E        1
          identity                                               
     2C6      3    4
           60 deg rotation - cryst. axis [0,0,1]                 
     2C3      5    6
          120 deg rotation - cryst. axis [0,0,1]                 
     C2       2
          180 deg rotation - cart. axis [0,0,1]                  
     3s_v     8   12   11
          inv. 180 deg rotation - cart. axis [1,0,0]             
     3s_d     7    9   10
          inv. 180 deg rotation - cart. axis [0,1,0]             

   Cartesian axes

     site n.     atom                  positions (alat units)
         1        Ga     tau(   1) = (   0.0000000   0.5773503   0.0000000  )
         2        Ga     tau(   2) = (   0.5000000   0.2886751   0.8152174  )
         3        N      tau(   3) = (   0.0000000   0.5773503   0.6136663  )
         4        N      tau(   4) = (   0.5000000   0.2886751   1.4288837  )

   Crystallographic axes

     site n.     atom                  positions (cryst. coord.)
         1        Ga     tau(   1) = (  0.3333333  0.6666667  0.0000000  )
         2        Ga     tau(   2) = (  0.6666667  0.3333333  0.5000000  )
         3        N      tau(   3) = (  0.3333333  0.6666667  0.3763820  )
         4        N      tau(   4) = (  0.6666667  0.3333333  0.8763820  )

     number of k points=    12
                       cart. coord. in units 2pi/alat
        k(    1) = (   0.1250000   0.2165064   0.1022222), wk =   0.1666667
        k(    2) = (   0.1250000   0.2165064  -0.3066667), wk =   0.0833333
        k(    3) = (   0.1250000   0.5051815   0.1022222), wk =   0.3333333
        k(    4) = (   0.1250000   0.5051815  -0.3066667), wk =   0.1666667
        k(    5) = (   0.1250000  -0.3608439   0.1022222), wk =   0.3333333
        k(    6) = (   0.1250000  -0.3608439  -0.3066667), wk =   0.1666667
        k(    7) = (   0.1250000  -0.0721688   0.1022222), wk =   0.1666667
        k(    8) = (   0.1250000  -0.0721688  -0.3066667), wk =   0.0833333
        k(    9) = (   0.3750000   0.6495191   0.1022222), wk =   0.1666667
        k(   10) = (   0.3750000   0.6495191  -0.3066667), wk =   0.0833333
        k(   11) = (   0.3750000  -0.2165064   0.1022222), wk =   0.1666667
        k(   12) = (   0.3750000  -0.2165064  -0.3066667), wk =   0.0833333

                       cryst. coord.
        k(    1) = (   0.1250000   0.1250000   0.1666667), wk =   0.1666667
        k(    2) = (   0.1250000   0.1250000  -0.5000000), wk =   0.0833333
        k(    3) = (   0.1250000   0.3750000   0.1666667), wk =   0.3333333
        k(    4) = (   0.1250000   0.3750000  -0.5000000), wk =   0.1666667
        k(    5) = (   0.1250000  -0.3750000   0.1666667), wk =   0.3333333
        k(    6) = (   0.1250000  -0.3750000  -0.5000000), wk =   0.1666667
        k(    7) = (   0.1250000  -0.1250000   0.1666667), wk =   0.1666667
        k(    8) = (   0.1250000  -0.1250000  -0.5000000), wk =   0.0833333
        k(    9) = (   0.3750000   0.3750000   0.1666667), wk =   0.1666667
        k(   10) = (   0.3750000   0.3750000  -0.5000000), wk =   0.0833333
        k(   11) = (   0.3750000  -0.3750000   0.1666667), wk =   0.1666667
        k(   12) = (   0.3750000  -0.3750000  -0.5000000), wk =   0.0833333

     Dense  grid:    60167 G-vectors     FFT dimensions: (  45,  45,  72)

     Smooth grid:    15303 G-vectors     FFT dimensions: (  27,  27,  48)

     Dynamical RAM for                 wfc:       0.05 MB

     Dynamical RAM for     wfc (w. buffer):       0.69 MB

     Dynamical RAM for           str. fact:       0.15 MB

     Dynamical RAM for           local pot:       0.00 MB

     Dynamical RAM for          nlocal pot:       0.13 MB

     Dynamical RAM for                qrad:       3.59 MB

     Dynamical RAM for          rho,v,vnew:       0.51 MB

     Dynamical RAM for               rhoin:       0.17 MB

     Dynamical RAM for            rho*nmix:       1.22 MB

     Dynamical RAM for           G-vectors:       0.30 MB

     Dynamical RAM for          h,s,v(r/c):       0.09 MB

     Dynamical RAM for          <psi|beta>:       0.02 MB

     Dynamical RAM for                 psi:       0.11 MB

     Dynamical RAM for                hpsi:       0.11 MB

     Dynamical RAM for                spsi:       0.11 MB

     Dynamical RAM for      wfcinit/wfcrot:       0.14 MB

     Dynamical RAM for           addusdens:      14.39 MB

     Dynamical RAM for          addusforce:      14.59 MB

     Dynamical RAM for         addusstress:      15.38 MB

     Estimated static dynamical RAM per process >       6.22 MB

     Estimated max dynamical RAM per process >      22.83 MB

     Estimated total dynamical RAM >     273.95 MB

     Initial potential from superposition of free atoms

     starting charge      35.9941, renormalised to      36.0000
     Starting wfcs are   26 randomized atomic wfcs
     Checking if some PAW data can be deallocated... 
       PAW data deallocated on    6 nodes for type:  1
       PAW data deallocated on    6 nodes for type:  2

     total cpu time spent up to now is        0.4 secs

     Self-consistent Calculation

     iteration #  1     ecut=    50.00 Ry     beta= 0.70
     Davidson diagonalization with overlap

---- Real-time Memory Report at c_bands before calling an iterative solver
           140 MiB given to the printing process from OS
             0 MiB allocation reported by mallinfo(arena+hblkhd)
        119691 MiB available memory on the node where the printing process lives
------------------
     ethr =  1.00E-02,  avg # of iterations =  2.2

     total cpu time spent up to now is        0.7 secs

     total energy              =    -611.67154523 Ry
     estimated scf accuracy    <       1.11657344 Ry

     iteration #  2     ecut=    50.00 Ry     beta= 0.70
     Davidson diagonalization with overlap

---- Real-time Memory Report at c_bands before calling an iterative solver
           155 MiB given to the printing process from OS
             0 MiB allocation reported by mallinfo(arena+hblkhd)
        119625 MiB available memory on the node where the printing process lives
------------------
     ethr =  3.10E-03,  avg # of iterations =  5.5

     total cpu time spent up to now is        1.0 secs

     total energy              =    -612.12558641 Ry
     estimated scf accuracy    <       1.40108932 Ry

     iteration #  3     ecut=    50.00 Ry     beta= 0.70
     Davidson diagonalization with overlap

---- Real-time Memory Report at c_bands before calling an iterative solver
           160 MiB given to the printing process from OS
             0 MiB allocation reported by mallinfo(arena+hblkhd)
        119601 MiB available memory on the node where the printing process lives
------------------
     ethr =  3.10E-03,  avg # of iterations =  2.0

     total cpu time spent up to now is        1.2 secs

     total energy              =    -612.38537114 Ry
     estimated scf accuracy    <       0.02543163 Ry

     iteration #  4     ecut=    50.00 Ry     beta= 0.70
     Davidson diagonalization with overlap

---- Real-time Memory Report at c_bands before calling an iterative solver
           161 MiB given to the printing process from OS
             0 MiB allocation reported by mallinfo(arena+hblkhd)
        119601 MiB available memory on the node where the printing process lives
------------------
     ethr =  7.06E-05,  avg # of iterations = 10.4

     total cpu time spent up to now is        1.6 secs

     total energy              =    -612.42512916 Ry
     estimated scf accuracy    <       0.01326838 Ry

     iteration #  5     ecut=    50.00 Ry     beta= 0.70
     Davidson diagonalization with overlap

---- Real-time Memory Report at c_bands before calling an iterative solver
           162 MiB given to the printing process from OS
             0 MiB allocation reported by mallinfo(arena+hblkhd)
        119599 MiB available memory on the node where the printing process lives
------------------
     ethr =  3.69E-05,  avg # of iterations =  2.2

     total cpu time spent up to now is        1.9 secs

     total energy              =    -612.42387893 Ry
     estimated scf accuracy    <       0.00725948 Ry

     iteration #  6     ecut=    50.00 Ry     beta= 0.70
     Davidson diagonalization with overlap

---- Real-time Memory Report at c_bands before calling an iterative solver
           163 MiB given to the printing process from OS
             0 MiB allocation reported by mallinfo(arena+hblkhd)
        119597 MiB available memory on the node where the printing process lives
------------------
     ethr =  2.02E-05,  avg # of iterations =  2.6

     total cpu time spent up to now is        2.1 secs

     total energy              =    -612.42398437 Ry
     estimated scf accuracy    <       0.00143856 Ry

     iteration #  7     ecut=    50.00 Ry     beta= 0.70
     Davidson diagonalization with overlap

---- Real-time Memory Report at c_bands before calling an iterative solver
           164 MiB given to the printing process from OS
             0 MiB allocation reported by mallinfo(arena+hblkhd)
        119593 MiB available memory on the node where the printing process lives
------------------
     ethr =  4.00E-06,  avg # of iterations =  6.2

     total cpu time spent up to now is        2.4 secs

     total energy              =    -612.42441268 Ry
     estimated scf accuracy    <       0.00019847 Ry

     iteration #  8     ecut=    50.00 Ry     beta= 0.70
     Davidson diagonalization with overlap

---- Real-time Memory Report at c_bands before calling an iterative solver
           164 MiB given to the printing process from OS
             0 MiB allocation reported by mallinfo(arena+hblkhd)
        119591 MiB available memory on the node where the printing process lives
------------------
     ethr =  5.51E-07,  avg # of iterations =  5.7

     total cpu time spent up to now is        2.7 secs

     total energy              =    -612.42451297 Ry
     estimated scf accuracy    <       0.00003050 Ry

     iteration #  9     ecut=    50.00 Ry     beta= 0.70
     Davidson diagonalization with overlap

---- Real-time Memory Report at c_bands before calling an iterative solver
           166 MiB given to the printing process from OS
             0 MiB allocation reported by mallinfo(arena+hblkhd)
        119591 MiB available memory on the node where the printing process lives
------------------
     ethr =  8.47E-08,  avg # of iterations =  5.3

     total cpu time spent up to now is        3.0 secs

     total energy              =    -612.42452764 Ry
     estimated scf accuracy    <       0.00001858 Ry

     iteration # 10     ecut=    50.00 Ry     beta= 0.70
     Davidson diagonalization with overlap

---- Real-time Memory Report at c_bands before calling an iterative solver
           167 MiB given to the printing process from OS
             0 MiB allocation reported by mallinfo(arena+hblkhd)
        119590 MiB available memory on the node where the printing process lives
------------------
     ethr =  5.16E-08,  avg # of iterations =  1.5

     total cpu time spent up to now is        3.2 secs

     total energy              =    -612.42452647 Ry
     estimated scf accuracy    <       0.00001061 Ry

     iteration # 11     ecut=    50.00 Ry     beta= 0.70
     Davidson diagonalization with overlap

---- Real-time Memory Report at c_bands before calling an iterative solver
           167 MiB given to the printing process from OS
             0 MiB allocation reported by mallinfo(arena+hblkhd)
        119590 MiB available memory on the node where the printing process lives
------------------
     ethr =  2.95E-08,  avg # of iterations =  2.6

     total cpu time spent up to now is        3.5 secs

     total energy              =    -612.42452766 Ry
     estimated scf accuracy    <       0.00001192 Ry

     iteration # 12     ecut=    50.00 Ry     beta= 0.70
     Davidson diagonalization with overlap

---- Real-time Memory Report at c_bands before calling an iterative solver
           168 MiB given to the printing process from OS
             0 MiB allocation reported by mallinfo(arena+hblkhd)
        119590 MiB available memory on the node where the printing process lives
------------------
     ethr =  2.95E-08,  avg # of iterations =  1.2

     total cpu time spent up to now is        3.7 secs

     total energy              =    -612.42452796 Ry
     estimated scf accuracy    <       0.00000042 Ry

     iteration # 13     ecut=    50.00 Ry     beta= 0.70
     Davidson diagonalization with overlap

---- Real-time Memory Report at c_bands before calling an iterative solver
           169 MiB given to the printing process from OS
             0 MiB allocation reported by mallinfo(arena+hblkhd)
        119590 MiB available memory on the node where the printing process lives
------------------
     ethr =  1.15E-09,  avg # of iterations = 10.8

     total cpu time spent up to now is        4.2 secs

     total energy              =    -612.42452893 Ry
     estimated scf accuracy    <       0.00000006 Ry

     iteration # 14     ecut=    50.00 Ry     beta= 0.70
     Davidson diagonalization with overlap

---- Real-time Memory Report at c_bands before calling an iterative solver
           170 MiB given to the printing process from OS
             0 MiB allocation reported by mallinfo(arena+hblkhd)
        119589 MiB available memory on the node where the printing process lives
------------------
     ethr =  1.71E-10,  avg # of iterations =  5.4

     total cpu time spent up to now is        4.4 secs

     total energy              =    -612.42452895 Ry
     estimated scf accuracy    <       0.00000003 Ry

     iteration # 15     ecut=    50.00 Ry     beta= 0.70
     Davidson diagonalization with overlap

---- Real-time Memory Report at c_bands before calling an iterative solver
           171 MiB given to the printing process from OS
             0 MiB allocation reported by mallinfo(arena+hblkhd)
        119590 MiB available memory on the node where the printing process lives
------------------
     ethr =  9.06E-11,  avg # of iterations =  3.8

     total cpu time spent up to now is        4.6 secs

     End of self-consistent calculation

          k = 0.1250 0.2165 0.1022 (  1885 PWs)   bands (ev):

    -6.0497  -5.6004  -4.1436  -4.1332  -4.0859  -4.0733  -3.9925  -3.9466
    -3.9172  -3.9138  -3.8406  -2.5532   3.3413   6.2525   6.4138   7.5233
     8.6041   8.6846  13.2898  15.2698  16.8984  17.2034

     occupation numbers 
     1.0000   1.0000   1.0000   1.0000   1.0000   1.0000   1.0000   1.0000
     1.0000   1.0000   1.0000   1.0000   1.0000   1.0000   1.0000   1.0000
     1.0000   1.0000   0.0000   0.0000   0.0000   0.0000

          k = 0.1250 0.2165-0.3067 (  1916 PWs)   bands (ev):

    -5.7531  -5.7531  -4.1195  -4.1195  -4.0998  -4.0998  -3.9785  -3.9785
    -3.8975  -3.8975  -3.4617  -3.4617   5.0555   5.0555   7.4326   7.4326
     7.9882   7.9882  14.5755  14.5755  16.6766  16.6766

     occupation numbers 
     1.0000   1.0000   1.0000   1.0000   1.0000   1.0000   1.0000   1.0000
     1.0000   1.0000   1.0000   1.0000   1.0000   1.0000   1.0000   1.0000
     1.0000   1.0000   0.0000   0.0000   0.0000   0.0000

          k = 0.1250 0.5052 0.1022 (  1905 PWs)   bands (ev):

    -5.6452  -5.5262  -4.1343  -4.1015  -4.0267  -3.9876  -3.9680  -3.9248
    -3.8837  -3.8628  -2.7866  -2.1143   3.0490   3.9937   5.5142   6.2372
     7.4738   7.6936  14.3272  15.2714  16.0574  17.1936

     occupation numbers 
     1.0000   1.0000   1.0000   1.0000   1.0000   1.0000   1.0000   1.0000
     1.0000   1.0000   1.0000   1.0000   1.0000   1.0000   1.0000   1.0000
     1.0000   1.0000   0.0000   0.0000   0.0000   0.0000

          k = 0.1250 0.5052-0.3067 (  1898 PWs)   bands (ev):

    -5.5498  -5.5498  -4.1136  -4.1136  -4.0359  -4.0359  -3.9356  -3.9356
    -3.8761  -3.8761  -2.4972  -2.4972   3.0877   3.0877   6.6173   6.6173
     7.6405   7.6405  14.2162  14.2162  17.0659  17.0659

     occupation numbers 
     1.0000   1.0000   1.0000   1.0000   1.0000   1.0000   1.0000   1.0000
     1.0000   1.0000   1.0000   1.0000   1.0000   1.0000   1.0000   1.0000
     1.0000   1.0000   0.0000   0.0000   0.0000   0.0000

          k = 0.1250-0.3608 0.1022 (  1893 PWs)   bands (ev):

    -5.7871  -5.5477  -4.1253  -4.1121  -4.0479  -4.0152  -3.9741  -3.9525
    -3.9034  -3.8723  -3.4540  -2.2310   3.5217   4.9102   5.4739   6.6230
     7.9876   8.2358  14.1612  15.7091  16.0216  17.2153

     occupation numbers 
     1.0000   1.0000   1.0000   1.0000   1.0000   1.0000   1.0000   1.0000
     1.0000   1.0000   1.0000   1.0000   1.0000   1.0000   1.0000   1.0000
     1.0000   1.0000   0.0000   0.0000   0.0000   0.0000

          k = 0.1250-0.3608-0.3067 (  1906 PWs)   bands (ev):

    -5.6167  -5.6167  -4.1046  -4.1046  -4.0584  -4.0584  -3.9709  -3.9709
    -3.8844  -3.8844  -2.9992  -2.9992   4.0642   4.0642   7.0488   7.0488
     7.5041   7.5041  14.5707  14.5707  16.8850  16.8850

     occupation numbers 
     1.0000   1.0000   1.0000   1.0000   1.0000   1.0000   1.0000   1.0000
     1.0000   1.0000   1.0000   1.0000   1.0000   1.0000   1.0000   1.0000
     1.0000   1.0000   0.0000   0.0000   0.0000   0.0000

          k = 0.1250-0.0722 0.1022 (  1882 PWs)   bands (ev):

    -6.2661  -5.6537  -4.1712  -4.1570  -4.1203  -4.1026  -4.0999  -3.9492
    -3.9449  -3.8898  -3.8648  -2.7638   3.0397   7.3007   7.6984   8.0407
     8.8944   9.0462  12.4206  14.2248  17.5824  18.1140

     occupation numbers 
     1.0000   1.0000   1.0000   1.0000   1.0000   1.0000   1.0000   1.0000
     1.0000   1.0000   1.0000   1.0000   1.0000   1.0000   1.0000   1.0000
     1.0000   1.0000   0.0000   0.0000   0.0000   0.0000

          k = 0.1250-0.0722-0.3067 (  1890 PWs)   bands (ev):

    -5.8791  -5.8791  -4.1453  -4.1453  -4.1354  -4.1354  -3.9539  -3.9539
    -3.9001  -3.9001  -3.6889  -3.6889   5.3963   5.3963   8.0264   8.0264
     8.5245   8.5245  13.9511  13.9511  17.0820  17.0820

     occupation numbers 
     1.0000   1.0000   1.0000   1.0000   1.0000   1.0000   1.0000   1.0000
     1.0000   1.0000   1.0000   1.0000   1.0000   1.0000   1.0000   1.0000
     1.0000   1.0000   0.0000   0.0000   0.0000   0.0000

          k = 0.3750 0.6495 0.1022 (  1893 PWs)   bands (ev):

    -5.5774  -5.5317  -4.1579  -4.0497  -4.0130  -3.9783  -3.9610  -3.9283
    -3.9104  -3.8897  -2.3749  -2.1056   3.4075   3.8928   4.6701   6.4206
     6.6240   7.1333  14.7928  16.1801  16.7088  17.1064

     occupation numbers 
     1.0000   1.0000   1.0000   1.0000   1.0000   1.0000   1.0000   1.0000
     1.0000   1.0000   1.0000   1.0000   1.0000   1.0000   1.0000   1.0000
     1.0000   1.0000   0.0000   0.0000   0.0000   0.0000

          k = 0.3750 0.6495-0.3067 (  1902 PWs)   bands (ev):

    -5.5229  -5.5229  -4.0801  -4.0801  -4.0499  -4.0499  -3.9363  -3.9363
    -3.8992  -3.8992  -2.2427  -2.2427   3.1679   3.1679   5.4953   5.4953
     7.7979   7.7979  15.1450  15.1450  16.8592  16.8592

     occupation numbers 
     1.0000   1.0000   1.0000   1.0000   1.0000   1.0000   1.0000   1.0000
     1.0000   1.0000   1.0000   1.0000   1.0000   1.0000   1.0000   1.0000
     1.0000   1.0000   0.0000   0.0000   0.0000   0.0000

          k = 0.3750-0.2165 0.1022 (  1908 PWs)   bands (ev):

    -5.7276  -5.5368  -4.1348  -4.1021  -4.0435  -3.9960  -3.9770  -3.9316
    -3.8934  -3.8508  -3.2281  -2.1755   3.1956   4.4085   5.3204   6.9178
     7.9024   8.3119  13.7500  14.6847  16.1196  17.2676

     occupation numbers 
     1.0000   1.0000   1.0000   1.0000   1.0000   1.0000   1.0000   1.0000
     1.0000   1.0000   1.0000   1.0000   1.0000   1.0000   1.0000   1.0000
     1.0000   1.0000   0.0000   0.0000   0.0000   0.0000

          k = 0.3750-0.2165-0.3067 (  1892 PWs)   bands (ev):

    -5.5885  -5.5885  -4.1249  -4.1249  -4.0363  -4.0363  -3.9411  -3.9411
    -3.8774  -3.8774  -2.8154  -2.8154   3.4708   3.4708   7.2973   7.2973
     7.5674   7.5674  13.8432  13.8432  16.8730  16.8730

     occupation numbers 
     1.0000   1.0000   1.0000   1.0000   1.0000   1.0000   1.0000   1.0000
     1.0000   1.0000   1.0000   1.0000   1.0000   1.0000   1.0000   1.0000
     1.0000   1.0000   0.0000   0.0000   0.0000   0.0000

     highest occupied, lowest unoccupied level (ev):     9.0462   12.4206

!    total energy              =    -612.42452896 Ry
     total all-electron energy =     -7995.351448 Ry
     estimated scf accuracy    <          5.5E-09 Ry

     The total energy is the sum of the following terms:
     one-electron contribution =    -184.74772829 Ry
     hartree contribution      =     131.17433878 Ry
     xc contribution           =     -88.34940627 Ry
     ewald contribution        =    -230.82466193 Ry
     one-center paw contrib.   =    -239.67707125 Ry
      -> PAW hartree energy AE =     145.49182618 Ry
      -> PAW hartree energy PS =    -144.39456294 Ry
      -> PAW xc energy AE      =    -151.15573008 Ry
      -> PAW xc energy PS      =      38.19663375 Ry
      -> total E_H with PAW    =     132.27160202 Ry
      -> total E_XC with PAW   =    -201.30850260 Ry

     convergence has been achieved in  15 iterations

     Forces acting on atoms (cartesian axes, Ry/au):

     atom    1 type  1   force =     0.00000000    0.00000000   -0.00046447
     atom    2 type  1   force =     0.00000000    0.00000000   -0.00046447
     atom    3 type  2   force =     0.00000000    0.00000000    0.00046447
     atom    4 type  2   force =     0.00000000    0.00000000    0.00046447
     The non-local contrib.  to forces
     atom    1 type  1   force =     0.00000000    0.00000000    0.00732706
     atom    2 type  1   force =     0.00000000    0.00000000    0.00732706
     atom    3 type  2   force =     0.00000000    0.00000000    0.01273315
     atom    4 type  2   force =     0.00000000    0.00000000    0.01273315
     The ionic contribution  to forces
     atom    1 type  1   force =    -0.00000002    0.00000001    0.15748047
     atom    2 type  1   force =     0.00000002   -0.00000001    0.15748047
     atom    3 type  2   force =    -0.00000001    0.00000001   -0.15748047
     atom    4 type  2   force =     0.00000001   -0.00000001   -0.15748047
     The local contribution  to forces
     atom    1 type  1   force =     0.00000000    0.00000032   -0.16541149
     atom    2 type  1   force =     0.00000056    0.00000000   -0.16541144
     atom    3 type  2   force =     0.00000000    0.00000003    0.14540368
     atom    4 type  2   force =     0.00000004    0.00000000    0.14540361
     The core correction contribution to forces
     atom    1 type  1   force =     0.00000000    0.00000002    0.00013903
     atom    2 type  1   force =     0.00000004    0.00000000    0.00013903
     atom    3 type  2   force =    -0.00000000   -0.00000000   -0.00019162
     atom    4 type  2   force =    -0.00000000   -0.00000000   -0.00019162
     The Hubbard contrib.    to forces
     atom    1 type  1   force =     0.00000000    0.00000000    0.00000000
     atom    2 type  1   force =     0.00000000    0.00000000    0.00000000
     atom    3 type  2   force =     0.00000000    0.00000000    0.00000000
     atom    4 type  2   force =     0.00000000    0.00000000    0.00000000
     The SCF correction term to forces
     atom    1 type  1   force =     0.00000000    0.00000000    0.00000000
     atom    2 type  1   force =     0.00000000    0.00000000    0.00000000
     atom    3 type  2   force =     0.00000000    0.00000000    0.00000008
     atom    4 type  2   force =     0.00000000    0.00000000    0.00000008

     Total force =     0.000657     Total SCF correction =     0.000000


     Computing stress (Cartesian axis) and pressure

          total   stress  (Ry/bohr**3)                   (kbar)     P=        3.25
   0.00002035   0.00000000   0.00000000            2.99        0.00        0.00
   0.00000000   0.00002035   0.00000000            0.00        2.99        0.00
   0.00000000   0.00000000   0.00002555            0.00        0.00        3.76

     kinetic stress (kbar)  19673.55     -0.00      0.00
                               -0.00  19673.55      0.00
                                0.00      0.00  19668.81

     local   stress (kbar)   6178.72      0.00     -0.00
                                0.00   6178.72     -0.00
                               -0.00     -0.00   4416.60

     nonloc. stress (kbar)  -1037.99      0.00      0.00
                                0.00  -1037.99      0.00
                                0.00     -0.00  -1025.47

     hartree stress (kbar)  19953.76     -0.00     -0.00
                               -0.00  19953.76      0.00
                               -0.00      0.00  20749.10

     exc-cor stress (kbar)   5147.26     -0.00      0.00
                               -0.00   5147.26      0.00
                                0.00      0.00   5147.71

     corecor stress (kbar) -14013.95      0.00     -0.00
                                0.00 -14013.95     -0.00
                               -0.00     -0.00 -14013.53

     ewald   stress (kbar) -35898.35     -0.00     -0.00
                               -0.00 -35898.35     -0.00
                               -0.00     -0.00 -34939.46

     hubbard stress (kbar)      0.00      0.00      0.00
                                0.00      0.00      0.00
                                0.00      0.00      0.00

     DFT-D   stress (kbar)      0.00      0.00      0.00
                                0.00      0.00      0.00
                                0.00      0.00      0.00

     XDM     stress (kbar)      0.00      0.00      0.00
                                0.00      0.00      0.00
                                0.00      0.00      0.00

     dft-nl  stress (kbar)      0.00      0.00      0.00
                                0.00      0.00      0.00
                                0.00      0.00      0.00

     TS-vdW  stress (kbar)      0.00      0.00      0.00
                                0.00      0.00      0.00
                                0.00      0.00      0.00

     MDB     stress (kbar)      0.00      0.00      0.00
                                0.00      0.00      0.00
                                0.00      0.00      0.00

     3D-RISM stress (kbar)      0.00      0.00      0.00
                                0.00      0.00      0.00
                                0.00      0.00      0.00


     Writing all to output data dir ./tmp/GaN.save/ :
     XML data file, charge density, pseudopotentials, collected wavefunctions
 
     init_run     :      0.21s CPU      0.26s WALL (       1 calls)
     electrons    :      3.64s CPU      4.19s WALL (       1 calls)
     forces       :      0.04s CPU      0.05s WALL (       1 calls)
     stress       :      0.14s CPU      0.16s WALL (       1 calls)

     Called by init_run:
     wfcinit      :      0.05s CPU      0.05s WALL (       1 calls)
     wfcinit:atom :      0.00s CPU      0.00s WALL (      12 calls)
     wfcinit:wfcr :      0.04s CPU      0.05s WALL (      12 calls)
     potinit      :      0.07s CPU      0.09s WALL (       1 calls)
     hinit0       :      0.05s CPU      0.05s WALL (       1 calls)

     Called by electrons:
     c_bands      :      1.92s CPU      2.08s WALL (      15 calls)
     sum_band     :      0.48s CPU      0.68s WALL (      15 calls)
     v_of_rho     :      0.07s CPU      0.08s WALL (      16 calls)
     v_h          :      0.00s CPU      0.00s WALL (      16 calls)
     v_xc         :      0.08s CPU      0.08s WALL (      18 calls)
     newd         :      0.28s CPU      0.43s WALL (      16 calls)
     PAW_pot      :      0.93s CPU      0.96s WALL (      16 calls)
     mix_rho      :      0.01s CPU      0.01s WALL (      15 calls)

     Called by c_bands:
     init_us_2    :      0.02s CPU      0.02s WALL (     396 calls)
     cegterg      :      1.86s CPU      2.01s WALL (     180 calls)

     Called by sum_band:
     sum_band:wei :      0.00s CPU      0.00s WALL (      15 calls)
     sum_band:loo :      0.20s CPU      0.24s WALL (      15 calls)
     sum_band:buf :      0.00s CPU      0.00s WALL (     180 calls)
     sum_band:ini :      0.01s CPU      0.01s WALL (     180 calls)
     sum_band:cal :      0.01s CPU      0.02s WALL (     180 calls)
     sum_band:bec :      0.00s CPU      0.00s WALL (     180 calls)
     addusdens    :      0.26s CPU      0.42s WALL (      15 calls)
                                        0.00s GPU  (      15 calls)
     addusd:skk   :      0.00s CPU      0.00s WALL (      30 calls)
                                        0.00s GPU  (      30 calls)

     Called by *egterg:
     cdiaghg      :      0.42s CPU      0.46s WALL (     989 calls)
     cegterg:over :      0.07s CPU      0.07s WALL (     809 calls)
     cegterg:upda :      0.02s CPU      0.03s WALL (     809 calls)
     cegterg:last :      0.05s CPU      0.05s WALL (     522 calls)
     h_psi        :      1.24s CPU      1.34s WALL (    1001 calls)
     s_psi        :      0.04s CPU      0.04s WALL (    1001 calls)
     g_psi        :      0.00s CPU      0.01s WALL (     809 calls)

     Called by h_psi:
     h_psi:calbec :      0.06s CPU      0.06s WALL (    1001 calls)
     vloc_psi     :      1.14s CPU      1.23s WALL (    1001 calls)
     add_vuspsi   :      0.04s CPU      0.04s WALL (    1001 calls)

     General routines
     calbec       :      0.08s CPU      0.08s WALL (    1241 calls)
     fft          :      0.04s CPU      0.05s WALL (     231 calls)
     ffts         :      0.00s CPU      0.01s WALL (      31 calls)
     fftw         :      1.13s CPU      1.23s WALL (   29624 calls)
     interpolate  :      0.01s CPU      0.01s WALL (      16 calls)
 
     Parallel routines

     PAW routines
     PAW_pot      :      0.93s CPU      0.96s WALL (      16 calls)
     PAW_symme    :      0.00s CPU      0.00s WALL (      31 calls)
 
     PWSCF        :      4.21s CPU      5.15s WALL

 
   This run was terminated on:   4:47:25  30Aug2026            

=------------------------------------------------------------------------------=
   JOB DONE.
=------------------------------------------------------------------------------=
