
     Program PWSCF v.7.3.1 starts on 30Aug2026 at  4:44: 6 

     This program is part of the open-source Quantum ESPRESSO suite
     for quantum simulation of materials; please cite
         "P. Giannozzi et al., J. Phys.:Condens. Matter 21 395502 (2009);
         "P. Giannozzi et al., J. Phys.:Condens. Matter 29 465901 (2017);
         "P. Giannozzi et al., J. Chem. Phys. 152 154105 (2020);
          URL http://www.quantum-espresso.org", 
     in publications or presentations arising from this work. More details at
     http://www.quantum-espresso.org/quote

     Parallel version (MPI & OpenMP), running on      12 processor cores
     Number of MPI processes:                12
     Threads/MPI process:                     1

     MPI processes distributed on     1 nodes
     120298 MiB available memory on the printing compute node when the environment starts
 
     Waiting for input...
     Reading input from standard input

     Current dimensions of program PWSCF are:
     Max number of different atomic species (ntypx) = 10
     Max number of k-points (npk) =  40000
     Max angular momentum in pseudopotentials (lmaxx) =  4
     file N.pbe-n-kjpaw_psl.1.0.0.UPF: wavefunction(s)  2S renormalized
     Message from routine setup:
     the system is metallic, specify occupations
 
     R & G space division:  proc/nbgrp/npool/nimage =      12
     Subspace diagonalization in iterative solution of the eigenvalue problem:
     a serial algorithm will be used

 
     Parallelization info
     --------------------
     sticks:   dense  smooth     PW     G-vecs:    dense   smooth      PW
     Min        2662    1065    265               358290    90709   11322
     Max        2663    1066    267               358295    90712   11326
     Sum       31949   12785   3189              4299501  1088527  135883
 
     Using Slab Decomposition
 


     bravais-lattice index     =            1
     lattice parameter (alat)  =      28.3459  a.u.
     unit-cell volume          =   22775.6289 (a.u.)^3
     number of atoms/cell      =            1
     number of atomic types    =            1
     number of electrons       =         5.00 (up:   4.00, down:   1.00)
     number of Kohn-Sham states=            4
     kinetic-energy cutoff     =      50.0000  Ry
     charge density cutoff     =     500.0000  Ry
     scf convergence threshold =      1.0E-08
     mixing beta               =       0.7000
     number of iterations used =            8  plain     mixing
     Exchange-correlation= SLA  PW   PBX  PBC
                           (   1   4   3   4   0   0   0)

     celldm(1)=  28.345892  celldm(2)=   0.000000  celldm(3)=   0.000000
     celldm(4)=   0.000000  celldm(5)=   0.000000  celldm(6)=   0.000000

     crystal axes: (cart. coord. in units of alat)
               a(1) = (   1.000000   0.000000   0.000000 )  
               a(2) = (   0.000000   1.000000   0.000000 )  
               a(3) = (   0.000000   0.000000   1.000000 )  

     reciprocal axes: (cart. coord. in units 2 pi/alat)
               b(1) = (  1.000000  0.000000  0.000000 )  
               b(2) = (  0.000000  1.000000  0.000000 )  
               b(3) = (  0.000000  0.000000  1.000000 )  


     PseudoPot. # 1 for N  read from file:
     /data-fast/greenano/Students/cohort2/rojassan/Project_GaN/PSEUDO/N.pbe-n-kjpaw_psl.1.0.0.UPF
     MD5 check sum: 86f48117b7e7b472c01f85d0863ba463
     Pseudo is Projector augmented-wave + core cor, Zval =  5.0
     Generated using 'atomic' code by A. Dal Corso  v.7.3.1
     Shape of augmentation charge: PSQ
     Using radial grid of 1085 points,  4 beta functions with: 
                l(1) =   0
                l(2) =   0
                l(3) =   1
                l(4) =   1
     Q(r) pseudized with 0 coefficients 


     atomic species   valence    mass     pseudopotential
     N                 5.00    14.00700     N ( 1.00)

     Starting magnetic structure 
     atomic species   magnetization
     N               0.000

     48 Sym. Ops., with inversion, found



   Cartesian axes

     site n.     atom                  positions (alat units)
         1        N      tau(   1) = (   0.0000000   0.0000000   0.0000000  )

     number of k points=     1
                       cart. coord. in units 2pi/alat
        k(    1) = (   0.0000000   0.0000000   0.0000000), wk =   1.0000000

     Dense  grid:  4299501 G-vectors     FFT dimensions: ( 216, 216, 216)

     Smooth grid:  1088527 G-vectors     FFT dimensions: ( 128, 128, 128)

     Estimated max dynamical RAM per process >     595.97 MB

     Estimated total dynamical RAM >       6.98 GB
     Generating pointlists ...
     new r_m :   0.4125 (alat units) 11.6927 (a.u.) for type    1

     Initial potential from superposition of free atoms

     starting charge       5.0000, renormalised to       5.0000

     negative rho (up, down):  5.294E-04 5.294E-04
     Starting wfcs are    4 randomized atomic wfcs
     Checking if some PAW data can be deallocated... 

     total cpu time spent up to now is        4.6 secs

     Self-consistent Calculation

     iteration #  1     ecut=    50.00 Ry     beta= 0.70
     Davidson diagonalization with overlap
     ethr =  1.00E-02,  avg # of iterations =  1.0

     negative rho (up, down):  8.528E-04 2.520E-04

     total cpu time spent up to now is        7.5 secs

     total energy              =     -27.80797864 Ry
     estimated scf accuracy    <       0.10734256 Ry

     total magnetization       =     3.00 Bohr mag/cell
     absolute magnetization    =     3.00 Bohr mag/cell

     iteration #  2     ecut=    50.00 Ry     beta= 0.70
     Davidson diagonalization with overlap
     ethr =  2.15E-03,  avg # of iterations =  1.0

     negative rho (up, down):  1.075E-03 4.119E-04

     total cpu time spent up to now is       10.1 secs

     total energy              =     -27.83507987 Ry
     estimated scf accuracy    <       0.01584806 Ry

     total magnetization       =     3.00 Bohr mag/cell
     absolute magnetization    =     3.00 Bohr mag/cell

     iteration #  3     ecut=    50.00 Ry     beta= 0.70
     Davidson diagonalization with overlap
     ethr =  3.17E-04,  avg # of iterations =  1.5

     negative rho (up, down):  1.063E-03 1.962E-04

     total cpu time spent up to now is       12.9 secs

     total energy              =     -27.83599723 Ry
     estimated scf accuracy    <       0.00055379 Ry

     total magnetization       =     3.00 Bohr mag/cell
     absolute magnetization    =     3.00 Bohr mag/cell

     iteration #  4     ecut=    50.00 Ry     beta= 0.70
     Davidson diagonalization with overlap
     ethr =  1.11E-05,  avg # of iterations =  1.5

     negative rho (up, down):  1.088E-03 1.434E-04

     total cpu time spent up to now is       15.7 secs

     total energy              =     -27.83609214 Ry
     estimated scf accuracy    <       0.00000614 Ry

     total magnetization       =     3.00 Bohr mag/cell
     absolute magnetization    =     3.00 Bohr mag/cell

     iteration #  5     ecut=    50.00 Ry     beta= 0.70
     Davidson diagonalization with overlap
     ethr =  1.23E-07,  avg # of iterations =  2.0

     negative rho (up, down):  1.097E-03 1.375E-04

     total cpu time spent up to now is       18.5 secs

     total energy              =     -27.83609665 Ry
     estimated scf accuracy    <       0.00000341 Ry

     total magnetization       =     3.00 Bohr mag/cell
     absolute magnetization    =     3.00 Bohr mag/cell

     iteration #  6     ecut=    50.00 Ry     beta= 0.70
     Davidson diagonalization with overlap
     ethr =  6.82E-08,  avg # of iterations =  2.0

     negative rho (up, down):  1.098E-03 1.365E-04

     total cpu time spent up to now is       21.2 secs

     total energy              =     -27.83609757 Ry
     estimated scf accuracy    <       0.00000050 Ry

     total magnetization       =     3.00 Bohr mag/cell
     absolute magnetization    =     3.00 Bohr mag/cell

     iteration #  7     ecut=    50.00 Ry     beta= 0.70
     Davidson diagonalization with overlap
     ethr =  1.00E-08,  avg # of iterations =  2.0

     negative rho (up, down):  1.098E-03 1.361E-04
 
     Magnetic moment per site  (integrated on atomic sphere of radius R)
     atom   1 (R=0.413)  charge=  5.0000  magn=  3.0000

     total cpu time spent up to now is       23.8 secs

     End of self-consistent calculation

 ------ SPIN UP ------------


          k = 0.0000 0.0000 0.0000 (135883 PWs)   bands (ev):

   -19.8472  -8.2650  -8.2650  -8.2650

 ------ SPIN DOWN ----------


          k = 0.0000 0.0000 0.0000 (135883 PWs)   bands (ev):

   -15.2762  -4.0982  -4.0982  -4.0982

     highest occupied, lowest unoccupied level (ev):    -8.2650   -4.0982

!    total energy              =     -27.83609764 Ry
     total all-electron energy =      -109.134896 Ry
     estimated scf accuracy    <          1.3E-09 Ry

     The total energy is the sum of the following terms:
     one-electron contribution =     -25.97836772 Ry
     hartree contribution      =      14.05083069 Ry
     xc contribution           =      -5.41412885 Ry
     ewald contribution        =      -2.50238861 Ry
     one-center paw contrib.   =      -7.99204314 Ry

     total magnetization       =     3.00 Bohr mag/cell
     absolute magnetization    =     3.00 Bohr mag/cell

     convergence has been achieved in   7 iterations

     Writing all to output data dir ./tmp/N_atom.save/ :
     XML data file, charge density, pseudopotentials, collected wavefunctions
 
     init_run     :      4.01s CPU      4.51s WALL (       1 calls)
     electrons    :     16.77s CPU     19.68s WALL (       1 calls)

     Called by init_run:
     wfcinit      :      0.06s CPU      0.08s WALL (       1 calls)
     potinit      :      1.09s CPU      1.25s WALL (       1 calls)
     hinit0       :      0.28s CPU      0.33s WALL (       1 calls)

     Called by electrons:
     c_bands      :      1.02s CPU      1.06s WALL (       7 calls)
     sum_band     :      5.30s CPU      6.27s WALL (       7 calls)
     v_of_rho     :      7.05s CPU      7.62s WALL (       8 calls)
     newd         :      2.21s CPU      3.38s WALL (       8 calls)
     PAW_pot      :      0.12s CPU      0.15s WALL (       8 calls)
     mix_rho      :      1.28s CPU      1.38s WALL (       7 calls)

     Called by c_bands:
     init_us_2    :      0.04s CPU      0.04s WALL (      30 calls)
     cegterg      :      0.98s CPU      1.01s WALL (      14 calls)

     Called by *egterg:
     cdiaghg      :      0.00s CPU      0.00s WALL (      36 calls)
     h_psi        :      0.97s CPU      1.02s WALL (      38 calls)
     s_psi        :      0.00s CPU      0.01s WALL (      38 calls)
     g_psi        :      0.00s CPU      0.00s WALL (      22 calls)

     Called by h_psi:
     h_psi:calbec :      0.02s CPU      0.02s WALL (      38 calls)
     vloc_psi     :      0.94s CPU      0.98s WALL (      38 calls)
     add_vuspsi   :      0.01s CPU      0.01s WALL (      38 calls)

     General routines
     calbec       :      0.03s CPU      0.03s WALL (      52 calls)
     fft          :      5.49s CPU      5.70s WALL (     194 calls)
     ffts         :      0.10s CPU      0.11s WALL (      30 calls)
     fftw         :      0.50s CPU      0.52s WALL (     340 calls)
     interpolate  :      0.56s CPU      0.58s WALL (      16 calls)
 
     Parallel routines
 
     PWSCF        :     21.00s CPU     25.02s WALL

 
   This run was terminated on:   4:44:31  30Aug2026            

=------------------------------------------------------------------------------=
   JOB DONE.
=------------------------------------------------------------------------------=
