
     Program PWSCF v.7.3.1 starts on  6Aug2026 at 14:13:24 

     This program is part of the open-source Quantum ESPRESSO suite
     for quantum simulation of materials; please cite
         "P. Giannozzi et al., J. Phys.:Condens. Matter 21 395502 (2009);
         "P. Giannozzi et al., J. Phys.:Condens. Matter 29 465901 (2017);
         "P. Giannozzi et al., J. Chem. Phys. 152 154105 (2020);
          URL http://www.quantum-espresso.org", 
     in publications or presentations arising from this work. More details at
     http://www.quantum-espresso.org/quote

     Parallel version (MPI & OpenMP), running on      12 processor cores
     Number of MPI processes:                12
     Threads/MPI process:                     1

     MPI processes distributed on     1 nodes
     19160 MiB available memory on the printing compute node when the environment starts
 
     Waiting for input...
     Reading input from standard input

     Current dimensions of program PWSCF are:
     Max number of different atomic species (ntypx) = 10
     Max number of k-points (npk) =  40000
     Max angular momentum in pseudopotentials (lmaxx) =  4
     file Ga.pbe-dn-kjpaw_psl.1.0.0.UPF: wavefunction(s)  4S renormalized
     file N.pbe-n-kjpaw_psl.1.0.0.UPF: wavefunction(s)  2S renormalized
 
     R & G space division:  proc/nbgrp/npool/nimage =      12
     Subspace diagonalization in iterative solution of the eigenvalue problem:
     a serial algorithm will be used

 
     Parallelization info
     --------------------
     sticks:   dense  smooth     PW     G-vecs:    dense   smooth      PW
     Min         149      59     17                 8301     2091     345
     Max         150      61     18                 8308     2094     352
     Sum        1789     721    211                99623    25109    4187
 
     Using Slab Decomposition
 


     bravais-lattice index     =            4
     lattice parameter (alat)  =       6.0849  a.u.
     unit-cell volume          =     318.1254 (a.u.)^3
     number of atoms/cell      =            4
     number of atomic types    =            2
     number of electrons       =        36.00
     number of Kohn-Sham states=           22
     kinetic-energy cutoff     =      70.0000  Ry
     charge density cutoff     =     700.0000  Ry
     scf convergence threshold =      1.0E-08
     mixing beta               =       0.7000
     number of iterations used =            8  plain     mixing
     Exchange-correlation= SLA  PW   PBX  PBC
                           (   1   4   3   4   0   0   0)

     celldm(1)=   6.084918  celldm(2)=   0.000000  celldm(3)=   1.630435
     celldm(4)=   0.000000  celldm(5)=   0.000000  celldm(6)=   0.000000

     crystal axes: (cart. coord. in units of alat)
               a(1) = (   1.000000   0.000000   0.000000 )  
               a(2) = (  -0.500000   0.866025   0.000000 )  
               a(3) = (   0.000000   0.000000   1.630435 )  

     reciprocal axes: (cart. coord. in units 2 pi/alat)
               b(1) = (  1.000000  0.577350  0.000000 )  
               b(2) = (  0.000000  1.154701  0.000000 )  
               b(3) = (  0.000000  0.000000  0.613333 )  


     PseudoPot. # 1 for Ga read from file:
     /data-fast/greenano/Students/cohort2/rojassan/Project_GaN/PSEUDO/Ga.pbe-dn-kjpaw_psl.1.0.0.UPF
     MD5 check sum: 93aceff68ec27daa0acc11ebb2e245f0
     Pseudo is Projector augmented-wave + core cor, Zval = 13.0
     Generated using 'atomic' code by A. Dal Corso  v.7.3.1
     Shape of augmentation charge: PSQ
     Using radial grid of 1205 points,  6 beta functions with: 
                l(1) =   0
                l(2) =   0
                l(3) =   1
                l(4) =   1
                l(5) =   2
                l(6) =   2
     Q(r) pseudized with 0 coefficients 


     PseudoPot. # 2 for N  read from file:
     /data-fast/greenano/Students/cohort2/rojassan/Project_GaN/PSEUDO/N.pbe-n-kjpaw_psl.1.0.0.UPF
     MD5 check sum: 86f48117b7e7b472c01f85d0863ba463
     Pseudo is Projector augmented-wave + core cor, Zval =  5.0
     Generated using 'atomic' code by A. Dal Corso  v.7.3.1
     Shape of augmentation charge: PSQ
     Using radial grid of 1085 points,  4 beta functions with: 
                l(1) =   0
                l(2) =   0
                l(3) =   1
                l(4) =   1
     Q(r) pseudized with 0 coefficients 


     atomic species   valence    mass     pseudopotential
     Ga               13.00    69.72300     Ga( 1.00)
     N                 5.00    14.00700     N ( 1.00)

     12 Sym. Ops. (no inversion) found ( 6 have fractional translation)


                                    s                        frac. trans.

      isym =  1     identity                                     

 cryst.   s( 1) = (     1          0          0      )
                  (     0          1          0      )
                  (     0          0          1      )

 cart.    s( 1) = (  1.0000000  0.0000000  0.0000000 )
                  (  0.0000000  1.0000000  0.0000000 )
                  (  0.0000000  0.0000000  1.0000000 )


      isym =  2     180 deg rotation - cart. axis [0,0,1]        

 cryst.   s( 2) = (    -1          0          0      )    f =(  0.0000000 )
                  (     0         -1          0      )       (  0.0000000 )
                  (     0          0          1      )       ( -0.5000000 )

 cart.    s( 2) = ( -1.0000000  0.0000000  0.0000000 )    f =(  0.0000000 )
                  (  0.0000000 -1.0000000  0.0000000 )       (  0.0000000 )
                  (  0.0000000  0.0000000  1.0000000 )       ( -0.8152174 )


      isym =  3      60 deg rotation - cryst. axis [0,0,1]       

 cryst.   s( 3) = (     1          1          0      )    f =(  0.0000000 )
                  (    -1          0          0      )       (  0.0000000 )
                  (     0          0          1      )       ( -0.5000000 )

 cart.    s( 3) = (  0.5000000 -0.8660254  0.0000000 )    f =(  0.0000000 )
                  (  0.8660254  0.5000000  0.0000000 )       (  0.0000000 )
                  (  0.0000000  0.0000000  1.0000000 )       ( -0.8152174 )


      isym =  4      60 deg rotation - cryst. axis [0,0,-1]      

 cryst.   s( 4) = (     0         -1          0      )    f =(  0.0000000 )
                  (     1          1          0      )       (  0.0000000 )
                  (     0          0          1      )       ( -0.5000000 )

 cart.    s( 4) = (  0.5000000  0.8660254  0.0000000 )    f =( -0.0000000 )
                  ( -0.8660254  0.5000000  0.0000000 )       (  0.0000000 )
                  (  0.0000000  0.0000000  1.0000000 )       ( -0.8152174 )


      isym =  5     120 deg rotation - cryst. axis [0,0,1]       

 cryst.   s( 5) = (     0          1          0      )
                  (    -1         -1          0      )
                  (     0          0          1      )

 cart.    s( 5) = ( -0.5000000 -0.8660254  0.0000000 )
                  (  0.8660254 -0.5000000  0.0000000 )
                  (  0.0000000  0.0000000  1.0000000 )


      isym =  6     120 deg rotation - cryst. axis [0,0,-1]      

 cryst.   s( 6) = (    -1         -1          0      )
                  (     1          0          0      )
                  (     0          0          1      )

 cart.    s( 6) = ( -0.5000000  0.8660254  0.0000000 )
                  ( -0.8660254 -0.5000000  0.0000000 )
                  (  0.0000000  0.0000000  1.0000000 )


      isym =  7     inv. 180 deg rotation - cart. axis [0,1,0]   

 cryst.   s( 7) = (     1          0          0      )    f =(  0.0000000 )
                  (    -1         -1          0      )       (  0.0000000 )
                  (     0          0          1      )       ( -0.5000000 )

 cart.    s( 7) = (  1.0000000  0.0000000  0.0000000 )    f =( -0.0000000 )
                  (  0.0000000 -1.0000000  0.0000000 )       (  0.0000000 )
                  (  0.0000000  0.0000000  1.0000000 )       ( -0.8152174 )


      isym =  8     inv. 180 deg rotation - cart. axis [1,0,0]   

 cryst.   s( 8) = (    -1          0          0      )
                  (     1          1          0      )
                  (     0          0          1      )

 cart.    s( 8) = ( -1.0000000  0.0000000  0.0000000 )
                  (  0.0000000  1.0000000  0.0000000 )
                  (  0.0000000  0.0000000  1.0000000 )


      isym =  9     inv. 180 deg rotation - cryst. axis [1,-1,0] 

 cryst.   s( 9) = (     0          1          0      )    f =(  0.0000000 )
                  (     1          0          0      )       (  0.0000000 )
                  (     0          0          1      )       ( -0.5000000 )

 cart.    s( 9) = ( -0.5000000  0.8660254  0.0000000 )    f =(  0.0000000 )
                  (  0.8660254  0.5000000  0.0000000 )       (  0.0000000 )
                  (  0.0000000  0.0000000  1.0000000 )       ( -0.8152174 )


      isym = 10     inv. 180 deg rotation - cryst. axis [2,1,0]  

 cryst.   s(10) = (    -1         -1          0      )    f =(  0.0000000 )
                  (     0          1          0      )       (  0.0000000 )
                  (     0          0          1      )       ( -0.5000000 )

 cart.    s(10) = ( -0.5000000 -0.8660254  0.0000000 )    f =(  0.0000000 )
                  ( -0.8660254  0.5000000  0.0000000 )       (  0.0000000 )
                  (  0.0000000  0.0000000  1.0000000 )       ( -0.8152174 )


      isym = 11     inv. 180 deg rotation - cryst. axis [0,1,0]  

 cryst.   s(11) = (     1          1          0      )
                  (     0         -1          0      )
                  (     0          0          1      )

 cart.    s(11) = (  0.5000000  0.8660254  0.0000000 )
                  (  0.8660254 -0.5000000  0.0000000 )
                  (  0.0000000  0.0000000  1.0000000 )


      isym = 12     inv. 180 deg rotation - cryst. axis [1,1,0]  

 cryst.   s(12) = (     0         -1          0      )
                  (    -1          0          0      )
                  (     0          0          1      )

 cart.    s(12) = (  0.5000000 -0.8660254  0.0000000 )
                  ( -0.8660254 -0.5000000  0.0000000 )
                  (  0.0000000  0.0000000  1.0000000 )


     point group C_6v (6mm) 
     there are  6 classes
     the character table:

       E     2C6   2C3   C2    3s_v  3s_d 
A_1    1.00  1.00  1.00  1.00  1.00  1.00
A_2    1.00  1.00  1.00  1.00 -1.00 -1.00
B_1    1.00 -1.00  1.00 -1.00  1.00 -1.00
B_2    1.00 -1.00  1.00 -1.00 -1.00  1.00
E_1    2.00  1.00 -1.00 -2.00  0.00  0.00
E_2    2.00 -1.00 -1.00  2.00  0.00  0.00

     the symmetry operations in each class and the name of the first element:

     E        1
          identity                                               
     2C6      3    4
           60 deg rotation - cryst. axis [0,0,1]                 
     2C3      5    6
          120 deg rotation - cryst. axis [0,0,1]                 
     C2       2
          180 deg rotation - cart. axis [0,0,1]                  
     3s_v     8   12   11
          inv. 180 deg rotation - cart. axis [1,0,0]             
     3s_d     7    9   10
          inv. 180 deg rotation - cart. axis [0,1,0]             

   Cartesian axes

     site n.     atom                  positions (alat units)
         1        Ga     tau(   1) = (   0.0000000   0.5773503   0.0000000  )
         2        Ga     tau(   2) = (   0.5000000   0.2886751   0.8152174  )
         3        N      tau(   3) = (   0.0000000   0.5773503   0.6136663  )
         4        N      tau(   4) = (   0.5000000   0.2886751   1.4288837  )

   Crystallographic axes

     site n.     atom                  positions (cryst. coord.)
         1        Ga     tau(   1) = (  0.3333333  0.6666667  0.0000000  )
         2        Ga     tau(   2) = (  0.6666667  0.3333333  0.5000000  )
         3        N      tau(   3) = (  0.3333333  0.6666667  0.3763820  )
         4        N      tau(   4) = (  0.6666667  0.3333333  0.8763820  )

     number of k points=    12
                       cart. coord. in units 2pi/alat
        k(    1) = (   0.1250000   0.2165064   0.1022222), wk =   0.1666667
        k(    2) = (   0.1250000   0.2165064  -0.3066667), wk =   0.0833333
        k(    3) = (   0.1250000   0.5051815   0.1022222), wk =   0.3333333
        k(    4) = (   0.1250000   0.5051815  -0.3066667), wk =   0.1666667
        k(    5) = (   0.1250000  -0.3608439   0.1022222), wk =   0.3333333
        k(    6) = (   0.1250000  -0.3608439  -0.3066667), wk =   0.1666667
        k(    7) = (   0.1250000  -0.0721688   0.1022222), wk =   0.1666667
        k(    8) = (   0.1250000  -0.0721688  -0.3066667), wk =   0.0833333
        k(    9) = (   0.3750000   0.6495191   0.1022222), wk =   0.1666667
        k(   10) = (   0.3750000   0.6495191  -0.3066667), wk =   0.0833333
        k(   11) = (   0.3750000  -0.2165064   0.1022222), wk =   0.1666667
        k(   12) = (   0.3750000  -0.2165064  -0.3066667), wk =   0.0833333

                       cryst. coord.
        k(    1) = (   0.1250000   0.1250000   0.1666667), wk =   0.1666667
        k(    2) = (   0.1250000   0.1250000  -0.5000000), wk =   0.0833333
        k(    3) = (   0.1250000   0.3750000   0.1666667), wk =   0.3333333
        k(    4) = (   0.1250000   0.3750000  -0.5000000), wk =   0.1666667
        k(    5) = (   0.1250000  -0.3750000   0.1666667), wk =   0.3333333
        k(    6) = (   0.1250000  -0.3750000  -0.5000000), wk =   0.1666667
        k(    7) = (   0.1250000  -0.1250000   0.1666667), wk =   0.1666667
        k(    8) = (   0.1250000  -0.1250000  -0.5000000), wk =   0.0833333
        k(    9) = (   0.3750000   0.3750000   0.1666667), wk =   0.1666667
        k(   10) = (   0.3750000   0.3750000  -0.5000000), wk =   0.0833333
        k(   11) = (   0.3750000  -0.3750000   0.1666667), wk =   0.1666667
        k(   12) = (   0.3750000  -0.3750000  -0.5000000), wk =   0.0833333

     Dense  grid:    99623 G-vectors     FFT dimensions: (  54,  54,  90)

     Smooth grid:    25109 G-vectors     FFT dimensions: (  36,  36,  54)

     Dynamical RAM for                 wfc:       0.09 MB

     Dynamical RAM for     wfc (w. buffer):       1.14 MB

     Dynamical RAM for           str. fact:       0.25 MB

     Dynamical RAM for           local pot:       0.00 MB

     Dynamical RAM for          nlocal pot:       0.21 MB

     Dynamical RAM for                qrad:       4.24 MB

     Dynamical RAM for          rho,v,vnew:       0.91 MB

     Dynamical RAM for               rhoin:       0.30 MB

     Dynamical RAM for            rho*nmix:       2.03 MB

     Dynamical RAM for           G-vectors:       0.49 MB

     Dynamical RAM for          h,s,v(r/c):       0.09 MB

     Dynamical RAM for          <psi|beta>:       0.02 MB

     Dynamical RAM for                 psi:       0.18 MB

     Dynamical RAM for                hpsi:       0.18 MB

     Dynamical RAM for                spsi:       0.18 MB

     Dynamical RAM for      wfcinit/wfcrot:       0.22 MB

     Dynamical RAM for           addusdens:      23.82 MB

     Dynamical RAM for          addusforce:      24.14 MB

     Dynamical RAM for         addusstress:      25.47 MB

     Estimated static dynamical RAM per process >       8.83 MB

     Estimated max dynamical RAM per process >      36.32 MB

     Estimated total dynamical RAM >     435.85 MB

     Initial potential from superposition of free atoms

     starting charge      35.9941, renormalised to      36.0000
     Starting wfcs are   26 randomized atomic wfcs
     Checking if some PAW data can be deallocated... 
       PAW data deallocated on    6 nodes for type:  1
       PAW data deallocated on    6 nodes for type:  2

     total cpu time spent up to now is        0.6 secs

     Self-consistent Calculation

     iteration #  1     ecut=    70.00 Ry     beta= 0.70
     Davidson diagonalization with overlap

---- Real-time Memory Report at c_bands before calling an iterative solver
           151 MiB given to the printing process from OS
             0 MiB allocation reported by mallinfo(arena+hblkhd)
         18705 MiB available memory on the node where the printing process lives
------------------
     ethr =  1.00E-02,  avg # of iterations =  2.2

     total cpu time spent up to now is        1.0 secs

     total energy              =    -611.67255534 Ry
     estimated scf accuracy    <       1.11811439 Ry

     iteration #  2     ecut=    70.00 Ry     beta= 0.70
     Davidson diagonalization with overlap

---- Real-time Memory Report at c_bands before calling an iterative solver
           168 MiB given to the printing process from OS
             0 MiB allocation reported by mallinfo(arena+hblkhd)
         18609 MiB available memory on the node where the printing process lives
------------------
     ethr =  3.11E-03,  avg # of iterations =  5.7

     total cpu time spent up to now is        1.5 secs

     total energy              =    -612.13248062 Ry
     estimated scf accuracy    <       1.40755291 Ry

     iteration #  3     ecut=    70.00 Ry     beta= 0.70
     Davidson diagonalization with overlap

---- Real-time Memory Report at c_bands before calling an iterative solver
           172 MiB given to the printing process from OS
             0 MiB allocation reported by mallinfo(arena+hblkhd)
         18572 MiB available memory on the node where the printing process lives
------------------
     ethr =  3.11E-03,  avg # of iterations =  2.0

     total cpu time spent up to now is        1.8 secs

     total energy              =    -612.39171492 Ry
     estimated scf accuracy    <       0.02736038 Ry

     iteration #  4     ecut=    70.00 Ry     beta= 0.70
     Davidson diagonalization with overlap

---- Real-time Memory Report at c_bands before calling an iterative solver
           173 MiB given to the printing process from OS
             0 MiB allocation reported by mallinfo(arena+hblkhd)
         18464 MiB available memory on the node where the printing process lives
------------------
     ethr =  7.60E-05,  avg # of iterations =  9.3

     total cpu time spent up to now is        2.5 secs

     total energy              =    -612.43256298 Ry
     estimated scf accuracy    <       0.01494971 Ry

     iteration #  5     ecut=    70.00 Ry     beta= 0.70
     Davidson diagonalization with overlap

---- Real-time Memory Report at c_bands before calling an iterative solver
           174 MiB given to the printing process from OS
             0 MiB allocation reported by mallinfo(arena+hblkhd)
         18597 MiB available memory on the node where the printing process lives
------------------
     ethr =  4.15E-05,  avg # of iterations =  2.8

     total cpu time spent up to now is        3.0 secs

     total energy              =    -612.43122655 Ry
     estimated scf accuracy    <       0.00987986 Ry

     iteration #  6     ecut=    70.00 Ry     beta= 0.70
     Davidson diagonalization with overlap

---- Real-time Memory Report at c_bands before calling an iterative solver
           176 MiB given to the printing process from OS
             0 MiB allocation reported by mallinfo(arena+hblkhd)
         18604 MiB available memory on the node where the printing process lives
------------------
     ethr =  2.74E-05,  avg # of iterations =  2.2

     total cpu time spent up to now is        3.3 secs

     total energy              =    -612.43102948 Ry
     estimated scf accuracy    <       0.00219527 Ry

     iteration #  7     ecut=    70.00 Ry     beta= 0.70
     Davidson diagonalization with overlap

---- Real-time Memory Report at c_bands before calling an iterative solver
           176 MiB given to the printing process from OS
             0 MiB allocation reported by mallinfo(arena+hblkhd)
         18624 MiB available memory on the node where the printing process lives
------------------
     ethr =  6.10E-06,  avg # of iterations =  6.1

     total cpu time spent up to now is        3.8 secs

     total energy              =    -612.43168581 Ry
     estimated scf accuracy    <       0.00027697 Ry

     iteration #  8     ecut=    70.00 Ry     beta= 0.70
     Davidson diagonalization with overlap

---- Real-time Memory Report at c_bands before calling an iterative solver
           177 MiB given to the printing process from OS
             0 MiB allocation reported by mallinfo(arena+hblkhd)
         18615 MiB available memory on the node where the printing process lives
------------------
     ethr =  7.69E-07,  avg # of iterations =  5.4

     total cpu time spent up to now is        4.2 secs

     total energy              =    -612.43182132 Ry
     estimated scf accuracy    <       0.00006201 Ry

     iteration #  9     ecut=    70.00 Ry     beta= 0.70
     Davidson diagonalization with overlap

---- Real-time Memory Report at c_bands before calling an iterative solver
           178 MiB given to the printing process from OS
             0 MiB allocation reported by mallinfo(arena+hblkhd)
         18595 MiB available memory on the node where the printing process lives
------------------
     ethr =  1.72E-07,  avg # of iterations =  4.8

     total cpu time spent up to now is        4.7 secs

     total energy              =    -612.43184409 Ry
     estimated scf accuracy    <       0.00003801 Ry

     iteration # 10     ecut=    70.00 Ry     beta= 0.70
     Davidson diagonalization with overlap

---- Real-time Memory Report at c_bands before calling an iterative solver
           180 MiB given to the printing process from OS
             0 MiB allocation reported by mallinfo(arena+hblkhd)
         18603 MiB available memory on the node where the printing process lives
------------------
     ethr =  1.06E-07,  avg # of iterations =  1.8

     total cpu time spent up to now is        5.0 secs

     total energy              =    -612.43184500 Ry
     estimated scf accuracy    <       0.00001967 Ry

     iteration # 11     ecut=    70.00 Ry     beta= 0.70
     Davidson diagonalization with overlap

---- Real-time Memory Report at c_bands before calling an iterative solver
           181 MiB given to the printing process from OS
             0 MiB allocation reported by mallinfo(arena+hblkhd)
         18602 MiB available memory on the node where the printing process lives
------------------
     ethr =  5.46E-08,  avg # of iterations =  2.6

     total cpu time spent up to now is        5.3 secs

     total energy              =    -612.43184653 Ry
     estimated scf accuracy    <       0.00003765 Ry

     iteration # 12     ecut=    70.00 Ry     beta= 0.70
     Davidson diagonalization with overlap

---- Real-time Memory Report at c_bands before calling an iterative solver
           182 MiB given to the printing process from OS
             0 MiB allocation reported by mallinfo(arena+hblkhd)
         18603 MiB available memory on the node where the printing process lives
------------------
     ethr =  5.46E-08,  avg # of iterations =  1.4

     total cpu time spent up to now is        5.8 secs

     total energy              =    -612.43184698 Ry
     estimated scf accuracy    <       0.00000091 Ry

     iteration # 13     ecut=    70.00 Ry     beta= 0.70
     Davidson diagonalization with overlap

---- Real-time Memory Report at c_bands before calling an iterative solver
           183 MiB given to the printing process from OS
             0 MiB allocation reported by mallinfo(arena+hblkhd)
         18590 MiB available memory on the node where the printing process lives
------------------
     ethr =  2.54E-09,  avg # of iterations =  8.4

     total cpu time spent up to now is        6.3 secs

     total energy              =    -612.43184845 Ry
     estimated scf accuracy    <       0.00000104 Ry

     iteration # 14     ecut=    70.00 Ry     beta= 0.70
     Davidson diagonalization with overlap

---- Real-time Memory Report at c_bands before calling an iterative solver
           184 MiB given to the printing process from OS
             0 MiB allocation reported by mallinfo(arena+hblkhd)
         18589 MiB available memory on the node where the printing process lives
------------------
     ethr =  2.54E-09,  avg # of iterations =  1.2

     total cpu time spent up to now is        6.6 secs

     total energy              =    -612.43184842 Ry
     estimated scf accuracy    <       0.00000017 Ry

     iteration # 15     ecut=    70.00 Ry     beta= 0.70
     Davidson diagonalization with overlap

---- Real-time Memory Report at c_bands before calling an iterative solver
           185 MiB given to the printing process from OS
             0 MiB allocation reported by mallinfo(arena+hblkhd)
         18589 MiB available memory on the node where the printing process lives
------------------
     ethr =  4.60E-10,  avg # of iterations =  6.0

     total cpu time spent up to now is        7.1 secs

     total energy              =    -612.43184855 Ry
     estimated scf accuracy    <       0.00000014 Ry

     iteration # 16     ecut=    70.00 Ry     beta= 0.70
     Davidson diagonalization with overlap

---- Real-time Memory Report at c_bands before calling an iterative solver
           186 MiB given to the printing process from OS
             0 MiB allocation reported by mallinfo(arena+hblkhd)
         18588 MiB available memory on the node where the printing process lives
------------------
     ethr =  4.02E-10,  avg # of iterations =  1.1

     total cpu time spent up to now is        7.4 secs

     total energy              =    -612.43184854 Ry
     estimated scf accuracy    <       0.00000003 Ry

     iteration # 17     ecut=    70.00 Ry     beta= 0.70
     Davidson diagonalization with overlap

---- Real-time Memory Report at c_bands before calling an iterative solver
           186 MiB given to the printing process from OS
             0 MiB allocation reported by mallinfo(arena+hblkhd)
         18587 MiB available memory on the node where the printing process lives
------------------
     ethr =  9.22E-11,  avg # of iterations =  4.6

     total cpu time spent up to now is        7.8 secs

     End of self-consistent calculation

          k = 0.1250 0.2165 0.1022 (  3132 PWs)   bands (ev):

    -6.0525  -5.6072  -4.1527  -4.1423  -4.0950  -4.0823  -4.0013  -3.9557
    -3.9258  -3.9229  -3.8494  -2.5601   3.3377   6.2449   6.4020   7.5138
     8.5886   8.6699  13.2874  15.2656  16.8789  17.1904

     occupation numbers 
     1.0000   1.0000   1.0000   1.0000   1.0000   1.0000   1.0000   1.0000
     1.0000   1.0000   1.0000   1.0000   1.0000   1.0000   1.0000   1.0000
     1.0000   1.0000   0.0000   0.0000   0.0000   0.0000

          k = 0.1250 0.2165-0.3067 (  3146 PWs)   bands (ev):

    -5.7578  -5.7578  -4.1285  -4.1285  -4.1088  -4.1088  -3.9874  -3.9874
    -3.9065  -3.9065  -3.4687  -3.4687   5.0461   5.0461   7.4222   7.4222
     7.9766   7.9766  14.5720  14.5720  16.6622  16.6622

     occupation numbers 
     1.0000   1.0000   1.0000   1.0000   1.0000   1.0000   1.0000   1.0000
     1.0000   1.0000   1.0000   1.0000   1.0000   1.0000   1.0000   1.0000
     1.0000   1.0000   0.0000   0.0000   0.0000   0.0000

          k = 0.1250 0.5052 0.1022 (  3152 PWs)   bands (ev):

    -5.6515  -5.5336  -4.1433  -4.1106  -4.0357  -3.9967  -3.9771  -3.9339
    -3.8928  -3.8719  -2.7934  -2.1216   3.0462   3.9890   5.5094   6.2321
     7.4641   7.6831  14.3132  15.2547  16.0439  17.1825

     occupation numbers 
     1.0000   1.0000   1.0000   1.0000   1.0000   1.0000   1.0000   1.0000
     1.0000   1.0000   1.0000   1.0000   1.0000   1.0000   1.0000   1.0000
     1.0000   1.0000   0.0000   0.0000   0.0000   0.0000

          k = 0.1250 0.5052-0.3067 (  3160 PWs)   bands (ev):

    -5.5567  -5.5567  -4.1226  -4.1226  -4.0450  -4.0450  -3.9447  -3.9447
    -3.8852  -3.8852  -2.5040  -2.5040   3.0839   3.0839   6.6096   6.6096
     7.6320   7.6320  14.2033  14.2033  17.0503  17.0503

     occupation numbers 
     1.0000   1.0000   1.0000   1.0000   1.0000   1.0000   1.0000   1.0000
     1.0000   1.0000   1.0000   1.0000   1.0000   1.0000   1.0000   1.0000
     1.0000   1.0000   0.0000   0.0000   0.0000   0.0000

          k = 0.1250-0.3608 0.1022 (  3142 PWs)   bands (ev):

    -5.7919  -5.5550  -4.1344  -4.1212  -4.0570  -4.0243  -3.9831  -3.9615
    -3.9125  -3.8813  -3.4610  -2.2382   3.5183   4.9027   5.4674   6.6170
     7.9751   8.2237  14.1567  15.6973  16.0034  17.2013

     occupation numbers 
     1.0000   1.0000   1.0000   1.0000   1.0000   1.0000   1.0000   1.0000
     1.0000   1.0000   1.0000   1.0000   1.0000   1.0000   1.0000   1.0000
     1.0000   1.0000   0.0000   0.0000   0.0000   0.0000

          k = 0.1250-0.3608-0.3067 (  3160 PWs)   bands (ev):

    -5.6227  -5.6227  -4.1137  -4.1137  -4.0675  -4.0675  -3.9799  -3.9799
    -3.8935  -3.8935  -3.0058  -3.0058   4.0574   4.0574   7.0394   7.0394
     7.4955   7.4955  14.5608  14.5608  16.8730  16.8730

     occupation numbers 
     1.0000   1.0000   1.0000   1.0000   1.0000   1.0000   1.0000   1.0000
     1.0000   1.0000   1.0000   1.0000   1.0000   1.0000   1.0000   1.0000
     1.0000   1.0000   0.0000   0.0000   0.0000   0.0000

          k = 0.1250-0.0722 0.1022 (  3137 PWs)   bands (ev):

    -6.2678  -5.6602  -4.1803  -4.1661  -4.1293  -4.1116  -4.1087  -3.9581
    -3.9539  -3.8989  -3.8739  -2.7706   3.0363   7.2902   7.6846   8.0293
     8.8776   9.0283  12.4174  14.2206  17.5693  18.1017

     occupation numbers 
     1.0000   1.0000   1.0000   1.0000   1.0000   1.0000   1.0000   1.0000
     1.0000   1.0000   1.0000   1.0000   1.0000   1.0000   1.0000   1.0000
     1.0000   1.0000   0.0000   0.0000   0.0000   0.0000

          k = 0.1250-0.0722-0.3067 (  3112 PWs)   bands (ev):

    -5.8829  -5.8829  -4.1543  -4.1543  -4.1444  -4.1444  -3.9627  -3.9627
    -3.9091  -3.9091  -3.6964  -3.6964   5.3866   5.3866   8.0138   8.0138
     8.5102   8.5102  13.9491  13.9491  17.0698  17.0698

     occupation numbers 
     1.0000   1.0000   1.0000   1.0000   1.0000   1.0000   1.0000   1.0000
     1.0000   1.0000   1.0000   1.0000   1.0000   1.0000   1.0000   1.0000
     1.0000   1.0000   0.0000   0.0000   0.0000   0.0000

          k = 0.3750 0.6495 0.1022 (  3149 PWs)   bands (ev):

    -5.5844  -5.5392  -4.1670  -4.0588  -4.0221  -3.9875  -3.9701  -3.9374
    -3.9195  -3.8988  -2.3822  -2.1131   3.4048   3.8894   4.6669   6.4140
     6.6156   7.1248  14.7699  16.1734  16.6990  17.0851

     occupation numbers 
     1.0000   1.0000   1.0000   1.0000   1.0000   1.0000   1.0000   1.0000
     1.0000   1.0000   1.0000   1.0000   1.0000   1.0000   1.0000   1.0000
     1.0000   1.0000   0.0000   0.0000   0.0000   0.0000

          k = 0.3750 0.6495-0.3067 (  3152 PWs)   bands (ev):

    -5.5300  -5.5300  -4.0891  -4.0891  -4.0590  -4.0590  -3.9454  -3.9454
    -3.9083  -3.9083  -2.2500  -2.2500   3.1649   3.1649   5.4895   5.4895
     7.7895   7.7895  15.1311  15.1311  16.8372  16.8372

     occupation numbers 
     1.0000   1.0000   1.0000   1.0000   1.0000   1.0000   1.0000   1.0000
     1.0000   1.0000   1.0000   1.0000   1.0000   1.0000   1.0000   1.0000
     1.0000   1.0000   0.0000   0.0000   0.0000   0.0000

          k = 0.3750-0.2165 0.1022 (  3159 PWs)   bands (ev):

    -5.7330  -5.5441  -4.1438  -4.1112  -4.0525  -4.0050  -3.9862  -3.9407
    -3.9025  -3.8599  -3.2349  -2.1828   3.1923   4.4026   5.3147   6.9115
     7.8914   8.2996  13.7418  14.6705  16.1036  17.2563

     occupation numbers 
     1.0000   1.0000   1.0000   1.0000   1.0000   1.0000   1.0000   1.0000
     1.0000   1.0000   1.0000   1.0000   1.0000   1.0000   1.0000   1.0000
     1.0000   1.0000   0.0000   0.0000   0.0000   0.0000

          k = 0.3750-0.2165-0.3067 (  3146 PWs)   bands (ev):

    -5.5950  -5.5950  -4.1339  -4.1339  -4.0454  -4.0454  -3.9502  -3.9502
    -3.8865  -3.8865  -2.8220  -2.8220   3.4656   3.4656   7.2882   7.2882
     7.5583   7.5583  13.8329  13.8329  16.8583  16.8583

     occupation numbers 
     1.0000   1.0000   1.0000   1.0000   1.0000   1.0000   1.0000   1.0000
     1.0000   1.0000   1.0000   1.0000   1.0000   1.0000   1.0000   1.0000
     1.0000   1.0000   0.0000   0.0000   0.0000   0.0000

     highest occupied, lowest unoccupied level (ev):     9.0283   12.4174

!    total energy              =    -612.43184855 Ry
     total all-electron energy =     -7995.358767 Ry
     estimated scf accuracy    <          4.9E-09 Ry

     The total energy is the sum of the following terms:
     one-electron contribution =    -184.74360701 Ry
     hartree contribution      =     131.26085631 Ry
     xc contribution           =     -88.36351338 Ry
     ewald contribution        =    -230.82466193 Ry
     one-center paw contrib.   =    -239.76092255 Ry
      -> PAW hartree energy AE =     145.66490426 Ry
      -> PAW hartree energy PS =    -144.61825728 Ry
      -> PAW xc energy AE      =    -151.16795109 Ry
      -> PAW xc energy PS      =      38.21772730 Ry
      -> total E_H with PAW    =     132.30750329 Ry
      -> total E_XC with PAW   =    -201.31373717 Ry

     convergence has been achieved in  17 iterations

     Forces acting on atoms (cartesian axes, Ry/au):

     atom    1 type  1   force =     0.00000000    0.00000000   -0.00051310
     atom    2 type  1   force =     0.00000000    0.00000000   -0.00051310
     atom    3 type  2   force =     0.00000000    0.00000000    0.00051310
     atom    4 type  2   force =     0.00000000    0.00000000    0.00051310
     The non-local contrib.  to forces
     atom    1 type  1   force =     0.00000000    0.00000000    0.00730303
     atom    2 type  1   force =     0.00000000    0.00000000    0.00730303
     atom    3 type  2   force =     0.00000000    0.00000000    0.01281065
     atom    4 type  2   force =     0.00000000    0.00000000    0.01281065
     The ionic contribution  to forces
     atom    1 type  1   force =    -0.00000002    0.00000001    0.15748047
     atom    2 type  1   force =     0.00000002   -0.00000001    0.15748047
     atom    3 type  2   force =    -0.00000001    0.00000001   -0.15748047
     atom    4 type  2   force =     0.00000001   -0.00000001   -0.15748047
     The local contribution  to forces
     atom    1 type  1   force =    -0.00000000    0.00000032   -0.16543839
     atom    2 type  1   force =     0.00000056    0.00000000   -0.16543833
     atom    3 type  2   force =     0.00000000    0.00000003    0.14537814
     atom    4 type  2   force =     0.00000004    0.00000000    0.14537805
     The core correction contribution to forces
     atom    1 type  1   force =     0.00000000    0.00000002    0.00014245
     atom    2 type  1   force =     0.00000004    0.00000000    0.00014246
     atom    3 type  2   force =     0.00000000   -0.00000000   -0.00019703
     atom    4 type  2   force =    -0.00000000    0.00000000   -0.00019703
     The Hubbard contrib.    to forces
     atom    1 type  1   force =     0.00000000    0.00000000    0.00000000
     atom    2 type  1   force =     0.00000000    0.00000000    0.00000000
     atom    3 type  2   force =     0.00000000    0.00000000    0.00000000
     atom    4 type  2   force =     0.00000000    0.00000000    0.00000000
     The SCF correction term to forces
     atom    1 type  1   force =     0.00000000    0.00000000    0.00000000
     atom    2 type  1   force =     0.00000000    0.00000000    0.00000000
     atom    3 type  2   force =     0.00000000    0.00000000   -0.00000049
     atom    4 type  2   force =     0.00000000    0.00000000   -0.00000049

     Total force =     0.000726     Total SCF correction =     0.000001


     Computing stress (Cartesian axis) and pressure

          total   stress  (Ry/bohr**3)                   (kbar)     P=       -6.47
  -0.00004530   0.00000000   0.00000000           -6.66        0.00        0.00
   0.00000000  -0.00004530   0.00000000            0.00       -6.66        0.00
   0.00000000   0.00000000  -0.00004137            0.00        0.00       -6.09

     kinetic stress (kbar)  19805.90      0.00      0.00
                                0.00  19805.90      0.00
                                0.00     -0.00  19800.14

     local   stress (kbar)   6190.64      0.00     -0.00
                                0.00   6190.64     -0.00
                               -0.00     -0.00   4428.69

     nonloc. stress (kbar)  -1204.84      0.00      0.00
                                0.00  -1204.84      0.00
                                0.00      0.00  -1191.67

     hartree stress (kbar)  19967.10      0.00      0.00
                                0.00  19967.10      0.00
                                0.00      0.00  20762.44

     exc-cor stress (kbar)   5145.66     -0.00      0.00
                               -0.00   5145.66      0.00
                                0.00      0.00   5146.11

     corecor stress (kbar) -14012.77      0.00     -0.00
                                0.00 -14012.77     -0.00
                               -0.00     -0.00 -14012.34

     ewald   stress (kbar) -35898.35     -0.00     -0.00
                               -0.00 -35898.35     -0.00
                               -0.00     -0.00 -34939.46

     hubbard stress (kbar)      0.00      0.00      0.00
                                0.00      0.00      0.00
                                0.00      0.00      0.00

     DFT-D   stress (kbar)      0.00      0.00      0.00
                                0.00      0.00      0.00
                                0.00      0.00      0.00

     XDM     stress (kbar)      0.00      0.00      0.00
                                0.00      0.00      0.00
                                0.00      0.00      0.00

     dft-nl  stress (kbar)      0.00      0.00      0.00
                                0.00      0.00      0.00
                                0.00      0.00      0.00

     TS-vdW  stress (kbar)      0.00      0.00      0.00
                                0.00      0.00      0.00
                                0.00      0.00      0.00

     MDB     stress (kbar)      0.00      0.00      0.00
                                0.00      0.00      0.00
                                0.00      0.00      0.00

     3D-RISM stress (kbar)      0.00      0.00      0.00
                                0.00      0.00      0.00
                                0.00      0.00      0.00


     Writing all to output data dir ./tmp/GaN.save/ :
     XML data file, charge density, pseudopotentials, collected wavefunctions
 
     init_run     :      0.38s CPU      0.42s WALL (       1 calls)
     electrons    :      6.18s CPU      7.21s WALL (       1 calls)
     forces       :      0.06s CPU      0.09s WALL (       1 calls)
     stress       :      0.34s CPU      0.37s WALL (       1 calls)

     Called by init_run:
     wfcinit      :      0.07s CPU      0.08s WALL (       1 calls)
     wfcinit:atom :      0.00s CPU      0.00s WALL (      12 calls)
     wfcinit:wfcr :      0.06s CPU      0.07s WALL (      12 calls)
     potinit      :      0.08s CPU      0.10s WALL (       1 calls)
     hinit0       :      0.07s CPU      0.08s WALL (       1 calls)

     Called by electrons:
     c_bands      :      3.18s CPU      3.39s WALL (      17 calls)
     sum_band     :      1.01s CPU      1.38s WALL (      17 calls)
     v_of_rho     :      0.18s CPU      0.20s WALL (      18 calls)
     v_h          :      0.01s CPU      0.01s WALL (      18 calls)
     v_xc         :      0.19s CPU      0.21s WALL (      20 calls)
     newd         :      0.61s CPU      0.97s WALL (      18 calls)
     PAW_pot      :      1.24s CPU      1.29s WALL (      18 calls)
     mix_rho      :      0.03s CPU      0.03s WALL (      17 calls)

     Called by c_bands:
     init_us_2    :      0.04s CPU      0.05s WALL (     444 calls)
     cegterg      :      3.06s CPU      3.26s WALL (     204 calls)

     Called by sum_band:
     sum_band:wei :      0.00s CPU      0.00s WALL (      17 calls)
     sum_band:loo :      0.44s CPU      0.47s WALL (      17 calls)
     sum_band:buf :      0.01s CPU      0.01s WALL (     204 calls)
     sum_band:ini :      0.02s CPU      0.02s WALL (     204 calls)
     sum_band:cal :      0.02s CPU      0.03s WALL (     204 calls)
     sum_band:bec :      0.00s CPU      0.00s WALL (     204 calls)
     addusdens    :      0.53s CPU      0.85s WALL (      17 calls)
                                        0.00s GPU  (      17 calls)
     addusd:skk   :      0.00s CPU      0.00s WALL (      34 calls)
                                        0.00s GPU  (      34 calls)

     Called by *egterg:
     cdiaghg      :      0.46s CPU      0.47s WALL (    1013 calls)
     cegterg:over :      0.10s CPU      0.11s WALL (     809 calls)
     cegterg:upda :      0.04s CPU      0.04s WALL (     809 calls)
     cegterg:last :      0.08s CPU      0.08s WALL (     537 calls)
     h_psi        :      2.27s CPU      2.43s WALL (    1025 calls)
     s_psi        :      0.05s CPU      0.06s WALL (    1025 calls)
     g_psi        :      0.01s CPU      0.01s WALL (     809 calls)

     Called by h_psi:
     h_psi:calbec :      0.09s CPU      0.10s WALL (    1025 calls)
     vloc_psi     :      2.10s CPU      2.26s WALL (    1025 calls)
     add_vuspsi   :      0.06s CPU      0.06s WALL (    1025 calls)

     General routines
     calbec       :      0.13s CPU      0.13s WALL (    1289 calls)
     fft          :      0.12s CPU      0.15s WALL (     257 calls)
     ffts         :      0.00s CPU      0.01s WALL (      35 calls)
     fftw         :      2.07s CPU      2.24s WALL (   31662 calls)
     interpolate  :      0.03s CPU      0.04s WALL (      18 calls)
 
     Parallel routines

     PAW routines
     PAW_pot      :      1.24s CPU      1.29s WALL (      18 calls)
     PAW_symme    :      0.00s CPU      0.00s WALL (      35 calls)
 
     PWSCF        :      7.24s CPU      8.70s WALL

 
   This run was terminated on:  14:13:32   6Aug2026            

=------------------------------------------------------------------------------=
   JOB DONE.
=------------------------------------------------------------------------------=
