
     Program PWSCF v.7.3.1 starts on 30Aug2026 at 12:15:21 

     This program is part of the open-source Quantum ESPRESSO suite
     for quantum simulation of materials; please cite
         "P. Giannozzi et al., J. Phys.:Condens. Matter 21 395502 (2009);
         "P. Giannozzi et al., J. Phys.:Condens. Matter 29 465901 (2017);
         "P. Giannozzi et al., J. Chem. Phys. 152 154105 (2020);
          URL http://www.quantum-espresso.org", 
     in publications or presentations arising from this work. More details at
     http://www.quantum-espresso.org/quote

     Parallel version (MPI & OpenMP), running on      12 processor cores
     Number of MPI processes:                12
     Threads/MPI process:                     1

     MPI processes distributed on     1 nodes
     19745 MiB available memory on the printing compute node when the environment starts
 
     Waiting for input...
     Reading input from standard input

     Current dimensions of program PWSCF are:
     Max number of different atomic species (ntypx) = 10
     Max number of k-points (npk) =  40000
     Max angular momentum in pseudopotentials (lmaxx) =  4
     file Ga.pbe-dn-kjpaw_psl.1.0.0.UPF: wavefunction(s)  4S renormalized
     file N.pbe-n-kjpaw_psl.1.0.0.UPF: wavefunction(s)  2S renormalized
     file C.pbe-n-kjpaw_psl.1.0.0.UPF: wavefunction(s)  2S 2P renormalized
     Message from routine setup:
     using ibrav=0 with symmetry is DISCOURAGED, use correct ibrav instead
 
     R & G space division:  proc/nbgrp/npool/nimage =      12
     Subspace diagonalization in iterative solution of the eigenvalue problem:
     one sub-group per band group will be used
     custom distributed-memory algorithm (size of sub-group:  3*  3 procs)

 
     Parallelization info
     --------------------
     sticks:   dense  smooth     PW     G-vecs:    dense   smooth      PW
     Min         955     382    103               135143    34186    4755
     Max         956     383    104               135146    34191    4762
     Sum       11461    4591   1237              1621723   410263   57081
 
     Using Slab Decomposition
 


     bravais-lattice index     =            0
     lattice parameter (alat)  =      18.2548  a.u.
     unit-cell volume          =    8589.3845 (a.u.)^3
     number of atoms/cell      =          108
     number of atomic types    =            3
     number of electrons       =       971.00
     number of Kohn-Sham states=          513
     kinetic-energy cutoff     =      50.0000  Ry
     charge density cutoff     =     500.0000  Ry
     scf convergence threshold =      1.0E-08
     mixing beta               =       0.7000
     number of iterations used =            8  plain     mixing
     Exchange-correlation= SLA  PW   PBX  PBC
                           (   1   4   3   4   0   0   0)

     celldm(1)=  18.254754  celldm(2)=   0.000000  celldm(3)=   0.000000
     celldm(4)=   0.000000  celldm(5)=   0.000000  celldm(6)=   0.000000

     crystal axes: (cart. coord. in units of alat)
               a(1) = (   1.000000   0.000000   0.000000 )  
               a(2) = (  -0.500000   0.866025   0.000000 )  
               a(3) = (   0.000000   0.000000   1.630435 )  

     reciprocal axes: (cart. coord. in units 2 pi/alat)
               b(1) = (  1.000000  0.577350  0.000000 )  
               b(2) = (  0.000000  1.154701  0.000000 )  
               b(3) = (  0.000000  0.000000  0.613333 )  


     PseudoPot. # 1 for Ga read from file:
     /data-fast/greenano/Students/cohort2/rojassan/Project_GaN/PSEUDO/Ga.pbe-dn-kjpaw_psl.1.0.0.UPF
     MD5 check sum: 93aceff68ec27daa0acc11ebb2e245f0
     Pseudo is Projector augmented-wave + core cor, Zval = 13.0
     Generated using 'atomic' code by A. Dal Corso  v.7.3.1
     Shape of augmentation charge: PSQ
     Using radial grid of 1205 points,  6 beta functions with: 
                l(1) =   0
                l(2) =   0
                l(3) =   1
                l(4) =   1
                l(5) =   2
                l(6) =   2
     Q(r) pseudized with 0 coefficients 


     PseudoPot. # 2 for N  read from file:
     /data-fast/greenano/Students/cohort2/rojassan/Project_GaN/PSEUDO/N.pbe-n-kjpaw_psl.1.0.0.UPF
     MD5 check sum: 86f48117b7e7b472c01f85d0863ba463
     Pseudo is Projector augmented-wave + core cor, Zval =  5.0
     Generated using 'atomic' code by A. Dal Corso  v.7.3.1
     Shape of augmentation charge: PSQ
     Using radial grid of 1085 points,  4 beta functions with: 
                l(1) =   0
                l(2) =   0
                l(3) =   1
                l(4) =   1
     Q(r) pseudized with 0 coefficients 


     PseudoPot. # 3 for C  read from file:
     /data-fast/greenano/Students/cohort2/rojassan/Project_GaN/PSEUDO/C.pbe-n-kjpaw_psl.1.0.0.UPF
     MD5 check sum: 6e4988b7a1fe6f06f65aa0569fb69d66
     Pseudo is Projector augmented-wave + core cor, Zval =  4.0
     Generated using 'atomic' code by A. Dal Corso  v.7.3.1
     Shape of augmentation charge: PSQ
     Using radial grid of 1073 points,  4 beta functions with: 
                l(1) =   0
                l(2) =   0
                l(3) =   1
                l(4) =   1
     Q(r) pseudized with 0 coefficients 


     atomic species   valence    mass     pseudopotential
     Ga               13.00    69.72300     Ga( 1.00)
     N                 5.00    14.00700     N ( 1.00)
     C                 4.00    12.01100     C ( 1.00)

     Starting magnetic structure 
     atomic species   magnetization
     Ga              0.000
     N               0.000
     C               0.500

      6 Sym. Ops. (no inversion) found ( 4 have fractional translation)


                                    s                        frac. trans.

      isym =  1     identity                                     

 cryst.   s( 1) = (     1          0          0      )
                  (     0          1          0      )
                  (     0          0          1      )

 cart.    s( 1) = (  1.0000000  0.0000000  0.0000000 )
                  (  0.0000000  1.0000000  0.0000000 )
                  (  0.0000000  0.0000000  1.0000000 )


      isym =  2     120 deg rotation - cryst. axis [0,0,1]       

 cryst.   s( 2) = (     0          1          0      )    f =( -0.3333333 )
                  (    -1         -1          0      )       ( -0.3333333 )
                  (     0          0          1      )       (  0.0000000 )

 cart.    s( 2) = ( -0.5000000 -0.8660254  0.0000000 )    f =( -0.1666667 )
                  (  0.8660254 -0.5000000  0.0000000 )       ( -0.2886751 )
                  (  0.0000000  0.0000000  1.0000000 )       (  0.0000000 )


      isym =  3     120 deg rotation - cryst. axis [0,0,-1]      

 cryst.   s( 3) = (    -1         -1          0      )    f =(  0.0000000 )
                  (     1          0          0      )       ( -0.3333333 )
                  (     0          0          1      )       (  0.0000000 )

 cart.    s( 3) = ( -0.5000000  0.8660254  0.0000000 )    f =(  0.1666667 )
                  ( -0.8660254 -0.5000000  0.0000000 )       ( -0.2886751 )
                  (  0.0000000  0.0000000  1.0000000 )       (  0.0000000 )


      isym =  4     inv. 180 deg rotation - cart. axis [1,0,0]   

 cryst.   s( 4) = (    -1          0          0      )
                  (     1          1          0      )
                  (     0          0          1      )

 cart.    s( 4) = ( -1.0000000  0.0000000  0.0000000 )
                  (  0.0000000  1.0000000  0.0000000 )
                  (  0.0000000  0.0000000  1.0000000 )


      isym =  5     inv. 180 deg rotation - cryst. axis [0,1,0]  

 cryst.   s( 5) = (     1          1          0      )    f =(  0.0000000 )
                  (     0         -1          0      )       ( -0.3333333 )
                  (     0          0          1      )       (  0.0000000 )

 cart.    s( 5) = (  0.5000000  0.8660254  0.0000000 )    f =(  0.1666667 )
                  (  0.8660254 -0.5000000  0.0000000 )       ( -0.2886751 )
                  (  0.0000000  0.0000000  1.0000000 )       (  0.0000000 )


      isym =  6     inv. 180 deg rotation - cryst. axis [1,1,0]  

 cryst.   s( 6) = (     0         -1          0      )    f =( -0.3333333 )
                  (    -1          0          0      )       ( -0.3333333 )
                  (     0          0          1      )       (  0.0000000 )

 cart.    s( 6) = (  0.5000000 -0.8660254  0.0000000 )    f =( -0.1666667 )
                  ( -0.8660254 -0.5000000  0.0000000 )       ( -0.2886751 )
                  (  0.0000000  0.0000000  1.0000000 )       (  0.0000000 )


   Cartesian axes

     site n.     atom                  positions (alat units)
         1        Ga     tau(   1) = (   0.0000000   0.1924501   0.0000000  )
         2        Ga     tau(   2) = (   0.1666667   0.0962250   0.2717391  )
         3        C      tau(   3) = (   0.0000000   0.1924501   0.2045554  )
         4        N      tau(   4) = (   0.1666667   0.0962250   0.4762946  )
         5        Ga     tau(   5) = (   0.3333333   0.1924501   0.0000000  )
         6        Ga     tau(   6) = (   0.5000000   0.0962250   0.2717391  )
         7        N      tau(   7) = (   0.3333333   0.1924501   0.2045554  )
         8        N      tau(   8) = (   0.5000000   0.0962250   0.4762946  )
         9        Ga     tau(   9) = (   0.6666667   0.1924501   0.0000000  )
        10        Ga     tau(  10) = (   0.8333333   0.0962250   0.2717391  )
        11        N      tau(  11) = (   0.6666667   0.1924501   0.2045554  )
        12        N      tau(  12) = (   0.8333333   0.0962250   0.4762946  )
        13        Ga     tau(  13) = (  -0.1666667   0.4811252   0.0000000  )
        14        Ga     tau(  14) = (   0.0000000   0.3849002   0.2717391  )
        15        N      tau(  15) = (  -0.1666667   0.4811252   0.2045554  )
        16        N      tau(  16) = (   0.0000000   0.3849002   0.4762946  )
        17        Ga     tau(  17) = (   0.1666667   0.4811252   0.0000000  )
        18        Ga     tau(  18) = (   0.3333333   0.3849002   0.2717391  )
        19        N      tau(  19) = (   0.1666667   0.4811252   0.2045554  )
        20        N      tau(  20) = (   0.3333333   0.3849002   0.4762946  )
        21        Ga     tau(  21) = (   0.5000000   0.4811252   0.0000000  )
        22        Ga     tau(  22) = (   0.6666667   0.3849002   0.2717391  )
        23        N      tau(  23) = (   0.5000000   0.4811252   0.2045554  )
        24        N      tau(  24) = (   0.6666667   0.3849002   0.4762946  )
        25        Ga     tau(  25) = (  -0.3333333   0.7698004   0.0000000  )
        26        Ga     tau(  26) = (  -0.1666667   0.6735753   0.2717391  )
        27        N      tau(  27) = (  -0.3333333   0.7698004   0.2045554  )
        28        N      tau(  28) = (  -0.1666667   0.6735753   0.4762946  )
        29        Ga     tau(  29) = (   0.0000000   0.7698004   0.0000000  )
        30        Ga     tau(  30) = (   0.1666667   0.6735753   0.2717391  )
        31        N      tau(  31) = (   0.0000000   0.7698004   0.2045554  )
        32        N      tau(  32) = (   0.1666667   0.6735753   0.4762946  )
        33        Ga     tau(  33) = (   0.3333333   0.7698004   0.0000000  )
        34        Ga     tau(  34) = (   0.5000000   0.6735753   0.2717391  )
        35        N      tau(  35) = (   0.3333333   0.7698004   0.2045554  )
        36        N      tau(  36) = (   0.5000000   0.6735753   0.4762946  )
        37        Ga     tau(  37) = (   0.0000000   0.1924501   0.5434783  )
        38        Ga     tau(  38) = (   0.1666667   0.0962250   0.8152174  )
        39        N      tau(  39) = (   0.0000000   0.1924501   0.7480337  )
        40        N      tau(  40) = (   0.1666667   0.0962250   1.0197728  )
        41        Ga     tau(  41) = (   0.3333333   0.1924501   0.5434783  )
        42        Ga     tau(  42) = (   0.5000000   0.0962250   0.8152174  )
        43        N      tau(  43) = (   0.3333333   0.1924501   0.7480337  )
        44        N      tau(  44) = (   0.5000000   0.0962250   1.0197728  )
        45        Ga     tau(  45) = (   0.6666667   0.1924501   0.5434783  )
        46        Ga     tau(  46) = (   0.8333333   0.0962250   0.8152174  )
        47        N      tau(  47) = (   0.6666667   0.1924501   0.7480337  )
        48        N      tau(  48) = (   0.8333333   0.0962250   1.0197728  )
        49        Ga     tau(  49) = (  -0.1666667   0.4811252   0.5434783  )
        50        Ga     tau(  50) = (   0.0000000   0.3849002   0.8152174  )
        51        N      tau(  51) = (  -0.1666667   0.4811252   0.7480337  )
        52        N      tau(  52) = (   0.0000000   0.3849002   1.0197728  )
        53        Ga     tau(  53) = (   0.1666667   0.4811252   0.5434783  )
        54        Ga     tau(  54) = (   0.3333333   0.3849002   0.8152174  )
        55        N      tau(  55) = (   0.1666667   0.4811252   0.7480337  )
        56        N      tau(  56) = (   0.3333333   0.3849002   1.0197728  )
        57        Ga     tau(  57) = (   0.5000000   0.4811252   0.5434783  )
        58        Ga     tau(  58) = (   0.6666667   0.3849002   0.8152174  )
        59        N      tau(  59) = (   0.5000000   0.4811252   0.7480337  )
        60        N      tau(  60) = (   0.6666667   0.3849002   1.0197728  )
        61        Ga     tau(  61) = (  -0.3333333   0.7698004   0.5434783  )
        62        Ga     tau(  62) = (  -0.1666667   0.6735753   0.8152174  )
        63        N      tau(  63) = (  -0.3333333   0.7698004   0.7480337  )
        64        N      tau(  64) = (  -0.1666667   0.6735753   1.0197728  )
        65        Ga     tau(  65) = (   0.0000000   0.7698004   0.5434783  )
        66        Ga     tau(  66) = (   0.1666667   0.6735753   0.8152174  )
        67        N      tau(  67) = (   0.0000000   0.7698004   0.7480337  )
        68        N      tau(  68) = (   0.1666667   0.6735753   1.0197728  )
        69        Ga     tau(  69) = (   0.3333333   0.7698004   0.5434783  )
        70        Ga     tau(  70) = (   0.5000000   0.6735753   0.8152174  )
        71        N      tau(  71) = (   0.3333333   0.7698004   0.7480337  )
        72        N      tau(  72) = (   0.5000000   0.6735753   1.0197728  )
        73        Ga     tau(  73) = (   0.0000000   0.1924501   1.0869565  )
        74        Ga     tau(  74) = (   0.1666667   0.0962250   1.3586957  )
        75        N      tau(  75) = (   0.0000000   0.1924501   1.2915120  )
        76        N      tau(  76) = (   0.1666667   0.0962250   1.5632511  )
        77        Ga     tau(  77) = (   0.3333333   0.1924501   1.0869565  )
        78        Ga     tau(  78) = (   0.5000000   0.0962250   1.3586957  )
        79        N      tau(  79) = (   0.3333333   0.1924501   1.2915120  )
        80        N      tau(  80) = (   0.5000000   0.0962250   1.5632511  )
        81        Ga     tau(  81) = (   0.6666667   0.1924501   1.0869565  )
        82        Ga     tau(  82) = (   0.8333333   0.0962250   1.3586957  )
        83        N      tau(  83) = (   0.6666667   0.1924501   1.2915120  )
        84        N      tau(  84) = (   0.8333333   0.0962250   1.5632511  )
        85        Ga     tau(  85) = (  -0.1666667   0.4811252   1.0869565  )
        86        Ga     tau(  86) = (   0.0000000   0.3849002   1.3586957  )
        87        N      tau(  87) = (  -0.1666667   0.4811252   1.2915120  )
        88        N      tau(  88) = (   0.0000000   0.3849002   1.5632511  )
        89        Ga     tau(  89) = (   0.1666667   0.4811252   1.0869565  )
        90        Ga     tau(  90) = (   0.3333333   0.3849002   1.3586957  )
        91        N      tau(  91) = (   0.1666667   0.4811252   1.2915120  )
        92        N      tau(  92) = (   0.3333333   0.3849002   1.5632511  )
        93        Ga     tau(  93) = (   0.5000000   0.4811252   1.0869565  )
        94        Ga     tau(  94) = (   0.6666667   0.3849002   1.3586957  )
        95        N      tau(  95) = (   0.5000000   0.4811252   1.2915120  )
        96        N      tau(  96) = (   0.6666667   0.3849002   1.5632511  )
        97        Ga     tau(  97) = (  -0.3333333   0.7698004   1.0869565  )
        98        Ga     tau(  98) = (  -0.1666667   0.6735753   1.3586957  )
        99        N      tau(  99) = (  -0.3333333   0.7698004   1.2915120  )
       100        N      tau( 100) = (  -0.1666667   0.6735753   1.5632511  )
       101        Ga     tau( 101) = (   0.0000000   0.7698004   1.0869565  )
       102        Ga     tau( 102) = (   0.1666667   0.6735753   1.3586957  )
       103        N      tau( 103) = (   0.0000000   0.7698004   1.2915120  )
       104        N      tau( 104) = (   0.1666667   0.6735753   1.5632511  )
       105        Ga     tau( 105) = (   0.3333333   0.7698004   1.0869565  )
       106        Ga     tau( 106) = (   0.5000000   0.6735753   1.3586957  )
       107        N      tau( 107) = (   0.3333333   0.7698004   1.2915120  )
       108        N      tau( 108) = (   0.5000000   0.6735753   1.5632511  )

   Crystallographic axes

     site n.     atom                  positions (cryst. coord.)
         1        Ga     tau(   1) = (  0.1111111  0.2222222  0.0000000  )
         2        Ga     tau(   2) = (  0.2222222  0.1111111  0.1666667  )
         3        C      tau(   3) = (  0.1111111  0.2222222  0.1254607  )
         4        N      tau(   4) = (  0.2222222  0.1111111  0.2921273  )
         5        Ga     tau(   5) = (  0.4444444  0.2222222  0.0000000  )
         6        Ga     tau(   6) = (  0.5555556  0.1111111  0.1666667  )
         7        N      tau(   7) = (  0.4444444  0.2222222  0.1254607  )
         8        N      tau(   8) = (  0.5555556  0.1111111  0.2921273  )
         9        Ga     tau(   9) = (  0.7777778  0.2222222  0.0000000  )
        10        Ga     tau(  10) = (  0.8888889  0.1111111  0.1666667  )
        11        N      tau(  11) = (  0.7777778  0.2222222  0.1254607  )
        12        N      tau(  12) = (  0.8888889  0.1111111  0.2921273  )
        13        Ga     tau(  13) = (  0.1111111  0.5555556  0.0000000  )
        14        Ga     tau(  14) = (  0.2222222  0.4444444  0.1666667  )
        15        N      tau(  15) = (  0.1111111  0.5555556  0.1254607  )
        16        N      tau(  16) = (  0.2222222  0.4444444  0.2921273  )
        17        Ga     tau(  17) = (  0.4444444  0.5555556  0.0000000  )
        18        Ga     tau(  18) = (  0.5555556  0.4444444  0.1666667  )
        19        N      tau(  19) = (  0.4444444  0.5555556  0.1254607  )
        20        N      tau(  20) = (  0.5555556  0.4444444  0.2921273  )
        21        Ga     tau(  21) = (  0.7777778  0.5555556  0.0000000  )
        22        Ga     tau(  22) = (  0.8888889  0.4444444  0.1666667  )
        23        N      tau(  23) = (  0.7777778  0.5555556  0.1254607  )
        24        N      tau(  24) = (  0.8888889  0.4444444  0.2921273  )
        25        Ga     tau(  25) = (  0.1111111  0.8888889  0.0000000  )
        26        Ga     tau(  26) = (  0.2222222  0.7777778  0.1666667  )
        27        N      tau(  27) = (  0.1111111  0.8888889  0.1254607  )
        28        N      tau(  28) = (  0.2222222  0.7777778  0.2921273  )
        29        Ga     tau(  29) = (  0.4444444  0.8888889  0.0000000  )
        30        Ga     tau(  30) = (  0.5555556  0.7777778  0.1666667  )
        31        N      tau(  31) = (  0.4444444  0.8888889  0.1254607  )
        32        N      tau(  32) = (  0.5555556  0.7777778  0.2921273  )
        33        Ga     tau(  33) = (  0.7777778  0.8888889  0.0000000  )
        34        Ga     tau(  34) = (  0.8888889  0.7777778  0.1666667  )
        35        N      tau(  35) = (  0.7777778  0.8888889  0.1254607  )
        36        N      tau(  36) = (  0.8888889  0.7777778  0.2921273  )
        37        Ga     tau(  37) = (  0.1111111  0.2222222  0.3333333  )
        38        Ga     tau(  38) = (  0.2222222  0.1111111  0.5000000  )
        39        N      tau(  39) = (  0.1111111  0.2222222  0.4587940  )
        40        N      tau(  40) = (  0.2222222  0.1111111  0.6254607  )
        41        Ga     tau(  41) = (  0.4444444  0.2222222  0.3333333  )
        42        Ga     tau(  42) = (  0.5555556  0.1111111  0.5000000  )
        43        N      tau(  43) = (  0.4444444  0.2222222  0.4587940  )
        44        N      tau(  44) = (  0.5555556  0.1111111  0.6254607  )
        45        Ga     tau(  45) = (  0.7777778  0.2222222  0.3333333  )
        46        Ga     tau(  46) = (  0.8888889  0.1111111  0.5000000  )
        47        N      tau(  47) = (  0.7777778  0.2222222  0.4587940  )
        48        N      tau(  48) = (  0.8888889  0.1111111  0.6254607  )
        49        Ga     tau(  49) = (  0.1111111  0.5555556  0.3333333  )
        50        Ga     tau(  50) = (  0.2222222  0.4444444  0.5000000  )
        51        N      tau(  51) = (  0.1111111  0.5555556  0.4587940  )
        52        N      tau(  52) = (  0.2222222  0.4444444  0.6254607  )
        53        Ga     tau(  53) = (  0.4444444  0.5555556  0.3333333  )
        54        Ga     tau(  54) = (  0.5555556  0.4444444  0.5000000  )
        55        N      tau(  55) = (  0.4444444  0.5555556  0.4587940  )
        56        N      tau(  56) = (  0.5555556  0.4444444  0.6254607  )
        57        Ga     tau(  57) = (  0.7777778  0.5555556  0.3333333  )
        58        Ga     tau(  58) = (  0.8888889  0.4444444  0.5000000  )
        59        N      tau(  59) = (  0.7777778  0.5555556  0.4587940  )
        60        N      tau(  60) = (  0.8888889  0.4444444  0.6254607  )
        61        Ga     tau(  61) = (  0.1111111  0.8888889  0.3333333  )
        62        Ga     tau(  62) = (  0.2222222  0.7777778  0.5000000  )
        63        N      tau(  63) = (  0.1111111  0.8888889  0.4587940  )
        64        N      tau(  64) = (  0.2222222  0.7777778  0.6254607  )
        65        Ga     tau(  65) = (  0.4444444  0.8888889  0.3333333  )
        66        Ga     tau(  66) = (  0.5555556  0.7777778  0.5000000  )
        67        N      tau(  67) = (  0.4444444  0.8888889  0.4587940  )
        68        N      tau(  68) = (  0.5555556  0.7777778  0.6254607  )
        69        Ga     tau(  69) = (  0.7777778  0.8888889  0.3333333  )
        70        Ga     tau(  70) = (  0.8888889  0.7777778  0.5000000  )
        71        N      tau(  71) = (  0.7777778  0.8888889  0.4587940  )
        72        N      tau(  72) = (  0.8888889  0.7777778  0.6254607  )
        73        Ga     tau(  73) = (  0.1111111  0.2222222  0.6666667  )
        74        Ga     tau(  74) = (  0.2222222  0.1111111  0.8333333  )
        75        N      tau(  75) = (  0.1111111  0.2222222  0.7921273  )
        76        N      tau(  76) = (  0.2222222  0.1111111  0.9587940  )
        77        Ga     tau(  77) = (  0.4444444  0.2222222  0.6666667  )
        78        Ga     tau(  78) = (  0.5555556  0.1111111  0.8333333  )
        79        N      tau(  79) = (  0.4444444  0.2222222  0.7921273  )
        80        N      tau(  80) = (  0.5555556  0.1111111  0.9587940  )
        81        Ga     tau(  81) = (  0.7777778  0.2222222  0.6666667  )
        82        Ga     tau(  82) = (  0.8888889  0.1111111  0.8333333  )
        83        N      tau(  83) = (  0.7777778  0.2222222  0.7921273  )
        84        N      tau(  84) = (  0.8888889  0.1111111  0.9587940  )
        85        Ga     tau(  85) = (  0.1111111  0.5555556  0.6666667  )
        86        Ga     tau(  86) = (  0.2222222  0.4444444  0.8333333  )
        87        N      tau(  87) = (  0.1111111  0.5555556  0.7921273  )
        88        N      tau(  88) = (  0.2222222  0.4444444  0.9587940  )
        89        Ga     tau(  89) = (  0.4444444  0.5555556  0.6666667  )
        90        Ga     tau(  90) = (  0.5555556  0.4444444  0.8333333  )
        91        N      tau(  91) = (  0.4444444  0.5555556  0.7921273  )
        92        N      tau(  92) = (  0.5555556  0.4444444  0.9587940  )
        93        Ga     tau(  93) = (  0.7777778  0.5555556  0.6666667  )
        94        Ga     tau(  94) = (  0.8888889  0.4444444  0.8333333  )
        95        N      tau(  95) = (  0.7777778  0.5555556  0.7921273  )
        96        N      tau(  96) = (  0.8888889  0.4444444  0.9587940  )
        97        Ga     tau(  97) = (  0.1111111  0.8888889  0.6666667  )
        98        Ga     tau(  98) = (  0.2222222  0.7777778  0.8333333  )
        99        N      tau(  99) = (  0.1111111  0.8888889  0.7921273  )
       100        N      tau( 100) = (  0.2222222  0.7777778  0.9587940  )
       101        Ga     tau( 101) = (  0.4444444  0.8888889  0.6666667  )
       102        Ga     tau( 102) = (  0.5555556  0.7777778  0.8333333  )
       103        N      tau( 103) = (  0.4444444  0.8888889  0.7921273  )
       104        N      tau( 104) = (  0.5555556  0.7777778  0.9587940  )
       105        Ga     tau( 105) = (  0.7777778  0.8888889  0.6666667  )
       106        Ga     tau( 106) = (  0.8888889  0.7777778  0.8333333  )
       107        N      tau( 107) = (  0.7777778  0.8888889  0.7921273  )
       108        N      tau( 108) = (  0.8888889  0.7777778  0.9587940  )

     number of k points=     6  Gaussian smearing, width (Ry)=  0.0040
                       cart. coord. in units 2pi/alat
        k(    1) = (   0.0000000   0.0000000   0.0000000), wk =   0.0555556
        k(    2) = (   0.0000000   0.0000000  -0.3066667), wk =   0.0555556
        k(    3) = (   0.0000000   0.3849002   0.0000000), wk =   0.3333333
        k(    4) = (   0.0000000   0.3849002  -0.3066667), wk =   0.3333333
        k(    5) = (   0.3333333   0.5773503   0.0000000), wk =   0.1111111
        k(    6) = (   0.3333333   0.5773503  -0.3066667), wk =   0.1111111

                       cryst. coord.
        k(    1) = (   0.0000000   0.0000000   0.0000000), wk =   0.0555556
        k(    2) = (   0.0000000   0.0000000  -0.5000000), wk =   0.0555556
        k(    3) = (   0.0000000   0.3333333   0.0000000), wk =   0.3333333
        k(    4) = (   0.0000000   0.3333333  -0.5000000), wk =   0.3333333
        k(    5) = (   0.3333333   0.3333333   0.0000000), wk =   0.1111111
        k(    6) = (   0.3333333   0.3333333  -0.5000000), wk =   0.1111111

     Dense  grid:  1621723 G-vectors     FFT dimensions: ( 135, 135, 216)

     Smooth grid:   410263 G-vectors     FFT dimensions: (  90,  90, 135)

     Dynamical RAM for                 wfc:      33.45 MB

     Dynamical RAM for     wfc (w. buffer):     434.82 MB

     Dynamical RAM for           str. fact:       6.19 MB

     Dynamical RAM for           local pot:       0.00 MB

     Dynamical RAM for          nlocal pot:      91.54 MB

     Dynamical RAM for                qrad:       5.38 MB

     Dynamical RAM for          rho,v,vnew:      27.39 MB

     Dynamical RAM for               rhoin:       9.13 MB

     Dynamical RAM for            rho*nmix:      65.99 MB

     Dynamical RAM for           G-vectors:       7.99 MB

     Dynamical RAM for          h,s,v(r/c):       5.35 MB

     Dynamical RAM for          <psi|beta>:      10.99 MB

     Dynamical RAM for                 psi:      66.90 MB

     Dynamical RAM for                hpsi:      66.90 MB

     Dynamical RAM for                spsi:      66.90 MB

     Dynamical RAM for      wfcinit/wfcrot:     102.83 MB

     Dynamical RAM for           addusdens:     496.97 MB

     Dynamical RAM for          addusforce:     715.98 MB

     Estimated static dynamical RAM per process >     605.71 MB

     Estimated max dynamical RAM per process >       1.36 GB

     Estimated total dynamical RAM >      16.26 GB
     Generating pointlists ...
     new r_m :   0.0841 (alat units)  1.5349 (a.u.) for type    1
     new r_m :   0.0841 (alat units)  1.5349 (a.u.) for type    2
     new r_m :   0.0841 (alat units)  1.5349 (a.u.) for type    3

     Initial potential from superposition of free atoms

     starting charge     970.8401, renormalised to     971.0000
     Starting wfcs are  702 randomized atomic wfcs
     Checking if some PAW data can be deallocated... 
       PAW data deallocated on   11 nodes for type:  3

     total cpu time spent up to now is       60.9 secs

     Self-consistent Calculation

     iteration #  1     ecut=    50.00 Ry     beta= 0.70
     Davidson diagonalization with overlap

---- Real-time Memory Report at c_bands before calling an iterative solver
           936 MiB given to the printing process from OS
             0 MiB allocation reported by mallinfo(arena+hblkhd)
         10037 MiB available memory on the node where the printing process lives
------------------
     ethr =  1.00E-02,  avg # of iterations =  2.0

     total cpu time spent up to now is      192.3 secs

     total energy              =  -16505.05612167 Ry
     estimated scf accuracy    <      29.93131659 Ry

     total magnetization       =     1.00 Bohr mag/cell
     absolute magnetization    =     2.56 Bohr mag/cell

     iteration #  2     ecut=    50.00 Ry     beta= 0.70
     Davidson diagonalization with overlap

---- Real-time Memory Report at c_bands before calling an iterative solver
          1412 MiB given to the printing process from OS
             0 MiB allocation reported by mallinfo(arena+hblkhd)
         10829 MiB available memory on the node where the printing process lives
------------------
     ethr =  3.08E-03,  avg # of iterations =  6.2

     total cpu time spent up to now is      412.2 secs

     total energy              =  -16516.98695303 Ry
     estimated scf accuracy    <      38.40893566 Ry

     total magnetization       =     0.80 Bohr mag/cell
     absolute magnetization    =     1.47 Bohr mag/cell

     iteration #  3     ecut=    50.00 Ry     beta= 0.70
     Davidson diagonalization with overlap

---- Real-time Memory Report at c_bands before calling an iterative solver
          1545 MiB given to the printing process from OS
             0 MiB allocation reported by mallinfo(arena+hblkhd)
          9963 MiB available memory on the node where the printing process lives
------------------
     ethr =  3.08E-03,  avg # of iterations =  2.6

     total cpu time spent up to now is      564.9 secs

     total energy              =  -16524.06601783 Ry
     estimated scf accuracy    <       1.19394809 Ry

     total magnetization       =     0.95 Bohr mag/cell
     absolute magnetization    =     1.44 Bohr mag/cell

     iteration #  4     ecut=    50.00 Ry     beta= 0.70
     Davidson diagonalization with overlap

---- Real-time Memory Report at c_bands before calling an iterative solver
          1545 MiB given to the printing process from OS
             0 MiB allocation reported by mallinfo(arena+hblkhd)
          9964 MiB available memory on the node where the printing process lives
------------------
     ethr =  1.23E-04,  avg # of iterations = 12.3

     total cpu time spent up to now is      886.0 secs

     total energy              =  -16525.26129246 Ry
     estimated scf accuracy    <       0.84425975 Ry

     total magnetization       =     0.33 Bohr mag/cell
     absolute magnetization    =     0.79 Bohr mag/cell

     iteration #  5     ecut=    50.00 Ry     beta= 0.70
     Davidson diagonalization with overlap

---- Real-time Memory Report at c_bands before calling an iterative solver
          1618 MiB given to the printing process from OS
             0 MiB allocation reported by mallinfo(arena+hblkhd)
          9823 MiB available memory on the node where the printing process lives
------------------
     ethr =  8.69E-05,  avg # of iterations =  3.1

     total cpu time spent up to now is     1021.9 secs

     total energy              =  -16525.31360690 Ry
     estimated scf accuracy    <       0.33175809 Ry

     total magnetization       =     0.81 Bohr mag/cell
     absolute magnetization    =     1.14 Bohr mag/cell

     iteration #  6     ecut=    50.00 Ry     beta= 0.70
     Davidson diagonalization with overlap

---- Real-time Memory Report at c_bands before calling an iterative solver
          1618 MiB given to the printing process from OS
             0 MiB allocation reported by mallinfo(arena+hblkhd)
          9969 MiB available memory on the node where the printing process lives
------------------
     c_bands:  3 eigenvalues not converged
     c_bands:  2 eigenvalues not converged
     c_bands:  2 eigenvalues not converged
     c_bands:  4 eigenvalues not converged
     ethr =  3.42E-05,  avg # of iterations = 16.6

     total cpu time spent up to now is     1279.1 secs

     total energy              =  -16525.26733374 Ry
     estimated scf accuracy    <       1.11740470 Ry

     total magnetization       =     0.02 Bohr mag/cell
     absolute magnetization    =     0.37 Bohr mag/cell

     iteration #  7     ecut=    50.00 Ry     beta= 0.70
     Davidson diagonalization with overlap

---- Real-time Memory Report at c_bands before calling an iterative solver
          1618 MiB given to the printing process from OS
             0 MiB allocation reported by mallinfo(arena+hblkhd)
          9437 MiB available memory on the node where the printing process lives
------------------
     c_bands:  1 eigenvalues not converged
     c_bands:  2 eigenvalues not converged
     c_bands:  2 eigenvalues not converged
     c_bands:  1 eigenvalues not converged
     c_bands:  1 eigenvalues not converged
     c_bands:  2 eigenvalues not converged
     c_bands:  1 eigenvalues not converged
     c_bands:  1 eigenvalues not converged
     ethr =  3.42E-05,  avg # of iterations = 17.9

     total cpu time spent up to now is     1523.5 secs

     total energy              =  -16525.33976175 Ry
     estimated scf accuracy    <       0.33254235 Ry

     total magnetization       =     0.39 Bohr mag/cell
     absolute magnetization    =     0.62 Bohr mag/cell

     iteration #  8     ecut=    50.00 Ry     beta= 0.70
     Davidson diagonalization with overlap

---- Real-time Memory Report at c_bands before calling an iterative solver
          1618 MiB given to the printing process from OS
             0 MiB allocation reported by mallinfo(arena+hblkhd)
          9602 MiB available memory on the node where the printing process lives
------------------
     c_bands:  5 eigenvalues not converged
     c_bands:  1 eigenvalues not converged
     ethr =  3.42E-05,  avg # of iterations = 14.8

     total cpu time spent up to now is     1698.0 secs

     total energy              =  -16525.36846651 Ry
     estimated scf accuracy    <       0.02556726 Ry

     total magnetization       =     0.76 Bohr mag/cell
     absolute magnetization    =     0.93 Bohr mag/cell

     iteration #  9     ecut=    50.00 Ry     beta= 0.70
     Davidson diagonalization with overlap

---- Real-time Memory Report at c_bands before calling an iterative solver
          1624 MiB given to the printing process from OS
             0 MiB allocation reported by mallinfo(arena+hblkhd)
          8827 MiB available memory on the node where the printing process lives
------------------
     c_bands:  2 eigenvalues not converged
     c_bands:  2 eigenvalues not converged
     c_bands:  3 eigenvalues not converged
     c_bands:  2 eigenvalues not converged
     c_bands:  2 eigenvalues not converged
     c_bands:  3 eigenvalues not converged
     ethr =  2.63E-06,  avg # of iterations = 16.2

     total cpu time spent up to now is     1980.9 secs

     total energy              =  -16525.37752052 Ry
     estimated scf accuracy    <       0.00623110 Ry

     total magnetization       =     0.79 Bohr mag/cell
     absolute magnetization    =     0.94 Bohr mag/cell

     iteration # 10     ecut=    50.00 Ry     beta= 0.70
     Davidson diagonalization with overlap

---- Real-time Memory Report at c_bands before calling an iterative solver
          1665 MiB given to the printing process from OS
             0 MiB allocation reported by mallinfo(arena+hblkhd)
          8870 MiB available memory on the node where the printing process lives
------------------
     c_bands:  3 eigenvalues not converged
     c_bands:  1 eigenvalues not converged
     ethr =  6.42E-07,  avg # of iterations =  8.7

     total cpu time spent up to now is     2204.8 secs

     total energy              =  -16525.37965894 Ry
     estimated scf accuracy    <       0.00143286 Ry

     total magnetization       =     0.78 Bohr mag/cell
     absolute magnetization    =     0.92 Bohr mag/cell

     iteration # 11     ecut=    50.00 Ry     beta= 0.70
     Davidson diagonalization with overlap

---- Real-time Memory Report at c_bands before calling an iterative solver
          1665 MiB given to the printing process from OS
             0 MiB allocation reported by mallinfo(arena+hblkhd)
          8788 MiB available memory on the node where the printing process lives
------------------
     ethr =  1.48E-07,  avg # of iterations =  6.8

     total cpu time spent up to now is     2425.9 secs

     total energy              =  -16525.38018738 Ry
     estimated scf accuracy    <       0.00063015 Ry

     total magnetization       =     0.78 Bohr mag/cell
     absolute magnetization    =     0.92 Bohr mag/cell

     iteration # 12     ecut=    50.00 Ry     beta= 0.70
     Davidson diagonalization with overlap

---- Real-time Memory Report at c_bands before calling an iterative solver
          1665 MiB given to the printing process from OS
             0 MiB allocation reported by mallinfo(arena+hblkhd)
          8870 MiB available memory on the node where the printing process lives
------------------
     ethr =  6.49E-08,  avg # of iterations =  4.8

     total cpu time spent up to now is     2592.3 secs

     total energy              =  -16525.38024646 Ry
     estimated scf accuracy    <       0.00017516 Ry

     total magnetization       =     0.77 Bohr mag/cell
     absolute magnetization    =     0.90 Bohr mag/cell

     iteration # 13     ecut=    50.00 Ry     beta= 0.70
     Davidson diagonalization with overlap

---- Real-time Memory Report at c_bands before calling an iterative solver
          1666 MiB given to the printing process from OS
             0 MiB allocation reported by mallinfo(arena+hblkhd)
          8529 MiB available memory on the node where the printing process lives
------------------
     ethr =  1.80E-08,  avg # of iterations =  7.3

     total cpu time spent up to now is     2856.5 secs

     total energy              =  -16525.38035258 Ry
     estimated scf accuracy    <       0.00006423 Ry

     total magnetization       =     0.76 Bohr mag/cell
     absolute magnetization    =     0.89 Bohr mag/cell

     iteration # 14     ecut=    50.00 Ry     beta= 0.70
     Davidson diagonalization with overlap

---- Real-time Memory Report at c_bands before calling an iterative solver
          1666 MiB given to the printing process from OS
             0 MiB allocation reported by mallinfo(arena+hblkhd)
          8766 MiB available memory on the node where the printing process lives
------------------
     ethr =  6.61E-09,  avg # of iterations =  5.7

     total cpu time spent up to now is     3054.9 secs

     total energy              =  -16525.38036430 Ry
     estimated scf accuracy    <       0.00002913 Ry

     total magnetization       =     0.76 Bohr mag/cell
     absolute magnetization    =     0.89 Bohr mag/cell

     iteration # 15     ecut=    50.00 Ry     beta= 0.70
     Davidson diagonalization with overlap

---- Real-time Memory Report at c_bands before calling an iterative solver
          1666 MiB given to the printing process from OS
             0 MiB allocation reported by mallinfo(arena+hblkhd)
          8834 MiB available memory on the node where the printing process lives
------------------
     ethr =  3.00E-09,  avg # of iterations =  5.7

     total cpu time spent up to now is     3245.5 secs

     total energy              =  -16525.38037323 Ry
     estimated scf accuracy    <       0.00000362 Ry

     total magnetization       =     0.76 Bohr mag/cell
     absolute magnetization    =     0.89 Bohr mag/cell

     iteration # 16     ecut=    50.00 Ry     beta= 0.70
     Davidson diagonalization with overlap

---- Real-time Memory Report at c_bands before calling an iterative solver
          1666 MiB given to the printing process from OS
             0 MiB allocation reported by mallinfo(arena+hblkhd)
          8672 MiB available memory on the node where the printing process lives
------------------
     ethr =  3.73E-10,  avg # of iterations = 10.8

     total cpu time spent up to now is     3773.2 secs

     total energy              =  -16525.38037964 Ry
     estimated scf accuracy    <       0.00001123 Ry

     total magnetization       =     0.75 Bohr mag/cell
     absolute magnetization    =     0.88 Bohr mag/cell

     iteration # 17     ecut=    50.00 Ry     beta= 0.70
     Davidson diagonalization with overlap

---- Real-time Memory Report at c_bands before calling an iterative solver
          1666 MiB given to the printing process from OS
             0 MiB allocation reported by mallinfo(arena+hblkhd)
          8977 MiB available memory on the node where the printing process lives
------------------
     ethr =  3.73E-10,  avg # of iterations =  3.2

     total cpu time spent up to now is     3920.6 secs

     total energy              =  -16525.38037970 Ry
     estimated scf accuracy    <       0.00000482 Ry

     total magnetization       =     0.75 Bohr mag/cell
     absolute magnetization    =     0.88 Bohr mag/cell

     iteration # 18     ecut=    50.00 Ry     beta= 0.70
     Davidson diagonalization with overlap

---- Real-time Memory Report at c_bands before calling an iterative solver
          1666 MiB given to the printing process from OS
             0 MiB allocation reported by mallinfo(arena+hblkhd)
          9128 MiB available memory on the node where the printing process lives
------------------
     ethr =  3.73E-10,  avg # of iterations =  2.4

     total cpu time spent up to now is     4059.7 secs

     total energy              =  -16525.38038017 Ry
     estimated scf accuracy    <       0.00000147 Ry

     total magnetization       =     0.75 Bohr mag/cell
     absolute magnetization    =     0.88 Bohr mag/cell

     iteration # 19     ecut=    50.00 Ry     beta= 0.70
     Davidson diagonalization with overlap

---- Real-time Memory Report at c_bands before calling an iterative solver
          1666 MiB given to the printing process from OS
             0 MiB allocation reported by mallinfo(arena+hblkhd)
          9054 MiB available memory on the node where the printing process lives
------------------
     ethr =  1.52E-10,  avg # of iterations =  6.1

     total cpu time spent up to now is     4290.5 secs

     total energy              =  -16525.38038091 Ry
     estimated scf accuracy    <       0.00000034 Ry

     total magnetization       =     0.74 Bohr mag/cell
     absolute magnetization    =     0.88 Bohr mag/cell

     iteration # 20     ecut=    50.00 Ry     beta= 0.70
     Davidson diagonalization with overlap

---- Real-time Memory Report at c_bands before calling an iterative solver
          1666 MiB given to the printing process from OS
             0 MiB allocation reported by mallinfo(arena+hblkhd)
          8743 MiB available memory on the node where the printing process lives
------------------
     ethr =  3.49E-11,  avg # of iterations =  8.8

     total cpu time spent up to now is     4732.6 secs

     total energy              =  -16525.38038142 Ry
     estimated scf accuracy    <       0.00000156 Ry

     total magnetization       =     0.74 Bohr mag/cell
     absolute magnetization    =     0.87 Bohr mag/cell

     iteration # 21     ecut=    50.00 Ry     beta= 0.70
     Davidson diagonalization with overlap

---- Real-time Memory Report at c_bands before calling an iterative solver
          1666 MiB given to the printing process from OS
             0 MiB allocation reported by mallinfo(arena+hblkhd)
          8870 MiB available memory on the node where the printing process lives
------------------
     ethr =  3.49E-11,  avg # of iterations =  3.6

     total cpu time spent up to now is     4881.8 secs

     total energy              =  -16525.38038141 Ry
     estimated scf accuracy    <       0.00000057 Ry

     total magnetization       =     0.74 Bohr mag/cell
     absolute magnetization    =     0.87 Bohr mag/cell

     iteration # 22     ecut=    50.00 Ry     beta= 0.70
     Davidson diagonalization with overlap

---- Real-time Memory Report at c_bands before calling an iterative solver
          1666 MiB given to the printing process from OS
             0 MiB allocation reported by mallinfo(arena+hblkhd)
          8780 MiB available memory on the node where the printing process lives
------------------
     ethr =  3.49E-11,  avg # of iterations =  3.5

     total cpu time spent up to now is     5040.1 secs

     total energy              =  -16525.38038143 Ry
     estimated scf accuracy    <       0.00000015 Ry

     total magnetization       =     0.74 Bohr mag/cell
     absolute magnetization    =     0.87 Bohr mag/cell

     iteration # 23     ecut=    50.00 Ry     beta= 0.70
     Davidson diagonalization with overlap

---- Real-time Memory Report at c_bands before calling an iterative solver
          1666 MiB given to the printing process from OS
             0 MiB allocation reported by mallinfo(arena+hblkhd)
          8503 MiB available memory on the node where the printing process lives
------------------
     ethr =  1.55E-11,  avg # of iterations =  6.8

     total cpu time spent up to now is     5341.1 secs

     total energy              =  -16525.38038154 Ry
     estimated scf accuracy    <       0.00000011 Ry

     total magnetization       =     0.74 Bohr mag/cell
     absolute magnetization    =     0.87 Bohr mag/cell

     iteration # 24     ecut=    50.00 Ry     beta= 0.70
     Davidson diagonalization with overlap

---- Real-time Memory Report at c_bands before calling an iterative solver
          1666 MiB given to the printing process from OS
             0 MiB allocation reported by mallinfo(arena+hblkhd)
          8672 MiB available memory on the node where the printing process lives
------------------
     ethr =  1.18E-11,  avg # of iterations =  2.6

     total cpu time spent up to now is     5476.5 secs

     total energy              =  -16525.38038153 Ry
     estimated scf accuracy    <       0.00000010 Ry

     total magnetization       =     0.74 Bohr mag/cell
     absolute magnetization    =     0.87 Bohr mag/cell

     iteration # 25     ecut=    50.00 Ry     beta= 0.70
     Davidson diagonalization with overlap

---- Real-time Memory Report at c_bands before calling an iterative solver
          1666 MiB given to the printing process from OS
             0 MiB allocation reported by mallinfo(arena+hblkhd)
          8869 MiB available memory on the node where the printing process lives
------------------
     ethr =  9.92E-12,  avg # of iterations =  2.0

     total cpu time spent up to now is     5604.5 secs

     total energy              =  -16525.38038152 Ry
     estimated scf accuracy    <       0.00000003 Ry

     total magnetization       =     0.74 Bohr mag/cell
     absolute magnetization    =     0.87 Bohr mag/cell

     iteration # 26     ecut=    50.00 Ry     beta= 0.70
     Davidson diagonalization with overlap

---- Real-time Memory Report at c_bands before calling an iterative solver
          1666 MiB given to the printing process from OS
             0 MiB allocation reported by mallinfo(arena+hblkhd)
          8878 MiB available memory on the node where the printing process lives
------------------
     ethr =  3.12E-12,  avg # of iterations =  5.2
 
     Magnetic moment per site  (integrated on atomic sphere of radius R)
     atom   1 (R=0.084)  charge= 10.0916  magn=  0.0015
     atom   2 (R=0.084)  charge= 10.0893  magn=  0.0083
     atom   3 (R=0.084)  charge=  2.9905  magn=  0.1627
     atom   4 (R=0.084)  charge=  4.2565  magn=  0.0134
     atom   5 (R=0.084)  charge= 10.0769  magn=  0.0001
     atom   6 (R=0.084)  charge= 10.0777  magn=  0.0017
     atom   7 (R=0.084)  charge=  4.2525  magn=  0.0364
     atom   8 (R=0.084)  charge=  4.2570  magn=  0.0061
     atom   9 (R=0.084)  charge= 10.0769  magn=  0.0001
     atom  10 (R=0.084)  charge= 10.0893  magn=  0.0083
     atom  11 (R=0.084)  charge=  4.2525  magn=  0.0364
     atom  12 (R=0.084)  charge=  4.2565  magn=  0.0134
     atom  13 (R=0.084)  charge= 10.0769  magn=  0.0001
     atom  14 (R=0.084)  charge= 10.0893  magn=  0.0083
     atom  15 (R=0.084)  charge=  4.2525  magn=  0.0364
     atom  16 (R=0.084)  charge=  4.2565  magn=  0.0134
     atom  17 (R=0.084)  charge= 10.0769  magn=  0.0001
     atom  18 (R=0.084)  charge= 10.0766  magn=  0.0001
     atom  19 (R=0.084)  charge=  4.2525  magn=  0.0364
     atom  20 (R=0.084)  charge=  4.2578  magn=  0.0012
     atom  21 (R=0.084)  charge= 10.0775  magn=  0.0000
     atom  22 (R=0.084)  charge= 10.0766  magn=  0.0001
     atom  23 (R=0.084)  charge=  4.2565  magn=  0.0079
     atom  24 (R=0.084)  charge=  4.2578  magn=  0.0012
     atom  25 (R=0.084)  charge= 10.0769  magn=  0.0001
     atom  26 (R=0.084)  charge= 10.0777  magn=  0.0017
     atom  27 (R=0.084)  charge=  4.2525  magn=  0.0364
     atom  28 (R=0.084)  charge=  4.2570  magn=  0.0061
     atom  29 (R=0.084)  charge= 10.0772  magn=  0.0001
     atom  30 (R=0.084)  charge= 10.0777  magn=  0.0017
     atom  31 (R=0.084)  charge=  4.2567  magn=  0.0069
     atom  32 (R=0.084)  charge=  4.2570  magn=  0.0061
     atom  33 (R=0.084)  charge= 10.0769  magn=  0.0001
     atom  34 (R=0.084)  charge= 10.0766  magn=  0.0001
     atom  35 (R=0.084)  charge=  4.2525  magn=  0.0364
     atom  36 (R=0.084)  charge=  4.2578  magn=  0.0012
     atom  37 (R=0.084)  charge= 10.0757  magn=  0.0008
     atom  38 (R=0.084)  charge= 10.0772  magn=  0.0000
     atom  39 (R=0.084)  charge=  4.2579  magn=  0.0012
     atom  40 (R=0.084)  charge=  4.2582  magn=  0.0002
     atom  41 (R=0.084)  charge= 10.0773  magn=  0.0003
     atom  42 (R=0.084)  charge= 10.0773  magn=  0.0001
     atom  43 (R=0.084)  charge=  4.2581  magn=  0.0011
     atom  44 (R=0.084)  charge=  4.2582  magn=  0.0005
     atom  45 (R=0.084)  charge= 10.0773  magn=  0.0003
     atom  46 (R=0.084)  charge= 10.0772  magn=  0.0000
     atom  47 (R=0.084)  charge=  4.2581  magn=  0.0011
     atom  48 (R=0.084)  charge=  4.2582  magn=  0.0002
     atom  49 (R=0.084)  charge= 10.0773  magn=  0.0003
     atom  50 (R=0.084)  charge= 10.0772  magn=  0.0000
     atom  51 (R=0.084)  charge=  4.2581  magn=  0.0011
     atom  52 (R=0.084)  charge=  4.2582  magn=  0.0002
     atom  53 (R=0.084)  charge= 10.0773  magn=  0.0003
     atom  54 (R=0.084)  charge= 10.0774  magn=  0.0000
     atom  55 (R=0.084)  charge=  4.2581  magn=  0.0011
     atom  56 (R=0.084)  charge=  4.2583  magn=  0.0002
     atom  57 (R=0.084)  charge= 10.0775  magn=  0.0000
     atom  58 (R=0.084)  charge= 10.0774  magn=  0.0000
     atom  59 (R=0.084)  charge=  4.2582  magn=  0.0004
     atom  60 (R=0.084)  charge=  4.2583  magn=  0.0002
     atom  61 (R=0.084)  charge= 10.0773  magn=  0.0003
     atom  62 (R=0.084)  charge= 10.0773  magn=  0.0001
     atom  63 (R=0.084)  charge=  4.2581  magn=  0.0011
     atom  64 (R=0.084)  charge=  4.2582  magn=  0.0005
     atom  65 (R=0.084)  charge= 10.0772  magn=  0.0001
     atom  66 (R=0.084)  charge= 10.0773  magn=  0.0001
     atom  67 (R=0.084)  charge=  4.2582  magn=  0.0002
     atom  68 (R=0.084)  charge=  4.2582  magn=  0.0005
     atom  69 (R=0.084)  charge= 10.0773  magn=  0.0003
     atom  70 (R=0.084)  charge= 10.0774  magn=  0.0000
     atom  71 (R=0.084)  charge=  4.2581  magn=  0.0011
     atom  72 (R=0.084)  charge=  4.2583  magn=  0.0002
     atom  73 (R=0.084)  charge= 10.0774  magn=  0.0000
     atom  74 (R=0.084)  charge= 10.0779  magn=  0.0001
     atom  75 (R=0.084)  charge=  4.2577  magn=  0.0014
     atom  76 (R=0.084)  charge=  4.2562  magn=  0.0131
     atom  77 (R=0.084)  charge= 10.0774  magn=  0.0000
     atom  78 (R=0.084)  charge= 10.0772  magn=  0.0000
     atom  79 (R=0.084)  charge=  4.2581  magn=  0.0011
     atom  80 (R=0.084)  charge=  4.2569  magn=  0.0066
     atom  81 (R=0.084)  charge= 10.0774  magn=  0.0000
     atom  82 (R=0.084)  charge= 10.0779  magn=  0.0001
     atom  83 (R=0.084)  charge=  4.2581  magn=  0.0011
     atom  84 (R=0.084)  charge=  4.2562  magn=  0.0131
     atom  85 (R=0.084)  charge= 10.0774  magn=  0.0000
     atom  86 (R=0.084)  charge= 10.0779  magn=  0.0001
     atom  87 (R=0.084)  charge=  4.2581  magn=  0.0011
     atom  88 (R=0.084)  charge=  4.2562  magn=  0.0131
     atom  89 (R=0.084)  charge= 10.0774  magn=  0.0000
     atom  90 (R=0.084)  charge= 10.0773  magn= -0.0000
     atom  91 (R=0.084)  charge=  4.2581  magn=  0.0011
     atom  92 (R=0.084)  charge=  4.2578  magn=  0.0013
     atom  93 (R=0.084)  charge= 10.0773  magn=  0.0000
     atom  94 (R=0.084)  charge= 10.0773  magn= -0.0000
     atom  95 (R=0.084)  charge=  4.2582  magn=  0.0004
     atom  96 (R=0.084)  charge=  4.2578  magn=  0.0013
     atom  97 (R=0.084)  charge= 10.0774  magn=  0.0000
     atom  98 (R=0.084)  charge= 10.0772  magn=  0.0000
     atom  99 (R=0.084)  charge=  4.2581  magn=  0.0011
     atom 100 (R=0.084)  charge=  4.2569  magn=  0.0066
     atom 101 (R=0.084)  charge= 10.0773  magn=  0.0000
     atom 102 (R=0.084)  charge= 10.0772  magn=  0.0000
     atom 103 (R=0.084)  charge=  4.2582  magn=  0.0003
     atom 104 (R=0.084)  charge=  4.2569  magn=  0.0066
     atom 105 (R=0.084)  charge= 10.0774  magn=  0.0000
     atom 106 (R=0.084)  charge= 10.0773  magn= -0.0000
     atom 107 (R=0.084)  charge=  4.2581  magn=  0.0011
     atom 108 (R=0.084)  charge=  4.2578  magn=  0.0013

     total cpu time spent up to now is     5767.8 secs

     End of self-consistent calculation

 ------ SPIN UP ------------


          k = 0.0000 0.0000 0.0000 ( 51313 PWs)   bands (ev):

    -6.4762  -6.2078  -6.2061  -5.8581  -5.8492  -5.8492  -5.8322  -5.8322
    -5.8028  -5.7971  -5.7928  -5.7399  -5.7285  -5.7279  -5.7279  -5.7272
    -5.7272  -5.7258  -5.7258  -5.6990  -5.6990  -5.6915  -5.6822  -5.6641
    -5.6078  -5.5986  -5.5986  -5.5901  -5.5901  -5.5901  -5.5876  -5.5875
    -5.5875  -5.5848  -5.5746  -5.5746  -5.5677  -5.5677  -5.5665  -5.5618
    -5.5604  -5.5604  -5.5533  -5.5507  -5.5479  -5.5479  -5.5444  -5.5352
    -5.5323  -5.5162  -5.5162  -5.4888  -5.4888  -4.2536  -4.2142  -4.2046
    -4.2046  -4.1963  -4.1963  -4.1914  -4.1914  -4.1853  -4.1853  -4.1752
    -4.1752  -4.1735  -4.1665  -4.1665  -4.1653  -4.1590  -4.1590  -4.1552
    -4.1552  -4.1501  -4.1499  -4.1499  -4.1492  -4.1492  -4.1485  -4.1470
    -4.1470  -4.1462  -4.1433  -4.1433  -4.1427  -4.1413  -4.1413  -4.1361
    -4.1361  -4.1342  -4.1342  -4.1336  -4.1295  -4.1295  -4.1200  -4.1151
    -4.1151  -4.1122  -4.1122  -4.1114  -4.1113  -4.1092  -4.1086  -4.1086
    -4.1076  -4.1076  -4.1056  -4.1056  -4.1047  -4.1026  -4.1000  -4.0982
    -4.0982  -4.0972  -4.0972  -4.0921  -4.0833  -4.0809  -4.0786  -4.0786
    -4.0752  -4.0747  -4.0698  -4.0698  -4.0693  -4.0670  -4.0656  -4.0656
    -4.0607  -4.0557  -4.0557  -4.0473  -4.0469  -4.0469  -4.0420  -4.0420
    -4.0397  -4.0388  -4.0388  -4.0362  -4.0362  -4.0353  -4.0274  -4.0256
    -4.0256  -4.0235  -4.0235  -4.0223  -4.0176  -4.0176  -4.0148  -4.0138
    -4.0123  -4.0123  -4.0104  -4.0104  -4.0088  -4.0080  -4.0079  -4.0079
    -4.0060  -4.0025  -4.0014  -4.0014  -3.9977  -3.9977  -3.9965  -3.9965
    -3.9959  -3.9937  -3.9937  -3.9919  -3.9908  -3.9908  -3.9880  -3.9859
    -3.9859  -3.9855  -3.9817  -3.9817  -3.9798  -3.9781  -3.9781  -3.9698
    -3.9698  -3.9673  -3.9669  -3.9669  -3.9634  -3.9634  -3.9627  -3.9614
    -3.9602  -3.9598  -3.9598  -3.9591  -3.9591  -3.9575  -3.9564  -3.9564
    -3.9549  -3.9549  -3.9515  -3.9469  -3.9469  -3.9468  -3.9447  -3.9447
    -3.9429  -3.9429  -3.9404  -3.9404  -3.9377  -3.9377  -3.9358  -3.9358
    -3.9336  -3.9291  -3.9266  -3.9266  -3.9254  -3.9240  -3.9240  -3.9220
    -3.9220  -3.9203  -3.9191  -3.9169  -3.9169  -3.9164  -3.9057  -3.9057
    -3.9041  -3.9041  -3.9028  -3.9018  -3.9018  -3.9009  -3.8999  -3.8999
    -3.8968  -3.8968  -3.8945  -3.8880  -3.8880  -3.8875  -3.8846  -3.8846
    -3.8806  -3.8792  -3.8792  -3.8730  -3.8730  -3.8695  -3.8678  -3.8678
    -3.8668  -3.8668  -3.8649  -3.8468  -3.8395  -3.8395  -3.8022  -3.7758
    -3.7758  -3.7499  -3.7499  -3.7135  -3.7135  -3.7103  -3.6956  -3.5741
    -3.5741  -3.5300  -3.5067  -3.5067  -3.4925  -3.4925  -3.4726  -3.3982
    -3.3895  -3.3231  -3.3135  -3.3106  -3.3106  -3.3010  -3.3010  -3.2908
    -3.2908  -3.2764  -3.2624  -3.2624  -3.1286  -2.6478  -2.6376  -2.6374
    -2.6337  -2.6337  -2.6312  -2.6312  -2.6174  -2.6174  -2.6010  -2.6010
    -2.5951  -2.4732  -2.2145  -2.2069  -2.2053  -2.2053  -2.2050  -2.2001
    -2.2001  -2.1955  -2.1946  -2.1778  -2.1778  -2.1372  -2.1142  -2.1078
    -2.1078  -2.0760  -2.0760  -0.1802   2.3924   3.3648   3.3648   3.3696
     3.3724   3.3742   3.3758   3.3758   3.3820   3.4020   3.4095   3.4095
     3.4411   3.4411   3.4560   3.5049   3.5061   3.5061   3.5085   3.5185
     3.5185   3.5228   3.5228   3.5849   3.5849   3.6037   3.6449   3.9923
     3.9968   4.0032   4.0032   4.0305   4.0409   4.1737   4.1737   4.3695
     4.3700   4.3700   4.3718   4.3861   4.3861   4.3885   4.3885   4.4312
     4.4312   4.4375   4.4831   4.5145   4.5145   4.5469   4.5469   4.5765
     4.6663   4.6663   4.6955   4.7037   4.7037   5.3950   5.3950   5.4018
     5.4329   5.4329   5.5263   5.8540   5.8540   5.8675   5.8675   6.1481
     6.1526   6.1561   6.1561   6.1608   6.1608   6.1704   6.1704   6.2100
     6.2100   6.2116   6.2566   6.3674   6.3887   6.3887   6.4889   6.6372
     6.6372   6.9434   6.9477   6.9477   6.9666   6.9881   7.0163   7.0163
     7.0268   7.2886   7.2905   7.2905   7.3014   7.3024   7.3072   7.3072
     7.3264   7.3264   7.3297   7.4218   7.4218   7.4605   7.4827   7.4855
     7.4855   7.4894   7.5206   7.5206   7.5603   7.9516   7.9615   7.9620
     7.9620   7.9643   7.9643   7.9712   7.9712   8.0043   8.0070   8.0070
     8.0199   8.0249   8.0273   8.0273   8.0492   8.0492   8.0621   8.0650
     8.0650   8.0764   8.0779   8.0838   8.0838   8.1041   8.1041   8.1085
     8.1920   8.1920   8.3145   8.3145   8.5004   8.5004   8.5042   8.5042
     8.5115   8.5164   8.5164   8.5318   8.7364   8.7567   8.7567   9.0013
     9.0013   9.1331   9.1331   9.3488   9.4057   9.4057  11.0138  12.6848
    12.7048  13.3329  13.4620  13.4708  13.5362  13.5384  13.5384  13.5478
    13.5478  13.5478  13.5534  13.5534  13.5702  13.5702  13.5846  13.7473
    13.9469  13.9508  13.9508  13.9965  13.9965  14.2063  14.4526  14.4527
    14.6853

     occupation numbers 
     1.0000   1.0000   1.0000   1.0000   1.0000   1.0000   1.0000   1.0000
     1.0000   1.0000   1.0000   1.0000   1.0000   1.0000   1.0000   1.0000
     1.0000   1.0000   1.0000   1.0000   1.0000   1.0000   1.0000   1.0000
     1.0000   1.0000   1.0000   1.0000   1.0000   1.0000   1.0000   1.0000
     1.0000   1.0000   1.0000   1.0000   1.0000   1.0000   1.0000   1.0000
     1.0000   1.0000   1.0000   1.0000   1.0000   1.0000   1.0000   1.0000
     1.0000   1.0000   1.0000   1.0000   1.0000   1.0000   1.0000   1.0000
     1.0000   1.0000   1.0000   1.0000   1.0000   1.0000   1.0000   1.0000
     1.0000   1.0000   1.0000   1.0000   1.0000   1.0000   1.0000   1.0000
     1.0000   1.0000   1.0000   1.0000   1.0000   1.0000   1.0000   1.0000
     1.0000   1.0000   1.0000   1.0000   1.0000   1.0000   1.0000   1.0000
     1.0000   1.0000   1.0000   1.0000   1.0000   1.0000   1.0000   1.0000
     1.0000   1.0000   1.0000   1.0000   1.0000   1.0000   1.0000   1.0000
     1.0000   1.0000   1.0000   1.0000   1.0000   1.0000   1.0000   1.0000
     1.0000   1.0000   1.0000   1.0000   1.0000   1.0000   1.0000   1.0000
     1.0000   1.0000   1.0000   1.0000   1.0000   1.0000   1.0000   1.0000
     1.0000   1.0000   1.0000   1.0000   1.0000   1.0000   1.0000   1.0000
     1.0000   1.0000   1.0000   1.0000   1.0000   1.0000   1.0000   1.0000
     1.0000   1.0000   1.0000   1.0000   1.0000   1.0000   1.0000   1.0000
     1.0000   1.0000   1.0000   1.0000   1.0000   1.0000   1.0000   1.0000
     1.0000   1.0000   1.0000   1.0000   1.0000   1.0000   1.0000   1.0000
     1.0000   1.0000   1.0000   1.0000   1.0000   1.0000   1.0000   1.0000
     1.0000   1.0000   1.0000   1.0000   1.0000   1.0000   1.0000   1.0000
     1.0000   1.0000   1.0000   1.0000   1.0000   1.0000   1.0000   1.0000
     1.0000   1.0000   1.0000   1.0000   1.0000   1.0000   1.0000   1.0000
     1.0000   1.0000   1.0000   1.0000   1.0000   1.0000   1.0000   1.0000
     1.0000   1.0000   1.0000   1.0000   1.0000   1.0000   1.0000   1.0000
     1.0000   1.0000   1.0000   1.0000   1.0000   1.0000   1.0000   1.0000
     1.0000   1.0000   1.0000   1.0000   1.0000   1.0000   1.0000   1.0000
     1.0000   1.0000   1.0000   1.0000   1.0000   1.0000   1.0000   1.0000
     1.0000   1.0000   1.0000   1.0000   1.0000   1.0000   1.0000   1.0000
     1.0000   1.0000   1.0000   1.0000   1.0000   1.0000   1.0000   1.0000
     1.0000   1.0000   1.0000   1.0000   1.0000   1.0000   1.0000   1.0000
     1.0000   1.0000   1.0000   1.0000   1.0000   1.0000   1.0000   1.0000
     1.0000   1.0000   1.0000   1.0000   1.0000   1.0000   1.0000   1.0000
     1.0000   1.0000   1.0000   1.0000   1.0000   1.0000   1.0000   1.0000
     1.0000   1.0000   1.0000   1.0000   1.0000   1.0000   1.0000   1.0000
     1.0000   1.0000   1.0000   1.0000   1.0000   1.0000   1.0000   1.0000
     1.0000   1.0000   1.0000   1.0000   1.0000   1.0000   1.0000   1.0000
     1.0000   1.0000   1.0000   1.0000   1.0000   1.0000   1.0000   1.0000
     1.0000   1.0000   1.0000   1.0000   1.0000   1.0000   1.0000   1.0000
     1.0000   1.0000   1.0000   1.0000   1.0000   1.0000   1.0000   1.0000
     1.0000   1.0000   1.0000   1.0000   1.0000   1.0000   1.0000   1.0000
     1.0000   1.0000   1.0000   1.0000   1.0000   1.0000   1.0000   1.0000
     1.0000   1.0000   1.0000   1.0000   1.0000   1.0000   1.0000   1.0000
     1.0000   1.0000   1.0000   1.0000   1.0000   1.0000   1.0000   1.0000
     1.0000   1.0000   1.0000   1.0000   1.0000   1.0000   1.0000   1.0000
     1.0000   1.0000   1.0000   1.0000   1.0000   1.0000   1.0000   1.0000
     1.0000   1.0000   1.0000   1.0000   1.0000   1.0000   1.0000   1.0000
     1.0000   1.0000   1.0000   1.0000   1.0000   1.0000   1.0000   1.0000
     1.0000   1.0000   1.0000   1.0000   1.0000   1.0000   1.0000   1.0000
     1.0000   1.0000   1.0000   1.0000   1.0000   1.0000   1.0000   1.0000
     1.0000   1.0000   1.0000   1.0000   1.0000   1.0000   1.0000   1.0000
     1.0000   1.0000   1.0000   1.0000   1.0000   1.0000   1.0000   1.0000
     1.0000   1.0000   1.0000   1.0000   1.0000   1.0000   1.0000   1.0000
     1.0000   1.0000   1.0000   1.0000   1.0000   1.0000   1.0000   1.0000
     1.0000   1.0000   1.0000   1.0000   1.0000   1.0000   1.0000   1.0000
     1.0000   1.0000   1.0000   1.0000   1.0000   1.0000   1.0000   1.0000
     1.0000   1.0000   1.0000   1.0000   1.0000   1.0000   1.0000   1.0000
     1.0000   1.0000   1.0000   1.0000   1.0000   1.0000   1.0000   1.0000
     1.0000   1.0000   1.0000   0.8870   0.3944   0.3944   0.0000   0.0000
     0.0000   0.0000   0.0000   0.0000   0.0000   0.0000   0.0000   0.0000
     0.0000   0.0000   0.0000   0.0000   0.0000   0.0000   0.0000   0.0000
     0.0000   0.0000   0.0000   0.0000   0.0000   0.0000   0.0000   0.0000
     0.0000

          k = 0.0000 0.0000-0.3067 ( 51390 PWs)   bands (ev):

    -6.4071  -6.3967  -5.9762  -5.9704  -5.8350  -5.8228  -5.8228  -5.8064
    -5.8034  -5.8034  -5.8023  -5.8023  -5.7916  -5.7916  -5.7902  -5.7263
    -5.7125  -5.7013  -5.6560  -5.6460  -5.6460  -5.6432  -5.6407  -5.6407
    -5.6372  -5.6372  -5.6222  -5.6153  -5.6153  -5.6032  -5.5855  -5.5841
    -5.5841  -5.5820  -5.5732  -5.5732  -5.5652  -5.5642  -5.5642  -5.5615
    -5.5590  -5.5590  -5.5580  -5.5579  -5.5489  -5.5489  -5.5437  -5.5309
    -5.5300  -5.5157  -5.5157  -5.4882  -5.4882  -4.2536  -4.2033  -4.2033
    -4.1989  -4.1928  -4.1928  -4.1867  -4.1867  -4.1841  -4.1802  -4.1802
    -4.1776  -4.1776  -4.1766  -4.1766  -4.1701  -4.1701  -4.1693  -4.1615
    -4.1568  -4.1568  -4.1496  -4.1496  -4.1481  -4.1481  -4.1470  -4.1465
    -4.1451  -4.1451  -4.1446  -4.1439  -4.1439  -4.1420  -4.1414  -4.1414
    -4.1360  -4.1360  -4.1347  -4.1347  -4.1316  -4.1280  -4.1280  -4.1252
    -4.1252  -4.1252  -4.1227  -4.1221  -4.1221  -4.1172  -4.1157  -4.1157
    -4.1157  -4.1016  -4.0924  -4.0924  -4.0883  -4.0857  -4.0838  -4.0838
    -4.0800  -4.0794  -4.0794  -4.0777  -4.0777  -4.0744  -4.0744  -4.0732
    -4.0718  -4.0718  -4.0705  -4.0705  -4.0695  -4.0695  -4.0690  -4.0661
    -4.0633  -4.0633  -4.0605  -4.0604  -4.0560  -4.0560  -4.0530  -4.0458
    -4.0448  -4.0402  -4.0402  -4.0379  -4.0327  -4.0327  -4.0291  -4.0287
    -4.0287  -4.0255  -4.0255  -4.0249  -4.0196  -4.0196  -4.0149  -4.0124
    -4.0124  -4.0117  -4.0098  -4.0098  -4.0082  -4.0082  -4.0058  -4.0050
    -4.0050  -4.0047  -4.0024  -4.0020  -4.0020  -3.9979  -3.9976  -3.9976
    -3.9916  -3.9916  -3.9848  -3.9844  -3.9842  -3.9842  -3.9817  -3.9789
    -3.9789  -3.9778  -3.9778  -3.9765  -3.9758  -3.9758  -3.9679  -3.9679
    -3.9665  -3.9665  -3.9661  -3.9651  -3.9651  -3.9647  -3.9630  -3.9630
    -3.9624  -3.9594  -3.9594  -3.9594  -3.9587  -3.9587  -3.9584  -3.9561
    -3.9561  -3.9535  -3.9499  -3.9499  -3.9498  -3.9458  -3.9458  -3.9416
    -3.9416  -3.9388  -3.9388  -3.9367  -3.9367  -3.9352  -3.9307  -3.9307
    -3.9302  -3.9267  -3.9247  -3.9236  -3.9236  -3.9225  -3.9218  -3.9218
    -3.9197  -3.9190  -3.9190  -3.9168  -3.9168  -3.9110  -3.9110  -3.9109
    -3.9075  -3.9075  -3.9060  -3.9060  -3.9019  -3.9017  -3.8988  -3.8988
    -3.8957  -3.8957  -3.8859  -3.8859  -3.8840  -3.8824  -3.8824  -3.8792
    -3.8792  -3.8782  -3.8764  -3.8764  -3.8727  -3.8679  -3.8679  -3.8662
    -3.8662  -3.8636  -3.8541  -3.8471  -3.8396  -3.8396  -3.8053  -3.7872
    -3.7758  -3.7758  -3.7499  -3.7499  -3.7135  -3.7135  -3.7103  -3.6799
    -3.5733  -3.5733  -3.4876  -3.4721  -3.4692  -3.4692  -3.4597  -3.4597
    -3.4558  -3.4507  -3.4507  -3.4225  -3.4225  -3.3480  -3.0355  -3.0263
    -3.0263  -3.0252  -3.0153  -3.0153  -3.0051  -3.0051  -2.9873  -2.9767
    -2.9767  -2.9129  -2.8849  -2.7834  -2.2868  -2.2740  -2.2740  -2.2633
    -2.2593  -2.2593  -2.2555  -2.2555  -2.2497  -2.2497  -2.2467  -2.2422
    -2.2143  -2.2062  -2.2054  -2.2033  -2.2033  -2.1944  -2.1944  -2.1889
    -2.1889  -2.1606  -2.1606  -0.1848   2.8612   2.8679   3.2207   3.2244
     3.2244   3.2282   3.3716   3.3797   3.3797   3.3842   3.3892   3.3892
     3.3988   3.3988   3.4238   3.4262   3.4262   3.4991   3.7422   3.7449
     3.7449   3.7449   3.7465   3.7541   3.7541   3.7703   3.8619   3.8619
     3.8627   3.8664   3.8762   3.8762   3.8851   3.8851   3.9498   3.9498
     3.9764   4.0411   4.2952   4.2952   4.3168   4.3168   4.7145   4.7145
     4.7217   4.7302   4.7302   4.7333   4.7377   4.7377   4.7679   4.7852
     4.7852   4.9153   5.2179   5.2179   5.2262   5.2262   5.3633   5.3633
     5.3747   5.3774   5.3774   5.3796   5.3854   5.3854   5.3974   5.4181
     5.4417   5.4417   5.5193   5.5938   6.4008   6.4008   6.4180   6.4180
     6.7547   6.7755   6.7776   6.7776   6.7839   6.7884   6.7884   6.8551
     7.0207   7.0274   7.0274   7.0515   7.0525   7.0525   7.0537   7.0601
     7.0601   7.0632   7.1512   7.1512   7.2077   7.2118   7.2118   7.2130
     7.2226   7.2226   7.2239   7.2239   7.2772   7.2962   7.2962   7.4174
     7.6647   7.6647   7.6653   7.6700   7.6721   7.6796   7.6796   7.7027
     7.7027   7.7074   7.7901   7.7901   7.8139   7.8687   7.8687   7.8704
     8.0958   8.1029   8.1029   8.1167   8.1216   8.1216   8.1344   8.1373
     8.1373   8.1438   8.1438   8.3182   8.3221   8.3221   8.3332   8.3332
     8.3719   8.3804   8.3804   8.4017   8.4052   8.4063   8.4063   8.4150
     8.4150   8.4179   8.4223   8.6032   8.6032   8.7481   8.7481   8.9229
     8.9229   8.9622   9.1900   9.1900   9.3921   9.3921  11.6868  11.7440
    13.3213  13.3240  13.3752  13.4117  13.6667  13.6731  13.6731  13.6841
    13.6842  13.6860  13.6888  13.6924  13.6924  13.7300  13.7300  13.8454
    14.0037  14.0044  14.0058  14.0098  14.0134  14.0208  14.0276  14.0320
    14.0397

     occupation numbers 
     1.0000   1.0000   1.0000   1.0000   1.0000   1.0000   1.0000   1.0000
     1.0000   1.0000   1.0000   1.0000   1.0000   1.0000   1.0000   1.0000
     1.0000   1.0000   1.0000   1.0000   1.0000   1.0000   1.0000   1.0000
     1.0000   1.0000   1.0000   1.0000   1.0000   1.0000   1.0000   1.0000
     1.0000   1.0000   1.0000   1.0000   1.0000   1.0000   1.0000   1.0000
     1.0000   1.0000   1.0000   1.0000   1.0000   1.0000   1.0000   1.0000
     1.0000   1.0000   1.0000   1.0000   1.0000   1.0000   1.0000   1.0000
     1.0000   1.0000   1.0000   1.0000   1.0000   1.0000   1.0000   1.0000
     1.0000   1.0000   1.0000   1.0000   1.0000   1.0000   1.0000   1.0000
     1.0000   1.0000   1.0000   1.0000   1.0000   1.0000   1.0000   1.0000
     1.0000   1.0000   1.0000   1.0000   1.0000   1.0000   1.0000   1.0000
     1.0000   1.0000   1.0000   1.0000   1.0000   1.0000   1.0000   1.0000
     1.0000   1.0000   1.0000   1.0000   1.0000   1.0000   1.0000   1.0000
     1.0000   1.0000   1.0000   1.0000   1.0000   1.0000   1.0000   1.0000
     1.0000   1.0000   1.0000   1.0000   1.0000   1.0000   1.0000   1.0000
     1.0000   1.0000   1.0000   1.0000   1.0000   1.0000   1.0000   1.0000
     1.0000   1.0000   1.0000   1.0000   1.0000   1.0000   1.0000   1.0000
     1.0000   1.0000   1.0000   1.0000   1.0000   1.0000   1.0000   1.0000
     1.0000   1.0000   1.0000   1.0000   1.0000   1.0000   1.0000   1.0000
     1.0000   1.0000   1.0000   1.0000   1.0000   1.0000   1.0000   1.0000
     1.0000   1.0000   1.0000   1.0000   1.0000   1.0000   1.0000   1.0000
     1.0000   1.0000   1.0000   1.0000   1.0000   1.0000   1.0000   1.0000
     1.0000   1.0000   1.0000   1.0000   1.0000   1.0000   1.0000   1.0000
     1.0000   1.0000   1.0000   1.0000   1.0000   1.0000   1.0000   1.0000
     1.0000   1.0000   1.0000   1.0000   1.0000   1.0000   1.0000   1.0000
     1.0000   1.0000   1.0000   1.0000   1.0000   1.0000   1.0000   1.0000
     1.0000   1.0000   1.0000   1.0000   1.0000   1.0000   1.0000   1.0000
     1.0000   1.0000   1.0000   1.0000   1.0000   1.0000   1.0000   1.0000
     1.0000   1.0000   1.0000   1.0000   1.0000   1.0000   1.0000   1.0000
     1.0000   1.0000   1.0000   1.0000   1.0000   1.0000   1.0000   1.0000
     1.0000   1.0000   1.0000   1.0000   1.0000   1.0000   1.0000   1.0000
     1.0000   1.0000   1.0000   1.0000   1.0000   1.0000   1.0000   1.0000
     1.0000   1.0000   1.0000   1.0000   1.0000   1.0000   1.0000   1.0000
     1.0000   1.0000   1.0000   1.0000   1.0000   1.0000   1.0000   1.0000
     1.0000   1.0000   1.0000   1.0000   1.0000   1.0000   1.0000   1.0000
     1.0000   1.0000   1.0000   1.0000   1.0000   1.0000   1.0000   1.0000
     1.0000   1.0000   1.0000   1.0000   1.0000   1.0000   1.0000   1.0000
     1.0000   1.0000   1.0000   1.0000   1.0000   1.0000   1.0000   1.0000
     1.0000   1.0000   1.0000   1.0000   1.0000   1.0000   1.0000   1.0000
     1.0000   1.0000   1.0000   1.0000   1.0000   1.0000   1.0000   1.0000
     1.0000   1.0000   1.0000   1.0000   1.0000   1.0000   1.0000   1.0000
     1.0000   1.0000   1.0000   1.0000   1.0000   1.0000   1.0000   1.0000
     1.0000   1.0000   1.0000   1.0000   1.0000   1.0000   1.0000   1.0000
     1.0000   1.0000   1.0000   1.0000   1.0000   1.0000   1.0000   1.0000
     1.0000   1.0000   1.0000   1.0000   1.0000   1.0000   1.0000   1.0000
     1.0000   1.0000   1.0000   1.0000   1.0000   1.0000   1.0000   1.0000
     1.0000   1.0000   1.0000   1.0000   1.0000   1.0000   1.0000   1.0000
     1.0000   1.0000   1.0000   1.0000   1.0000   1.0000   1.0000   1.0000
     1.0000   1.0000   1.0000   1.0000   1.0000   1.0000   1.0000   1.0000
     1.0000   1.0000   1.0000   1.0000   1.0000   1.0000   1.0000   1.0000
     1.0000   1.0000   1.0000   1.0000   1.0000   1.0000   1.0000   1.0000
     1.0000   1.0000   1.0000   1.0000   1.0000   1.0000   1.0000   1.0000
     1.0000   1.0000   1.0000   1.0000   1.0000   1.0000   1.0000   1.0000
     1.0000   1.0000   1.0000   1.0000   1.0000   1.0000   1.0000   1.0000
     1.0000   1.0000   1.0000   1.0000   1.0000   1.0000   1.0000   1.0000
     1.0000   1.0000   1.0000   1.0000   1.0000   1.0000   1.0000   1.0000
     1.0000   1.0000   1.0000   1.0000   1.0000   1.0000   1.0000   1.0000
     1.0000   1.0000   1.0000   1.0000   1.0000   1.0000   1.0000   1.0000
     1.0000   1.0000   1.0000   1.0000   1.0000   1.0000   1.0000   1.0000
     1.0000   1.0000   1.0000   1.0000   1.0000   1.0000   1.0000   1.0000
     1.0000   1.0000   1.0000   1.0000   0.5339   0.5339   0.0000   0.0000
     0.0000   0.0000   0.0000   0.0000   0.0000   0.0000   0.0000   0.0000
     0.0000   0.0000   0.0000   0.0000   0.0000   0.0000   0.0000   0.0000
     0.0000   0.0000   0.0000   0.0000   0.0000   0.0000   0.0000   0.0000
     0.0000

          k = 0.0000 0.3849 0.0000 ( 51300 PWs)   bands (ev):

    -6.3676  -6.1279  -6.1161  -6.0912  -5.9266  -5.9197  -5.9049  -5.8870
    -5.7827  -5.7748  -5.7704  -5.7682  -5.7550  -5.7430  -5.7307  -5.7245
    -5.6965  -5.6668  -5.6563  -5.6550  -5.6531  -5.6507  -5.6414  -5.6404
    -5.6386  -5.6386  -5.6169  -5.6155  -5.6080  -5.6070  -5.6016  -5.5977
    -5.5939  -5.5861  -5.5777  -5.5744  -5.5720  -5.5702  -5.5700  -5.5651
    -5.5644  -5.5530  -5.5479  -5.5459  -5.5442  -5.5411  -5.5378  -5.5363
    -5.5275  -5.5150  -5.5143  -5.4883  -5.4871  -4.2493  -4.2047  -4.1955
    -4.1918  -4.1856  -4.1856  -4.1818  -4.1773  -4.1751  -4.1700  -4.1694
    -4.1658  -4.1651  -4.1640  -4.1600  -4.1599  -4.1585  -4.1551  -4.1539
    -4.1518  -4.1508  -4.1487  -4.1481  -4.1452  -4.1447  -4.1428  -4.1427
    -4.1401  -4.1398  -4.1390  -4.1375  -4.1372  -4.1364  -4.1347  -4.1342
    -4.1334  -4.1318  -4.1315  -4.1298  -4.1279  -4.1274  -4.1250  -4.1239
    -4.1226  -4.1214  -4.1193  -4.1186  -4.1156  -4.1152  -4.1140  -4.1127
    -4.1127  -4.1105  -4.1085  -4.1059  -4.1053  -4.1030  -4.1027  -4.1009
    -4.0995  -4.0986  -4.0960  -4.0956  -4.0931  -4.0906  -4.0892  -4.0859
    -4.0847  -4.0837  -4.0820  -4.0803  -4.0793  -4.0750  -4.0725  -4.0718
    -4.0695  -4.0694  -4.0651  -4.0641  -4.0626  -4.0624  -4.0583  -4.0576
    -4.0516  -4.0465  -4.0455  -4.0431  -4.0420  -4.0418  -4.0382  -4.0341
    -4.0288  -4.0278  -4.0268  -4.0253  -4.0229  -4.0209  -4.0191  -4.0165
    -4.0152  -4.0143  -4.0115  -4.0113  -4.0099  -4.0097  -4.0075  -4.0059
    -4.0040  -4.0027  -4.0008  -4.0004  -3.9992  -3.9984  -3.9974  -3.9949
    -3.9939  -3.9931  -3.9913  -3.9911  -3.9901  -3.9892  -3.9876  -3.9864
    -3.9859  -3.9844  -3.9837  -3.9820  -3.9818  -3.9803  -3.9802  -3.9780
    -3.9757  -3.9752  -3.9746  -3.9727  -3.9718  -3.9707  -3.9684  -3.9660
    -3.9631  -3.9604  -3.9585  -3.9582  -3.9577  -3.9558  -3.9555  -3.9547
    -3.9519  -3.9517  -3.9506  -3.9506  -3.9478  -3.9463  -3.9449  -3.9412
    -3.9407  -3.9370  -3.9369  -3.9341  -3.9331  -3.9330  -3.9293  -3.9292
    -3.9282  -3.9272  -3.9217  -3.9217  -3.9206  -3.9197  -3.9173  -3.9158
    -3.9155  -3.9139  -3.9134  -3.9107  -3.9079  -3.9072  -3.9065  -3.9057
    -3.9049  -3.9037  -3.9015  -3.9008  -3.9001  -3.8995  -3.8980  -3.8964
    -3.8948  -3.8940  -3.8935  -3.8918  -3.8896  -3.8893  -3.8888  -3.8881
    -3.8837  -3.8834  -3.8818  -3.8788  -3.8754  -3.8743  -3.8729  -3.8727
    -3.8676  -3.8651  -3.8644  -3.8585  -3.8511  -3.8315  -3.8300  -3.7949
    -3.7907  -3.7759  -3.7574  -3.7489  -3.7325  -3.7194  -3.7174  -3.7097
    -3.7017  -3.6771  -3.6596  -3.6592  -3.5726  -3.5659  -3.4659  -3.4650
    -3.4522  -3.4405  -3.2928  -3.2798  -3.1170  -3.1078  -3.0130  -3.0069
    -2.9338  -2.9298  -2.9258  -2.9213  -2.8659  -2.7574  -2.7546  -2.7519
    -2.7498  -2.7434  -2.6942  -2.6130  -2.5937  -2.5434  -2.4939  -2.4878
    -2.4858  -2.4660  -2.3936  -2.3905  -2.3852  -2.3819  -2.3451  -2.3325
    -2.2724  -2.1953  -2.1816  -2.1813  -2.1741  -2.1545  -2.1233  -2.0707
    -2.0328  -2.0170  -2.0071  -0.1743   2.5598   2.7734   2.7777   3.0193
     3.0265   3.1196   3.1280   3.1282   3.1337   3.1539   3.1707   3.1765
     3.1826   3.3392   3.3419   3.3748   3.3847   3.4013   3.4155   3.4962
     3.4999   3.5091   3.5242   3.5251   3.5446   3.8192   3.8234   3.8245
     3.8493   3.9013   3.9287   3.9339   3.9384   4.0807   4.0892   4.1370
     4.1479   4.1738   4.1920   4.2465   4.4173   4.4653   4.9445   4.9509
     4.9550   4.9803   4.9961   5.0215   5.0684   5.0689   5.0970   5.1077
     5.1433   5.2853   5.2913   5.3024   5.3089   5.7002   5.7156   5.7324
     5.7419   5.7618   5.7727   5.8568   6.2160   6.2234   6.2248   6.2284
     6.2626   6.2716   6.2820   6.2928   6.2998   6.3178   6.3513   6.3543
     6.3676   6.3871   6.4756   6.4856   6.5747   6.5862   6.6699   6.7345
     6.7530   6.7806   6.7836   6.7896   6.8117   6.8440   6.9047   6.9478
     7.0032   7.0247   7.0323   7.0326   7.0385   7.0559   7.0584   7.0864
     7.1014   7.1103   7.1139   7.1387   7.1505   7.1956   7.3068   7.3869
     7.3902   7.3985   7.4011   7.4737   7.5098   7.6007   7.6302   7.7720
     7.7764   7.7827   7.7872   7.7966   7.7994   7.8061   7.8132   7.8193
     7.8323   7.8418   7.8512   7.8524   7.8856   7.8903   7.9179   7.9798
     7.9856   7.9892   7.9988   8.0434   8.0548   8.0643   8.1364   8.1557
     8.1563   8.1863   8.2084   8.2797   8.2872   8.2972   8.2985   8.3375
     8.3445   8.3826   8.4636   8.4868   8.5108   8.6052   8.6186   8.8310
     8.8445   8.8532   8.8806   9.0298   9.2822   9.3086  11.9156  13.1107
    13.1483  13.1714  13.3215  13.3503  13.6739  13.6959  13.8790  13.8882
    13.8894  13.9045  13.9665  13.9704  14.0258  14.0328  14.0414  14.0510
    14.0827  14.1236  14.1809  14.2263  14.2386  14.3720  14.6522  14.7386
    14.7654

     occupation numbers 
     1.0000   1.0000   1.0000   1.0000   1.0000   1.0000   1.0000   1.0000
     1.0000   1.0000   1.0000   1.0000   1.0000   1.0000   1.0000   1.0000
     1.0000   1.0000   1.0000   1.0000   1.0000   1.0000   1.0000   1.0000
     1.0000   1.0000   1.0000   1.0000   1.0000   1.0000   1.0000   1.0000
     1.0000   1.0000   1.0000   1.0000   1.0000   1.0000   1.0000   1.0000
     1.0000   1.0000   1.0000   1.0000   1.0000   1.0000   1.0000   1.0000
     1.0000   1.0000   1.0000   1.0000   1.0000   1.0000   1.0000   1.0000
     1.0000   1.0000   1.0000   1.0000   1.0000   1.0000   1.0000   1.0000
     1.0000   1.0000   1.0000   1.0000   1.0000   1.0000   1.0000   1.0000
     1.0000   1.0000   1.0000   1.0000   1.0000   1.0000   1.0000   1.0000
     1.0000   1.0000   1.0000   1.0000   1.0000   1.0000   1.0000   1.0000
     1.0000   1.0000   1.0000   1.0000   1.0000   1.0000   1.0000   1.0000
     1.0000   1.0000   1.0000   1.0000   1.0000   1.0000   1.0000   1.0000
     1.0000   1.0000   1.0000   1.0000   1.0000   1.0000   1.0000   1.0000
     1.0000   1.0000   1.0000   1.0000   1.0000   1.0000   1.0000   1.0000
     1.0000   1.0000   1.0000   1.0000   1.0000   1.0000   1.0000   1.0000
     1.0000   1.0000   1.0000   1.0000   1.0000   1.0000   1.0000   1.0000
     1.0000   1.0000   1.0000   1.0000   1.0000   1.0000   1.0000   1.0000
     1.0000   1.0000   1.0000   1.0000   1.0000   1.0000   1.0000   1.0000
     1.0000   1.0000   1.0000   1.0000   1.0000   1.0000   1.0000   1.0000
     1.0000   1.0000   1.0000   1.0000   1.0000   1.0000   1.0000   1.0000
     1.0000   1.0000   1.0000   1.0000   1.0000   1.0000   1.0000   1.0000
     1.0000   1.0000   1.0000   1.0000   1.0000   1.0000   1.0000   1.0000
     1.0000   1.0000   1.0000   1.0000   1.0000   1.0000   1.0000   1.0000
     1.0000   1.0000   1.0000   1.0000   1.0000   1.0000   1.0000   1.0000
     1.0000   1.0000   1.0000   1.0000   1.0000   1.0000   1.0000   1.0000
     1.0000   1.0000   1.0000   1.0000   1.0000   1.0000   1.0000   1.0000
     1.0000   1.0000   1.0000   1.0000   1.0000   1.0000   1.0000   1.0000
     1.0000   1.0000   1.0000   1.0000   1.0000   1.0000   1.0000   1.0000
     1.0000   1.0000   1.0000   1.0000   1.0000   1.0000   1.0000   1.0000
     1.0000   1.0000   1.0000   1.0000   1.0000   1.0000   1.0000   1.0000
     1.0000   1.0000   1.0000   1.0000   1.0000   1.0000   1.0000   1.0000
     1.0000   1.0000   1.0000   1.0000   1.0000   1.0000   1.0000   1.0000
     1.0000   1.0000   1.0000   1.0000   1.0000   1.0000   1.0000   1.0000
     1.0000   1.0000   1.0000   1.0000   1.0000   1.0000   1.0000   1.0000
     1.0000   1.0000   1.0000   1.0000   1.0000   1.0000   1.0000   1.0000
     1.0000   1.0000   1.0000   1.0000   1.0000   1.0000   1.0000   1.0000
     1.0000   1.0000   1.0000   1.0000   1.0000   1.0000   1.0000   1.0000
     1.0000   1.0000   1.0000   1.0000   1.0000   1.0000   1.0000   1.0000
     1.0000   1.0000   1.0000   1.0000   1.0000   1.0000   1.0000   1.0000
     1.0000   1.0000   1.0000   1.0000   1.0000   1.0000   1.0000   1.0000
     1.0000   1.0000   1.0000   1.0000   1.0000   1.0000   1.0000   1.0000
     1.0000   1.0000   1.0000   1.0000   1.0000   1.0000   1.0000   1.0000
     1.0000   1.0000   1.0000   1.0000   1.0000   1.0000   1.0000   1.0000
     1.0000   1.0000   1.0000   1.0000   1.0000   1.0000   1.0000   1.0000
     1.0000   1.0000   1.0000   1.0000   1.0000   1.0000   1.0000   1.0000
     1.0000   1.0000   1.0000   1.0000   1.0000   1.0000   1.0000   1.0000
     1.0000   1.0000   1.0000   1.0000   1.0000   1.0000   1.0000   1.0000
     1.0000   1.0000   1.0000   1.0000   1.0000   1.0000   1.0000   1.0000
     1.0000   1.0000   1.0000   1.0000   1.0000   1.0000   1.0000   1.0000
     1.0000   1.0000   1.0000   1.0000   1.0000   1.0000   1.0000   1.0000
     1.0000   1.0000   1.0000   1.0000   1.0000   1.0000   1.0000   1.0000
     1.0000   1.0000   1.0000   1.0000   1.0000   1.0000   1.0000   1.0000
     1.0000   1.0000   1.0000   1.0000   1.0000   1.0000   1.0000   1.0000
     1.0000   1.0000   1.0000   1.0000   1.0000   1.0000   1.0000   1.0000
     1.0000   1.0000   1.0000   1.0000   1.0000   1.0000   1.0000   1.0000
     1.0000   1.0000   1.0000   1.0000   1.0000   1.0000   1.0000   1.0000
     1.0000   1.0000   1.0000   1.0000   1.0000   1.0000   1.0000   1.0000
     1.0000   1.0000   1.0000   1.0000   1.0000   1.0000   1.0000   1.0000
     1.0000   1.0000   1.0000   1.0000   1.0000   1.0000   1.0000   1.0000
     1.0000   1.0000   1.0000   1.0000   0.9984   0.9880   0.0000   0.0000
     0.0000   0.0000   0.0000   0.0000   0.0000   0.0000   0.0000   0.0000
     0.0000   0.0000   0.0000   0.0000   0.0000   0.0000   0.0000   0.0000
     0.0000   0.0000   0.0000   0.0000   0.0000   0.0000   0.0000   0.0000
     0.0000

          k = 0.0000 0.3849-0.3067 ( 51248 PWs)   bands (ev):

    -6.3018  -6.2948  -6.0482  -6.0419  -5.9136  -5.9047  -5.8855  -5.8694
    -5.8691  -5.8519  -5.7629  -5.7551  -5.7140  -5.7127  -5.6989  -5.6988
    -5.6885  -5.6780  -5.6756  -5.6745  -5.6720  -5.6655  -5.6630  -5.6553
    -5.6275  -5.6213  -5.6144  -5.6122  -5.6099  -5.6060  -5.5913  -5.5907
    -5.5881  -5.5836  -5.5817  -5.5811  -5.5737  -5.5717  -5.5704  -5.5612
    -5.5598  -5.5568  -5.5464  -5.5442  -5.5442  -5.5410  -5.5400  -5.5373
    -5.5283  -5.5157  -5.5147  -5.4887  -5.4875  -4.2493  -4.2012  -4.1939
    -4.1931  -4.1827  -4.1793  -4.1784  -4.1765  -4.1731  -4.1691  -4.1674
    -4.1673  -4.1665  -4.1647  -4.1612  -4.1609  -4.1587  -4.1580  -4.1569
    -4.1552  -4.1519  -4.1506  -4.1482  -4.1468  -4.1462  -4.1442  -4.1439
    -4.1434  -4.1417  -4.1410  -4.1399  -4.1387  -4.1367  -4.1365  -4.1357
    -4.1339  -4.1337  -4.1317  -4.1315  -4.1293  -4.1279  -4.1270  -4.1255
    -4.1255  -4.1245  -4.1235  -4.1224  -4.1222  -4.1197  -4.1186  -4.1169
    -4.1153  -4.1112  -4.1104  -4.1072  -4.1046  -4.1044  -4.1026  -4.0977
    -4.0948  -4.0929  -4.0914  -4.0897  -4.0878  -4.0835  -4.0833  -4.0803
    -4.0793  -4.0785  -4.0773  -4.0725  -4.0721  -4.0712  -4.0705  -4.0679
    -4.0677  -4.0642  -4.0628  -4.0621  -4.0613  -4.0575  -4.0561  -4.0546
    -4.0533  -4.0530  -4.0493  -4.0492  -4.0471  -4.0446  -4.0423  -4.0407
    -4.0383  -4.0360  -4.0336  -4.0295  -4.0256  -4.0236  -4.0226  -4.0210
    -4.0177  -4.0146  -4.0131  -4.0097  -4.0073  -4.0070  -4.0056  -4.0044
    -4.0036  -4.0030  -4.0010  -3.9995  -3.9988  -3.9969  -3.9966  -3.9958
    -3.9938  -3.9922  -3.9913  -3.9912  -3.9894  -3.9872  -3.9860  -3.9850
    -3.9819  -3.9819  -3.9804  -3.9804  -3.9780  -3.9765  -3.9754  -3.9737
    -3.9733  -3.9713  -3.9711  -3.9704  -3.9679  -3.9660  -3.9653  -3.9641
    -3.9636  -3.9630  -3.9619  -3.9609  -3.9603  -3.9577  -3.9570  -3.9565
    -3.9548  -3.9534  -3.9524  -3.9514  -3.9495  -3.9485  -3.9441  -3.9431
    -3.9414  -3.9390  -3.9386  -3.9347  -3.9344  -3.9304  -3.9302  -3.9263
    -3.9251  -3.9240  -3.9233  -3.9210  -3.9196  -3.9172  -3.9167  -3.9158
    -3.9135  -3.9132  -3.9102  -3.9092  -3.9091  -3.9078  -3.9068  -3.9066
    -3.9036  -3.9035  -3.9021  -3.9012  -3.8999  -3.8982  -3.8976  -3.8967
    -3.8959  -3.8945  -3.8922  -3.8909  -3.8889  -3.8886  -3.8876  -3.8857
    -3.8848  -3.8826  -3.8820  -3.8784  -3.8750  -3.8739  -3.8719  -3.8686
    -3.8670  -3.8634  -3.8587  -3.8520  -3.8520  -3.8302  -3.8284  -3.7998
    -3.7758  -3.7738  -3.7547  -3.7482  -3.7320  -3.7190  -3.7186  -3.7097
    -3.6980  -3.6638  -3.6369  -3.6318  -3.6040  -3.5966  -3.5644  -3.5586
    -3.4413  -3.4321  -3.1737  -3.1688  -3.1683  -3.1571  -3.0785  -3.0768
    -3.0610  -3.0278  -2.8575  -2.8307  -2.7970  -2.7861  -2.6941  -2.6879
    -2.6861  -2.6731  -2.5891  -2.5875  -2.5847  -2.5760  -2.5622  -2.5522
    -2.5441  -2.4832  -2.3545  -2.3522  -2.3515  -2.3454  -2.3416  -2.3327
    -2.3266  -2.2424  -2.1860  -2.1809  -2.1330  -2.1251  -2.1240  -2.0826
    -2.0687  -2.0641  -2.0569  -0.1791   2.8721   2.8830   2.9526   2.9573
     3.0051   3.0101   3.1768   3.1871   3.1881   3.1947   3.2038   3.2141
     3.2246   3.2319   3.3187   3.3205   3.3231   3.3286   3.3561   3.3627
     3.3796   3.4005   3.4060   3.4213   3.5276   3.5439   3.5470   3.6130
     3.9184   3.9331   3.9370   3.9412   3.9471   3.9847   4.2789   4.2842
     4.2881   4.3260   4.3984   4.4244   4.4273   4.4945   4.9801   4.9998
     5.0125   5.0214   5.0280   5.0448   5.2499   5.2519   5.2776   5.2931
     5.4041   5.4143   5.4228   5.4319   5.4520   5.4841   5.5305   5.5806
     5.6743   5.6812   5.6954   5.7296   5.7744   5.7810   5.7835   5.8059
     5.8996   5.9550   6.1457   6.1487   6.1571   6.2125   6.3688   6.3725
     6.3781   6.4036   6.5278   6.5842   6.7505   6.7616   6.8347   6.8398
     6.8426   6.8502   6.8632   6.8665   6.8745   6.8969   6.9237   6.9278
     6.9296   7.0171   7.1882   7.2003   7.2065   7.2111   7.3275   7.3333
     7.3619   7.3644   7.3676   7.3680   7.4040   7.4211   7.4319   7.4344
     7.4786   7.5034   7.5364   7.5397   7.5516   7.5535   7.5633   7.5646
     7.5700   7.5742   7.5854   7.6269   7.6276   7.6708   7.7244   7.7246
     7.7259   7.7311   7.7321   7.7780   7.7875   7.8124   7.8608   7.8758
     7.8980   7.9051   7.9795   8.0651   8.0862   8.0919   8.1334   8.1450
     8.1474   8.1586   8.1838   8.1913   8.2072   8.2257   8.3149   8.3729
     8.3930   8.4193   8.4970   8.5407   8.5645   8.6270   8.6817   8.7597
     8.7843   8.8749   9.0207   9.0711   9.1860   9.2916  12.3042  12.3660
    13.2134  13.2672  13.6259  13.6360  13.8014  13.8047  13.8507  13.8573
    13.8889  13.8957  13.9291  13.9734  14.0734  14.1029  14.2195  14.2240
    14.2253  14.2313  14.2374  14.2398  14.2484  14.3562  14.3734  14.3818
    14.3986

     occupation numbers 
     1.0000   1.0000   1.0000   1.0000   1.0000   1.0000   1.0000   1.0000
     1.0000   1.0000   1.0000   1.0000   1.0000   1.0000   1.0000   1.0000
     1.0000   1.0000   1.0000   1.0000   1.0000   1.0000   1.0000   1.0000
     1.0000   1.0000   1.0000   1.0000   1.0000   1.0000   1.0000   1.0000
     1.0000   1.0000   1.0000   1.0000   1.0000   1.0000   1.0000   1.0000
     1.0000   1.0000   1.0000   1.0000   1.0000   1.0000   1.0000   1.0000
     1.0000   1.0000   1.0000   1.0000   1.0000   1.0000   1.0000   1.0000
     1.0000   1.0000   1.0000   1.0000   1.0000   1.0000   1.0000   1.0000
     1.0000   1.0000   1.0000   1.0000   1.0000   1.0000   1.0000   1.0000
     1.0000   1.0000   1.0000   1.0000   1.0000   1.0000   1.0000   1.0000
     1.0000   1.0000   1.0000   1.0000   1.0000   1.0000   1.0000   1.0000
     1.0000   1.0000   1.0000   1.0000   1.0000   1.0000   1.0000   1.0000
     1.0000   1.0000   1.0000   1.0000   1.0000   1.0000   1.0000   1.0000
     1.0000   1.0000   1.0000   1.0000   1.0000   1.0000   1.0000   1.0000
     1.0000   1.0000   1.0000   1.0000   1.0000   1.0000   1.0000   1.0000
     1.0000   1.0000   1.0000   1.0000   1.0000   1.0000   1.0000   1.0000
     1.0000   1.0000   1.0000   1.0000   1.0000   1.0000   1.0000   1.0000
     1.0000   1.0000   1.0000   1.0000   1.0000   1.0000   1.0000   1.0000
     1.0000   1.0000   1.0000   1.0000   1.0000   1.0000   1.0000   1.0000
     1.0000   1.0000   1.0000   1.0000   1.0000   1.0000   1.0000   1.0000
     1.0000   1.0000   1.0000   1.0000   1.0000   1.0000   1.0000   1.0000
     1.0000   1.0000   1.0000   1.0000   1.0000   1.0000   1.0000   1.0000
     1.0000   1.0000   1.0000   1.0000   1.0000   1.0000   1.0000   1.0000
     1.0000   1.0000   1.0000   1.0000   1.0000   1.0000   1.0000   1.0000
     1.0000   1.0000   1.0000   1.0000   1.0000   1.0000   1.0000   1.0000
     1.0000   1.0000   1.0000   1.0000   1.0000   1.0000   1.0000   1.0000
     1.0000   1.0000   1.0000   1.0000   1.0000   1.0000   1.0000   1.0000
     1.0000   1.0000   1.0000   1.0000   1.0000   1.0000   1.0000   1.0000
     1.0000   1.0000   1.0000   1.0000   1.0000   1.0000   1.0000   1.0000
     1.0000   1.0000   1.0000   1.0000   1.0000   1.0000   1.0000   1.0000
     1.0000   1.0000   1.0000   1.0000   1.0000   1.0000   1.0000   1.0000
     1.0000   1.0000   1.0000   1.0000   1.0000   1.0000   1.0000   1.0000
     1.0000   1.0000   1.0000   1.0000   1.0000   1.0000   1.0000   1.0000
     1.0000   1.0000   1.0000   1.0000   1.0000   1.0000   1.0000   1.0000
     1.0000   1.0000   1.0000   1.0000   1.0000   1.0000   1.0000   1.0000
     1.0000   1.0000   1.0000   1.0000   1.0000   1.0000   1.0000   1.0000
     1.0000   1.0000   1.0000   1.0000   1.0000   1.0000   1.0000   1.0000
     1.0000   1.0000   1.0000   1.0000   1.0000   1.0000   1.0000   1.0000
     1.0000   1.0000   1.0000   1.0000   1.0000   1.0000   1.0000   1.0000
     1.0000   1.0000   1.0000   1.0000   1.0000   1.0000   1.0000   1.0000
     1.0000   1.0000   1.0000   1.0000   1.0000   1.0000   1.0000   1.0000
     1.0000   1.0000   1.0000   1.0000   1.0000   1.0000   1.0000   1.0000
     1.0000   1.0000   1.0000   1.0000   1.0000   1.0000   1.0000   1.0000
     1.0000   1.0000   1.0000   1.0000   1.0000   1.0000   1.0000   1.0000
     1.0000   1.0000   1.0000   1.0000   1.0000   1.0000   1.0000   1.0000
     1.0000   1.0000   1.0000   1.0000   1.0000   1.0000   1.0000   1.0000
     1.0000   1.0000   1.0000   1.0000   1.0000   1.0000   1.0000   1.0000
     1.0000   1.0000   1.0000   1.0000   1.0000   1.0000   1.0000   1.0000
     1.0000   1.0000   1.0000   1.0000   1.0000   1.0000   1.0000   1.0000
     1.0000   1.0000   1.0000   1.0000   1.0000   1.0000   1.0000   1.0000
     1.0000   1.0000   1.0000   1.0000   1.0000   1.0000   1.0000   1.0000
     1.0000   1.0000   1.0000   1.0000   1.0000   1.0000   1.0000   1.0000
     1.0000   1.0000   1.0000   1.0000   1.0000   1.0000   1.0000   1.0000
     1.0000   1.0000   1.0000   1.0000   1.0000   1.0000   1.0000   1.0000
     1.0000   1.0000   1.0000   1.0000   1.0000   1.0000   1.0000   1.0000
     1.0000   1.0000   1.0000   1.0000   1.0000   1.0000   1.0000   1.0000
     1.0000   1.0000   1.0000   1.0000   1.0000   1.0000   1.0000   1.0000
     1.0000   1.0000   1.0000   1.0000   1.0000   1.0000   1.0000   1.0000
     1.0000   1.0000   1.0000   1.0000   1.0000   1.0000   1.0000   1.0000
     1.0000   1.0000   1.0000   1.0000   1.0000   1.0000   1.0000   1.0000
     1.0000   1.0000   1.0000   1.0000   1.0000   0.9965   0.0000   0.0000
     0.0000   0.0000   0.0000   0.0000   0.0000   0.0000   0.0000   0.0000
     0.0000   0.0000   0.0000   0.0000   0.0000   0.0000   0.0000   0.0000
     0.0000   0.0000   0.0000   0.0000   0.0000   0.0000   0.0000   0.0000
     0.0000

          k = 0.3333 0.5774 0.0000 ( 51216 PWs)   bands (ev):

    -6.1962  -6.1929  -6.1460  -5.9883  -5.9841  -5.9750  -5.9730  -5.9454
    -5.9277  -5.7457  -5.7340  -5.7276  -5.7019  -5.6996  -5.6893  -5.6858
    -5.6745  -5.6735  -5.6703  -5.6676  -5.6639  -5.6586  -5.6577  -5.6486
    -5.6379  -5.6351  -5.6285  -5.6241  -5.6195  -5.6147  -5.6110  -5.6040
    -5.5981  -5.5966  -5.5850  -5.5735  -5.5726  -5.5694  -5.5660  -5.5562
    -5.5548  -5.5511  -5.5493  -5.5483  -5.5441  -5.5377  -5.5376  -5.5354
    -5.5249  -5.5159  -5.5131  -5.4889  -5.4860  -4.2468  -4.1890  -4.1887
    -4.1878  -4.1802  -4.1789  -4.1755  -4.1727  -4.1719  -4.1646  -4.1643
    -4.1638  -4.1625  -4.1593  -4.1582  -4.1565  -4.1564  -4.1541  -4.1541
    -4.1523  -4.1515  -4.1515  -4.1499  -4.1498  -4.1479  -4.1447  -4.1430
    -4.1416  -4.1380  -4.1373  -4.1355  -4.1349  -4.1337  -4.1306  -4.1306
    -4.1295  -4.1283  -4.1265  -4.1264  -4.1251  -4.1243  -4.1232  -4.1211
    -4.1202  -4.1172  -4.1171  -4.1164  -4.1155  -4.1145  -4.1110  -4.1097
    -4.1088  -4.1086  -4.1080  -4.1079  -4.1075  -4.1067  -4.1048  -4.1034
    -4.1022  -4.1012  -4.1010  -4.0999  -4.0985  -4.0972  -4.0967  -4.0954
    -4.0924  -4.0923  -4.0888  -4.0884  -4.0876  -4.0859  -4.0846  -4.0761
    -4.0735  -4.0717  -4.0697  -4.0639  -4.0625  -4.0623  -4.0549  -4.0524
    -4.0481  -4.0448  -4.0432  -4.0427  -4.0426  -4.0394  -4.0368  -4.0315
    -4.0304  -4.0302  -4.0258  -4.0247  -4.0244  -4.0233  -4.0220  -4.0212
    -4.0201  -4.0187  -4.0180  -4.0163  -4.0160  -4.0147  -4.0129  -4.0126
    -4.0101  -4.0091  -4.0075  -4.0067  -4.0036  -4.0034  -4.0018  -4.0002
    -3.9997  -3.9990  -3.9988  -3.9932  -3.9918  -3.9905  -3.9889  -3.9883
    -3.9849  -3.9849  -3.9843  -3.9809  -3.9802  -3.9796  -3.9778  -3.9772
    -3.9770  -3.9759  -3.9735  -3.9717  -3.9709  -3.9685  -3.9684  -3.9676
    -3.9668  -3.9667  -3.9653  -3.9647  -3.9640  -3.9618  -3.9577  -3.9566
    -3.9530  -3.9517  -3.9498  -3.9487  -3.9454  -3.9412  -3.9407  -3.9398
    -3.9376  -3.9372  -3.9345  -3.9345  -3.9331  -3.9323  -3.9295  -3.9269
    -3.9240  -3.9240  -3.9218  -3.9203  -3.9202  -3.9199  -3.9187  -3.9137
    -3.9121  -3.9106  -3.9092  -3.9084  -3.9081  -3.9051  -3.9049  -3.9041
    -3.9039  -3.9036  -3.9010  -3.9005  -3.8996  -3.8990  -3.8981  -3.8953
    -3.8950  -3.8949  -3.8929  -3.8925  -3.8919  -3.8918  -3.8873  -3.8860
    -3.8844  -3.8817  -3.8790  -3.8780  -3.8779  -3.8773  -3.8697  -3.8694
    -3.8673  -3.8655  -3.8611  -3.8496  -3.8363  -3.8309  -3.8252  -3.8232
    -3.8041  -3.8027  -3.7914  -3.7821  -3.7739  -3.7550  -3.7505  -3.7281
    -3.7221  -3.7114  -3.7090  -3.7048  -3.6659  -3.5670  -3.5645  -3.2076
    -3.1915  -3.1814  -3.1152  -3.1143  -3.1129  -3.1128  -3.0828  -3.0609
    -3.0052  -3.0043  -3.0029  -2.9972  -2.9688  -2.9093  -2.6623  -2.6491
    -2.6355  -2.5646  -2.5619  -2.5592  -2.5580  -2.5330  -2.4992  -2.4190
    -2.4125  -2.4082  -2.4037  -2.4011  -2.3971  -2.3960  -2.3799  -2.3448
    -2.3044  -2.2956  -2.2952  -2.2912  -2.2646  -2.1809  -2.1536  -2.1322
    -2.0334  -1.9922  -1.9694  -0.1720   2.7592   2.7653   2.7724   2.7801
     2.7878   2.7991   2.8575   2.8582   2.9276   3.0684   3.0689   3.0707
     3.2945   3.2978   3.3008   3.3023   3.3189   3.3279   3.4727   3.4741
     3.4780   3.5013   3.5118   3.5216   3.6031   3.6333   3.6352   4.0926
     4.0940   4.0951   4.0979   4.1020   4.1084   4.1222   4.1292   4.1303
     4.1380   4.1407   4.1586   4.1661   4.2577   4.3364   4.6070   4.6284
     4.6796   5.0779   5.1036   5.1038   5.2345   5.2403   5.2872   5.9046
     5.9084   5.9112   6.0075   6.0139   6.0166   6.0281   6.0363   6.0458
     6.0901   6.0909   6.0926   6.0949   6.1090   6.1137   6.1299   6.1340
     6.1386   6.1402   6.1463   6.1835   6.1875   6.2265   6.2708   6.4069
     6.4071   6.4301   6.5124   6.5264   6.5303   6.5316   6.5565   6.5841
     6.9054   6.9149   6.9162   6.9208   6.9209   6.9240   6.9266   6.9292
     6.9434   6.9443   6.9513   6.9516   6.9609   6.9691   6.9847   6.9857
     6.9945   7.0100   7.0199   7.0396   7.0633   7.0744   7.1264   7.1403
     7.1894   7.1907   7.2064   7.2306   7.2483   7.2900   7.5656   7.5674
     7.6126   7.7449   7.7487   7.7528   7.7625   7.7673   7.7706   7.7728
     7.7855   7.7894   7.7918   7.8042   7.8098   7.8211   7.8216   7.8242
     7.8328   7.8383   7.8395   7.9204   7.9606   7.9988   8.0389   8.0430
     8.0463   8.0468   8.1520   8.1869   8.2909   8.2911   8.3042   8.3054
     8.3844   8.4378   8.4524   8.4632   8.4730   8.5499   8.6409   8.6657
     8.8145   8.8425   8.8431   8.9454   9.0635   9.2326  12.8418  12.8507
    12.9199  13.6604  13.6612  13.6683  13.6765  13.7120  13.7375  13.7547
    13.7623  13.7648  13.7754  13.7755  13.9544  14.6465  14.6475  14.6507
    14.6672  14.6678  14.6944  14.7554  14.7621  14.7644  14.7684  14.7862
    14.8145

     occupation numbers 
     1.0000   1.0000   1.0000   1.0000   1.0000   1.0000   1.0000   1.0000
     1.0000   1.0000   1.0000   1.0000   1.0000   1.0000   1.0000   1.0000
     1.0000   1.0000   1.0000   1.0000   1.0000   1.0000   1.0000   1.0000
     1.0000   1.0000   1.0000   1.0000   1.0000   1.0000   1.0000   1.0000
     1.0000   1.0000   1.0000   1.0000   1.0000   1.0000   1.0000   1.0000
     1.0000   1.0000   1.0000   1.0000   1.0000   1.0000   1.0000   1.0000
     1.0000   1.0000   1.0000   1.0000   1.0000   1.0000   1.0000   1.0000
     1.0000   1.0000   1.0000   1.0000   1.0000   1.0000   1.0000   1.0000
     1.0000   1.0000   1.0000   1.0000   1.0000   1.0000   1.0000   1.0000
     1.0000   1.0000   1.0000   1.0000   1.0000   1.0000   1.0000   1.0000
     1.0000   1.0000   1.0000   1.0000   1.0000   1.0000   1.0000   1.0000
     1.0000   1.0000   1.0000   1.0000   1.0000   1.0000   1.0000   1.0000
     1.0000   1.0000   1.0000   1.0000   1.0000   1.0000   1.0000   1.0000
     1.0000   1.0000   1.0000   1.0000   1.0000   1.0000   1.0000   1.0000
     1.0000   1.0000   1.0000   1.0000   1.0000   1.0000   1.0000   1.0000
     1.0000   1.0000   1.0000   1.0000   1.0000   1.0000   1.0000   1.0000
     1.0000   1.0000   1.0000   1.0000   1.0000   1.0000   1.0000   1.0000
     1.0000   1.0000   1.0000   1.0000   1.0000   1.0000   1.0000   1.0000
     1.0000   1.0000   1.0000   1.0000   1.0000   1.0000   1.0000   1.0000
     1.0000   1.0000   1.0000   1.0000   1.0000   1.0000   1.0000   1.0000
     1.0000   1.0000   1.0000   1.0000   1.0000   1.0000   1.0000   1.0000
     1.0000   1.0000   1.0000   1.0000   1.0000   1.0000   1.0000   1.0000
     1.0000   1.0000   1.0000   1.0000   1.0000   1.0000   1.0000   1.0000
     1.0000   1.0000   1.0000   1.0000   1.0000   1.0000   1.0000   1.0000
     1.0000   1.0000   1.0000   1.0000   1.0000   1.0000   1.0000   1.0000
     1.0000   1.0000   1.0000   1.0000   1.0000   1.0000   1.0000   1.0000
     1.0000   1.0000   1.0000   1.0000   1.0000   1.0000   1.0000   1.0000
     1.0000   1.0000   1.0000   1.0000   1.0000   1.0000   1.0000   1.0000
     1.0000   1.0000   1.0000   1.0000   1.0000   1.0000   1.0000   1.0000
     1.0000   1.0000   1.0000   1.0000   1.0000   1.0000   1.0000   1.0000
     1.0000   1.0000   1.0000   1.0000   1.0000   1.0000   1.0000   1.0000
     1.0000   1.0000   1.0000   1.0000   1.0000   1.0000   1.0000   1.0000
     1.0000   1.0000   1.0000   1.0000   1.0000   1.0000   1.0000   1.0000
     1.0000   1.0000   1.0000   1.0000   1.0000   1.0000   1.0000   1.0000
     1.0000   1.0000   1.0000   1.0000   1.0000   1.0000   1.0000   1.0000
     1.0000   1.0000   1.0000   1.0000   1.0000   1.0000   1.0000   1.0000
     1.0000   1.0000   1.0000   1.0000   1.0000   1.0000   1.0000   1.0000
     1.0000   1.0000   1.0000   1.0000   1.0000   1.0000   1.0000   1.0000
     1.0000   1.0000   1.0000   1.0000   1.0000   1.0000   1.0000   1.0000
     1.0000   1.0000   1.0000   1.0000   1.0000   1.0000   1.0000   1.0000
     1.0000   1.0000   1.0000   1.0000   1.0000   1.0000   1.0000   1.0000
     1.0000   1.0000   1.0000   1.0000   1.0000   1.0000   1.0000   1.0000
     1.0000   1.0000   1.0000   1.0000   1.0000   1.0000   1.0000   1.0000
     1.0000   1.0000   1.0000   1.0000   1.0000   1.0000   1.0000   1.0000
     1.0000   1.0000   1.0000   1.0000   1.0000   1.0000   1.0000   1.0000
     1.0000   1.0000   1.0000   1.0000   1.0000   1.0000   1.0000   1.0000
     1.0000   1.0000   1.0000   1.0000   1.0000   1.0000   1.0000   1.0000
     1.0000   1.0000   1.0000   1.0000   1.0000   1.0000   1.0000   1.0000
     1.0000   1.0000   1.0000   1.0000   1.0000   1.0000   1.0000   1.0000
     1.0000   1.0000   1.0000   1.0000   1.0000   1.0000   1.0000   1.0000
     1.0000   1.0000   1.0000   1.0000   1.0000   1.0000   1.0000   1.0000
     1.0000   1.0000   1.0000   1.0000   1.0000   1.0000   1.0000   1.0000
     1.0000   1.0000   1.0000   1.0000   1.0000   1.0000   1.0000   1.0000
     1.0000   1.0000   1.0000   1.0000   1.0000   1.0000   1.0000   1.0000
     1.0000   1.0000   1.0000   1.0000   1.0000   1.0000   1.0000   1.0000
     1.0000   1.0000   1.0000   1.0000   1.0000   1.0000   1.0000   1.0000
     1.0000   1.0000   1.0000   1.0000   1.0000   1.0000   1.0000   1.0000
     1.0000   1.0000   1.0000   1.0000   1.0000   1.0000   1.0000   1.0000
     1.0000   1.0000   1.0000   1.0000   1.0000   1.0000   1.0000   1.0000
     1.0000   1.0000   1.0000   1.0000   1.0000   1.0000   1.0000   1.0000
     1.0000   1.0000   1.0000   1.0000   1.0000   1.0000   0.0000   0.0000
     0.0000   0.0000   0.0000   0.0000   0.0000   0.0000   0.0000   0.0000
     0.0000   0.0000   0.0000   0.0000   0.0000   0.0000   0.0000   0.0000
     0.0000   0.0000   0.0000   0.0000   0.0000   0.0000   0.0000   0.0000
     0.0000

          k = 0.3333 0.5774-0.3067 ( 51264 PWs)   bands (ev):

    -6.1470  -6.1427  -6.1230  -6.1212  -6.1111  -6.0571  -5.8157  -5.8115
    -5.8077  -5.8052  -5.7849  -5.7736  -5.7282  -5.7160  -5.7071  -5.7064
    -5.7007  -5.6997  -5.6671  -5.6588  -5.6479  -5.6471  -5.6429  -5.6391
    -5.6376  -5.6293  -5.6257  -5.6219  -5.6181  -5.6111  -5.5982  -5.5980
    -5.5905  -5.5898  -5.5821  -5.5802  -5.5740  -5.5676  -5.5586  -5.5575
    -5.5556  -5.5538  -5.5529  -5.5480  -5.5423  -5.5401  -5.5393  -5.5386
    -5.5264  -5.5167  -5.5136  -5.4894  -5.4866  -4.2468  -4.1886  -4.1884
    -4.1867  -4.1764  -4.1761  -4.1753  -4.1735  -4.1676  -4.1659  -4.1631
    -4.1614  -4.1606  -4.1584  -4.1577  -4.1561  -4.1557  -4.1533  -4.1532
    -4.1532  -4.1520  -4.1519  -4.1490  -4.1481  -4.1481  -4.1479  -4.1459
    -4.1459  -4.1449  -4.1425  -4.1397  -4.1392  -4.1372  -4.1352  -4.1340
    -4.1336  -4.1321  -4.1297  -4.1273  -4.1261  -4.1242  -4.1238  -4.1229
    -4.1226  -4.1193  -4.1183  -4.1179  -4.1176  -4.1168  -4.1151  -4.1122
    -4.1118  -4.1111  -4.1100  -4.1093  -4.1076  -4.1063  -4.1046  -4.1035
    -4.1030  -4.1017  -4.1011  -4.0983  -4.0963  -4.0963  -4.0914  -4.0913
    -4.0908  -4.0877  -4.0818  -4.0768  -4.0724  -4.0711  -4.0699  -4.0673
    -4.0622  -4.0595  -4.0588  -4.0583  -4.0572  -4.0541  -4.0536  -4.0507
    -4.0507  -4.0499  -4.0476  -4.0472  -4.0454  -4.0411  -4.0404  -4.0402
    -4.0380  -4.0379  -4.0357  -4.0345  -4.0309  -4.0304  -4.0266  -4.0262
    -4.0260  -4.0245  -4.0241  -4.0181  -4.0168  -4.0160  -4.0121  -4.0094
    -4.0089  -4.0082  -4.0074  -4.0069  -4.0017  -4.0010  -3.9993  -3.9981
    -3.9970  -3.9961  -3.9932  -3.9922  -3.9913  -3.9876  -3.9858  -3.9844
    -3.9834  -3.9826  -3.9825  -3.9815  -3.9787  -3.9778  -3.9777  -3.9770
    -3.9768  -3.9758  -3.9753  -3.9742  -3.9736  -3.9691  -3.9690  -3.9689
    -3.9686  -3.9656  -3.9610  -3.9607  -3.9595  -3.9574  -3.9558  -3.9530
    -3.9518  -3.9517  -3.9488  -3.9487  -3.9437  -3.9419  -3.9406  -3.9403
    -3.9387  -3.9379  -3.9355  -3.9354  -3.9346  -3.9342  -3.9329  -3.9310
    -3.9309  -3.9289  -3.9281  -3.9244  -3.9219  -3.9216  -3.9203  -3.9196
    -3.9162  -3.9132  -3.9126  -3.9105  -3.9078  -3.9068  -3.9066  -3.9052
    -3.9033  -3.9016  -3.9004  -3.8993  -3.8987  -3.8978  -3.8974  -3.8963
    -3.8955  -3.8948  -3.8933  -3.8931  -3.8927  -3.8904  -3.8904  -3.8860
    -3.8845  -3.8827  -3.8818  -3.8805  -3.8799  -3.8782  -3.8724  -3.8722
    -3.8665  -3.8643  -3.8628  -3.8604  -3.8600  -3.8582  -3.8481  -3.8294
    -3.8262  -3.7921  -3.7679  -3.7614  -3.7505  -3.7356  -3.7204  -3.7132
    -3.7115  -3.6989  -3.5923  -3.5842  -3.5390  -3.5309  -3.5213  -3.5205
    -3.5018  -3.4863  -3.1619  -3.1545  -3.1542  -3.1536  -3.1288  -3.0889
    -2.7465  -2.7457  -2.7434  -2.7425  -2.7067  -2.7030  -2.6558  -2.6480
    -2.6360  -2.6331  -2.6319  -2.6288  -2.6276  -2.6188  -2.6136  -2.6086
    -2.6084  -2.5189  -2.4462  -2.4420  -2.4404  -2.4354  -2.3971  -2.3102
    -2.2025  -2.1881  -2.1861  -2.1816  -2.1641  -2.1591  -2.1194  -2.1075
    -2.1042  -2.0989  -2.0810  -0.1770   2.8775   2.8867   2.8994   2.9014
     2.9034   2.9062   2.9129   2.9161   2.9172   2.9293   2.9469   2.9637
     3.2317   3.2323   3.2440   3.2445   3.2822   3.3302   3.4882   3.4934
     3.5010   3.5052   3.5282   3.5534   3.6989   3.6998   3.6998   3.7346
     3.7418   3.7477   3.8224   3.8236   3.8372   3.8501   3.8604   3.8794
     4.4708   4.4714   4.4763   4.4908   4.5004   4.5611   5.1716   5.1744
     5.1786   5.1825   5.2316   5.3491   5.5447   5.5470   5.5488   5.5576
     5.5593   5.5593   5.5687   5.5785   5.5825   5.5973   5.6279   5.7237
     5.8631   5.8666   5.8715   5.8847   5.8891   5.9042   6.3284   6.3330
     6.3332   6.3393   6.3474   6.3527   6.4063   6.4103   6.4170   6.4287
     6.4426   6.4502   6.5216   6.5278   6.5286   6.5380   6.5434   6.6105
     6.6564   6.6651   6.6809   6.6848   6.6872   6.6919   6.7244   6.7258
     6.7410   6.7770   6.8401   6.8960   7.3242   7.3368   7.3406   7.3445
     7.3499   7.3812   7.3824   7.3848   7.3959   7.3989   7.4076   7.4501
     7.5302   7.5304   7.5344   7.5366   7.5397   7.5397   7.5452   7.5492
     7.5563   7.5575   7.5975   7.5981   7.6348   7.6363   7.6413   7.6434
     7.6691   7.6786   7.6860   7.6891   7.6929   7.6943   7.6991   7.7007
     7.7070   7.7165   7.7217   7.8006   7.8577   7.9252   7.9429   7.9509
     7.9517   7.9644   7.9887   8.1199   8.1302   8.1472   8.1506   8.2717
     8.3173   8.3336   8.6995   8.7238   8.7248   8.7253   8.7264   8.7291
     8.7324   8.7368   8.7469   8.9662   9.0468   9.2020  13.0511  13.0518
    13.0700  13.0776  13.0815  13.2280  14.0373  14.0419  14.0485  14.0554
    14.0631  14.0891  14.2100  14.2184  14.2257  14.2391  14.2428  14.2659
    14.4319  14.4327  14.4419  14.4509  14.5207  14.5654  14.8562  14.8674
    14.8781

     occupation numbers 
     1.0000   1.0000   1.0000   1.0000   1.0000   1.0000   1.0000   1.0000
     1.0000   1.0000   1.0000   1.0000   1.0000   1.0000   1.0000   1.0000
     1.0000   1.0000   1.0000   1.0000   1.0000   1.0000   1.0000   1.0000
     1.0000   1.0000   1.0000   1.0000   1.0000   1.0000   1.0000   1.0000
     1.0000   1.0000   1.0000   1.0000   1.0000   1.0000   1.0000   1.0000
     1.0000   1.0000   1.0000   1.0000   1.0000   1.0000   1.0000   1.0000
     1.0000   1.0000   1.0000   1.0000   1.0000   1.0000   1.0000   1.0000
     1.0000   1.0000   1.0000   1.0000   1.0000   1.0000   1.0000   1.0000
     1.0000   1.0000   1.0000   1.0000   1.0000   1.0000   1.0000   1.0000
     1.0000   1.0000   1.0000   1.0000   1.0000   1.0000   1.0000   1.0000
     1.0000   1.0000   1.0000   1.0000   1.0000   1.0000   1.0000   1.0000
     1.0000   1.0000   1.0000   1.0000   1.0000   1.0000   1.0000   1.0000
     1.0000   1.0000   1.0000   1.0000   1.0000   1.0000   1.0000   1.0000
     1.0000   1.0000   1.0000   1.0000   1.0000   1.0000   1.0000   1.0000
     1.0000   1.0000   1.0000   1.0000   1.0000   1.0000   1.0000   1.0000
     1.0000   1.0000   1.0000   1.0000   1.0000   1.0000   1.0000   1.0000
     1.0000   1.0000   1.0000   1.0000   1.0000   1.0000   1.0000   1.0000
     1.0000   1.0000   1.0000   1.0000   1.0000   1.0000   1.0000   1.0000
     1.0000   1.0000   1.0000   1.0000   1.0000   1.0000   1.0000   1.0000
     1.0000   1.0000   1.0000   1.0000   1.0000   1.0000   1.0000   1.0000
     1.0000   1.0000   1.0000   1.0000   1.0000   1.0000   1.0000   1.0000
     1.0000   1.0000   1.0000   1.0000   1.0000   1.0000   1.0000   1.0000
     1.0000   1.0000   1.0000   1.0000   1.0000   1.0000   1.0000   1.0000
     1.0000   1.0000   1.0000   1.0000   1.0000   1.0000   1.0000   1.0000
     1.0000   1.0000   1.0000   1.0000   1.0000   1.0000   1.0000   1.0000
     1.0000   1.0000   1.0000   1.0000   1.0000   1.0000   1.0000   1.0000
     1.0000   1.0000   1.0000   1.0000   1.0000   1.0000   1.0000   1.0000
     1.0000   1.0000   1.0000   1.0000   1.0000   1.0000   1.0000   1.0000
     1.0000   1.0000   1.0000   1.0000   1.0000   1.0000   1.0000   1.0000
     1.0000   1.0000   1.0000   1.0000   1.0000   1.0000   1.0000   1.0000
     1.0000   1.0000   1.0000   1.0000   1.0000   1.0000   1.0000   1.0000
     1.0000   1.0000   1.0000   1.0000   1.0000   1.0000   1.0000   1.0000
     1.0000   1.0000   1.0000   1.0000   1.0000   1.0000   1.0000   1.0000
     1.0000   1.0000   1.0000   1.0000   1.0000   1.0000   1.0000   1.0000
     1.0000   1.0000   1.0000   1.0000   1.0000   1.0000   1.0000   1.0000
     1.0000   1.0000   1.0000   1.0000   1.0000   1.0000   1.0000   1.0000
     1.0000   1.0000   1.0000   1.0000   1.0000   1.0000   1.0000   1.0000
     1.0000   1.0000   1.0000   1.0000   1.0000   1.0000   1.0000   1.0000
     1.0000   1.0000   1.0000   1.0000   1.0000   1.0000   1.0000   1.0000
     1.0000   1.0000   1.0000   1.0000   1.0000   1.0000   1.0000   1.0000
     1.0000   1.0000   1.0000   1.0000   1.0000   1.0000   1.0000   1.0000
     1.0000   1.0000   1.0000   1.0000   1.0000   1.0000   1.0000   1.0000
     1.0000   1.0000   1.0000   1.0000   1.0000   1.0000   1.0000   1.0000
     1.0000   1.0000   1.0000   1.0000   1.0000   1.0000   1.0000   1.0000
     1.0000   1.0000   1.0000   1.0000   1.0000   1.0000   1.0000   1.0000
     1.0000   1.0000   1.0000   1.0000   1.0000   1.0000   1.0000   1.0000
     1.0000   1.0000   1.0000   1.0000   1.0000   1.0000   1.0000   1.0000
     1.0000   1.0000   1.0000   1.0000   1.0000   1.0000   1.0000   1.0000
     1.0000   1.0000   1.0000   1.0000   1.0000   1.0000   1.0000   1.0000
     1.0000   1.0000   1.0000   1.0000   1.0000   1.0000   1.0000   1.0000
     1.0000   1.0000   1.0000   1.0000   1.0000   1.0000   1.0000   1.0000
     1.0000   1.0000   1.0000   1.0000   1.0000   1.0000   1.0000   1.0000
     1.0000   1.0000   1.0000   1.0000   1.0000   1.0000   1.0000   1.0000
     1.0000   1.0000   1.0000   1.0000   1.0000   1.0000   1.0000   1.0000
     1.0000   1.0000   1.0000   1.0000   1.0000   1.0000   1.0000   1.0000
     1.0000   1.0000   1.0000   1.0000   1.0000   1.0000   1.0000   1.0000
     1.0000   1.0000   1.0000   1.0000   1.0000   1.0000   1.0000   1.0000
     1.0000   1.0000   1.0000   1.0000   1.0000   1.0000   1.0000   1.0000
     1.0000   1.0000   1.0000   1.0000   1.0000   1.0000   1.0000   1.0000
     1.0000   1.0000   1.0000   1.0000   1.0000   1.0000   1.0000   1.0000
     1.0000   1.0000   1.0000   1.0000   1.0000   1.0000   0.0000   0.0000
     0.0000   0.0000   0.0000   0.0000   0.0000   0.0000   0.0000   0.0000
     0.0000   0.0000   0.0000   0.0000   0.0000   0.0000   0.0000   0.0000
     0.0000   0.0000   0.0000   0.0000   0.0000   0.0000   0.0000   0.0000
     0.0000

 ------ SPIN DOWN ----------


          k = 0.0000 0.0000 0.0000 ( 51313 PWs)   bands (ev):

    -6.4683  -6.2025  -6.1941  -5.8543  -5.8395  -5.8395  -5.8214  -5.8214
    -5.7976  -5.7898  -5.7885  -5.7368  -5.7263  -5.7238  -5.7238  -5.7152
    -5.7152  -5.7105  -5.7105  -5.6950  -5.6950  -5.6866  -5.6773  -5.6527
    -5.6037  -5.5883  -5.5861  -5.5861  -5.5838  -5.5838  -5.5792  -5.5773
    -5.5773  -5.5726  -5.5726  -5.5665  -5.5661  -5.5661  -5.5656  -5.5606
    -5.5579  -5.5579  -5.5473  -5.5463  -5.5463  -5.5407  -5.5377  -5.5323
    -5.5297  -5.5045  -5.5045  -5.4780  -5.4780  -4.2162  -4.2032  -4.2032
    -4.2025  -4.1951  -4.1951  -4.1906  -4.1906  -4.1849  -4.1849  -4.1745
    -4.1745  -4.1727  -4.1659  -4.1659  -4.1644  -4.1586  -4.1586  -4.1548
    -4.1548  -4.1500  -4.1497  -4.1497  -4.1489  -4.1489  -4.1464  -4.1463
    -4.1463  -4.1457  -4.1429  -4.1429  -4.1422  -4.1409  -4.1409  -4.1352
    -4.1352  -4.1337  -4.1337  -4.1325  -4.1288  -4.1288  -4.1197  -4.1147
    -4.1147  -4.1119  -4.1119  -4.1111  -4.1104  -4.1088  -4.1081  -4.1081
    -4.1070  -4.1070  -4.1052  -4.1052  -4.1036  -4.1019  -4.0994  -4.0977
    -4.0977  -4.0968  -4.0968  -4.0915  -4.0828  -4.0802  -4.0779  -4.0779
    -4.0742  -4.0738  -4.0695  -4.0695  -4.0688  -4.0667  -4.0650  -4.0650
    -4.0598  -4.0553  -4.0553  -4.0461  -4.0461  -4.0460  -4.0412  -4.0412
    -4.0393  -4.0380  -4.0380  -4.0356  -4.0356  -4.0347  -4.0271  -4.0250
    -4.0250  -4.0228  -4.0228  -4.0218  -4.0171  -4.0171  -4.0142  -4.0132
    -4.0120  -4.0120  -4.0102  -4.0102  -4.0085  -4.0075  -4.0075  -4.0075
    -4.0057  -4.0021  -4.0009  -4.0009  -3.9972  -3.9972  -3.9961  -3.9961
    -3.9956  -3.9932  -3.9932  -3.9913  -3.9904  -3.9904  -3.9878  -3.9857
    -3.9857  -3.9847  -3.9813  -3.9813  -3.9794  -3.9777  -3.9777  -3.9691
    -3.9691  -3.9670  -3.9665  -3.9665  -3.9631  -3.9631  -3.9624  -3.9604
    -3.9600  -3.9595  -3.9595  -3.9589  -3.9589  -3.9573  -3.9560  -3.9560
    -3.9545  -3.9545  -3.9508  -3.9465  -3.9465  -3.9465  -3.9444  -3.9444
    -3.9428  -3.9428  -3.9401  -3.9401  -3.9374  -3.9374  -3.9356  -3.9356
    -3.9334  -3.9289  -3.9262  -3.9262  -3.9251  -3.9238  -3.9238  -3.9214
    -3.9214  -3.9201  -3.9188  -3.9165  -3.9165  -3.9163  -3.9054  -3.9054
    -3.9026  -3.9018  -3.9018  -3.9013  -3.9013  -3.8997  -3.8997  -3.8982
    -3.8949  -3.8949  -3.8944  -3.8873  -3.8871  -3.8871  -3.8835  -3.8835
    -3.8804  -3.8789  -3.8789  -3.8701  -3.8701  -3.8693  -3.8669  -3.8669
    -3.8654  -3.8654  -3.8633  -3.8435  -3.8299  -3.8299  -3.7965  -3.7706
    -3.7706  -3.7445  -3.7445  -3.7087  -3.7087  -3.7052  -3.6916  -3.5719
    -3.5719  -3.5288  -3.5041  -3.5041  -3.4882  -3.4882  -3.4702  -3.3967
    -3.3852  -3.3216  -3.3126  -3.3092  -3.3092  -3.2939  -3.2939  -3.2846
    -3.2846  -3.2733  -3.2586  -3.2586  -3.1171  -2.6455  -2.6362  -2.6336
    -2.6319  -2.6319  -2.6217  -2.6217  -2.6082  -2.6082  -2.5974  -2.5974
    -2.5906  -2.4628  -2.2062  -2.2051  -2.2037  -2.2037  -2.1958  -2.1958
    -2.1948  -2.1941  -2.1841  -2.1719  -2.1719  -2.1306  -2.1116  -2.1011
    -2.1011  -2.0663  -2.0663   0.0044   2.3951   3.3717   3.3717   3.3728
     3.3762   3.3784   3.3828   3.3828   3.3850   3.4047   3.4134   3.4134
     3.4462   3.4462   3.4593   3.5064   3.5121   3.5121   3.5124   3.5221
     3.5221   3.5264   3.5264   3.6050   3.6050   3.6149   3.6610   3.9969
     4.0010   4.0170   4.0170   4.0364   4.0477   4.1820   4.1820   4.3739
     4.3754   4.3792   4.3792   4.3900   4.3900   4.3933   4.3933   4.4446
     4.4446   4.4456   4.4860   4.5202   4.5202   4.5593   4.5593   4.5875
     4.6704   4.6704   4.7317   4.7317   4.7347   5.4030   5.4030   5.4097
     5.4480   5.4480   5.5589   5.8587   5.8587   5.8869   5.8869   6.1514
     6.1570   6.1621   6.1621   6.1656   6.1656   6.1774   6.1775   6.2246
     6.2255   6.2255   6.2627   6.3742   6.3936   6.3936   6.4990   6.6524
     6.6524   6.9533   6.9570   6.9570   6.9837   6.9949   7.0271   7.0271
     7.0369   7.3016   7.3042   7.3042   7.3065   7.3108   7.3108   7.3343
     7.3355   7.3358   7.3358   7.4447   7.4447   7.4739   7.4850   7.4878
     7.4878   7.4921   7.5409   7.5409   7.5697   7.9545   7.9677   7.9680
     7.9680   7.9722   7.9722   7.9789   7.9789   8.0127   8.0197   8.0197
     8.0219   8.0266   8.0308   8.0308   8.0566   8.0566   8.0781   8.0805
     8.0805   8.0830   8.0879   8.0879   8.1079   8.1151   8.1152   8.1152
     8.2116   8.2116   8.3266   8.3266   8.5086   8.5086   8.5178   8.5178
     8.5218   8.5279   8.5279   8.5523   8.7825   8.7973   8.7973   9.0092
     9.0092   9.1635   9.1635   9.3768   9.5521   9.5521  11.0208  12.6901
    12.7109  13.3344  13.4638  13.4745  13.5377  13.5397  13.5397  13.5480
    13.5527  13.5527  13.5588  13.5588  13.5737  13.5737  13.5884  13.7507
    13.9502  13.9562  13.9562  14.0077  14.0077  14.2188  14.4537  14.4537
    14.6803

     occupation numbers 
     1.0000   1.0000   1.0000   1.0000   1.0000   1.0000   1.0000   1.0000
     1.0000   1.0000   1.0000   1.0000   1.0000   1.0000   1.0000   1.0000
     1.0000   1.0000   1.0000   1.0000   1.0000   1.0000   1.0000   1.0000
     1.0000   1.0000   1.0000   1.0000   1.0000   1.0000   1.0000   1.0000
     1.0000   1.0000   1.0000   1.0000   1.0000   1.0000   1.0000   1.0000
     1.0000   1.0000   1.0000   1.0000   1.0000   1.0000   1.0000   1.0000
     1.0000   1.0000   1.0000   1.0000   1.0000   1.0000   1.0000   1.0000
     1.0000   1.0000   1.0000   1.0000   1.0000   1.0000   1.0000   1.0000
     1.0000   1.0000   1.0000   1.0000   1.0000   1.0000   1.0000   1.0000
     1.0000   1.0000   1.0000   1.0000   1.0000   1.0000   1.0000   1.0000
     1.0000   1.0000   1.0000   1.0000   1.0000   1.0000   1.0000   1.0000
     1.0000   1.0000   1.0000   1.0000   1.0000   1.0000   1.0000   1.0000
     1.0000   1.0000   1.0000   1.0000   1.0000   1.0000   1.0000   1.0000
     1.0000   1.0000   1.0000   1.0000   1.0000   1.0000   1.0000   1.0000
     1.0000   1.0000   1.0000   1.0000   1.0000   1.0000   1.0000   1.0000
     1.0000   1.0000   1.0000   1.0000   1.0000   1.0000   1.0000   1.0000
     1.0000   1.0000   1.0000   1.0000   1.0000   1.0000   1.0000   1.0000
     1.0000   1.0000   1.0000   1.0000   1.0000   1.0000   1.0000   1.0000
     1.0000   1.0000   1.0000   1.0000   1.0000   1.0000   1.0000   1.0000
     1.0000   1.0000   1.0000   1.0000   1.0000   1.0000   1.0000   1.0000
     1.0000   1.0000   1.0000   1.0000   1.0000   1.0000   1.0000   1.0000
     1.0000   1.0000   1.0000   1.0000   1.0000   1.0000   1.0000   1.0000
     1.0000   1.0000   1.0000   1.0000   1.0000   1.0000   1.0000   1.0000
     1.0000   1.0000   1.0000   1.0000   1.0000   1.0000   1.0000   1.0000
     1.0000   1.0000   1.0000   1.0000   1.0000   1.0000   1.0000   1.0000
     1.0000   1.0000   1.0000   1.0000   1.0000   1.0000   1.0000   1.0000
     1.0000   1.0000   1.0000   1.0000   1.0000   1.0000   1.0000   1.0000
     1.0000   1.0000   1.0000   1.0000   1.0000   1.0000   1.0000   1.0000
     1.0000   1.0000   1.0000   1.0000   1.0000   1.0000   1.0000   1.0000
     1.0000   1.0000   1.0000   1.0000   1.0000   1.0000   1.0000   1.0000
     1.0000   1.0000   1.0000   1.0000   1.0000   1.0000   1.0000   1.0000
     1.0000   1.0000   1.0000   1.0000   1.0000   1.0000   1.0000   1.0000
     1.0000   1.0000   1.0000   1.0000   1.0000   1.0000   1.0000   1.0000
     1.0000   1.0000   1.0000   1.0000   1.0000   1.0000   1.0000   1.0000
     1.0000   1.0000   1.0000   1.0000   1.0000   1.0000   1.0000   1.0000
     1.0000   1.0000   1.0000   1.0000   1.0000   1.0000   1.0000   1.0000
     1.0000   1.0000   1.0000   1.0000   1.0000   1.0000   1.0000   1.0000
     1.0000   1.0000   1.0000   1.0000   1.0000   1.0000   1.0000   1.0000
     1.0000   1.0000   1.0000   1.0000   1.0000   1.0000   1.0000   1.0000
     1.0000   1.0000   1.0000   1.0000   1.0000   1.0000   1.0000   1.0000
     1.0000   1.0000   1.0000   1.0000   1.0000   1.0000   1.0000   1.0000
     1.0000   1.0000   1.0000   1.0000   1.0000   1.0000   1.0000   1.0000
     1.0000   1.0000   1.0000   1.0000   1.0000   1.0000   1.0000   1.0000
     1.0000   1.0000   1.0000   1.0000   1.0000   1.0000   1.0000   1.0000
     1.0000   1.0000   1.0000   1.0000   1.0000   1.0000   1.0000   1.0000
     1.0000   1.0000   1.0000   1.0000   1.0000   1.0000   1.0000   1.0000
     1.0000   1.0000   1.0000   1.0000   1.0000   1.0000   1.0000   1.0000
     1.0000   1.0000   1.0000   1.0000   1.0000   1.0000   1.0000   1.0000
     1.0000   1.0000   1.0000   1.0000   1.0000   1.0000   1.0000   1.0000
     1.0000   1.0000   1.0000   1.0000   1.0000   1.0000   1.0000   1.0000
     1.0000   1.0000   1.0000   1.0000   1.0000   1.0000   1.0000   1.0000
     1.0000   1.0000   1.0000   1.0000   1.0000   1.0000   1.0000   1.0000
     1.0000   1.0000   1.0000   1.0000   1.0000   1.0000   1.0000   1.0000
     1.0000   1.0000   1.0000   1.0000   1.0000   1.0000   1.0000   1.0000
     1.0000   1.0000   1.0000   1.0000   1.0000   1.0000   1.0000   1.0000
     1.0000   1.0000   1.0000   1.0000   1.0000   1.0000   1.0000   1.0000
     1.0000   1.0000   1.0000   1.0000   1.0000   1.0000   1.0000   1.0000
     1.0000   1.0000   1.0000   1.0000   1.0000   1.0000   1.0000   1.0000
     1.0000   1.0000   1.0000   1.0000   1.0000   1.0000   1.0000   1.0000
     1.0000   1.0000   1.0000   1.0000   1.0000   1.0000   1.0000   1.0000
     1.0000   1.0000   1.0000   0.6853   0.0000   0.0000   0.0000   0.0000
     0.0000   0.0000   0.0000   0.0000   0.0000   0.0000   0.0000   0.0000
     0.0000   0.0000   0.0000   0.0000   0.0000   0.0000   0.0000   0.0000
     0.0000   0.0000   0.0000   0.0000   0.0000   0.0000   0.0000   0.0000
     0.0000

          k = 0.0000 0.0000-0.3067 ( 51390 PWs)   bands (ev):

    -6.4046  -6.3825  -5.9659  -5.9649  -5.8297  -5.8082  -5.8082  -5.8052
    -5.8001  -5.8001  -5.7927  -5.7927  -5.7882  -5.7798  -5.7798  -5.7175
    -5.7045  -5.6984  -5.6527  -5.6427  -5.6427  -5.6406  -5.6283  -5.6283
    -5.6235  -5.6235  -5.6120  -5.6120  -5.6114  -5.5978  -5.5826  -5.5759
    -5.5759  -5.5647  -5.5647  -5.5642  -5.5627  -5.5627  -5.5596  -5.5590
    -5.5578  -5.5578  -5.5532  -5.5520  -5.5478  -5.5478  -5.5400  -5.5271
    -5.5243  -5.5039  -5.5039  -5.4776  -5.4776  -4.2090  -4.2015  -4.2015
    -4.1946  -4.1925  -4.1925  -4.1855  -4.1855  -4.1827  -4.1793  -4.1793
    -4.1772  -4.1772  -4.1761  -4.1761  -4.1695  -4.1695  -4.1685  -4.1608
    -4.1564  -4.1564  -4.1491  -4.1491  -4.1479  -4.1479  -4.1467  -4.1449
    -4.1449  -4.1442  -4.1440  -4.1435  -4.1435  -4.1417  -4.1411  -4.1411
    -4.1356  -4.1356  -4.1339  -4.1339  -4.1310  -4.1272  -4.1272  -4.1247
    -4.1247  -4.1241  -4.1225  -4.1218  -4.1218  -4.1170  -4.1154  -4.1154
    -4.1145  -4.1007  -4.0911  -4.0911  -4.0877  -4.0854  -4.0831  -4.0831
    -4.0790  -4.0790  -4.0789  -4.0773  -4.0773  -4.0741  -4.0741  -4.0728
    -4.0712  -4.0712  -4.0700  -4.0700  -4.0691  -4.0691  -4.0687  -4.0654
    -4.0626  -4.0626  -4.0600  -4.0599  -4.0557  -4.0557  -4.0526  -4.0453
    -4.0440  -4.0395  -4.0395  -4.0372  -4.0324  -4.0324  -4.0287  -4.0281
    -4.0281  -4.0247  -4.0247  -4.0238  -4.0191  -4.0191  -4.0145  -4.0123
    -4.0123  -4.0115  -4.0092  -4.0092  -4.0078  -4.0078  -4.0055  -4.0047
    -4.0047  -4.0042  -4.0022  -4.0015  -4.0015  -3.9976  -3.9966  -3.9966
    -3.9912  -3.9912  -3.9844  -3.9836  -3.9836  -3.9834  -3.9811  -3.9783
    -3.9783  -3.9774  -3.9774  -3.9762  -3.9755  -3.9755  -3.9676  -3.9676
    -3.9663  -3.9663  -3.9661  -3.9648  -3.9648  -3.9645  -3.9628  -3.9628
    -3.9623  -3.9590  -3.9590  -3.9587  -3.9582  -3.9582  -3.9580  -3.9560
    -3.9560  -3.9531  -3.9496  -3.9494  -3.9494  -3.9454  -3.9454  -3.9411
    -3.9411  -3.9385  -3.9385  -3.9366  -3.9366  -3.9348  -3.9304  -3.9304
    -3.9289  -3.9257  -3.9246  -3.9234  -3.9234  -3.9222  -3.9214  -3.9214
    -3.9195  -3.9188  -3.9188  -3.9165  -3.9165  -3.9108  -3.9107  -3.9107
    -3.9069  -3.9069  -3.9038  -3.9038  -3.9017  -3.9016  -3.8970  -3.8970
    -3.8951  -3.8951  -3.8857  -3.8857  -3.8836  -3.8821  -3.8821  -3.8781
    -3.8776  -3.8776  -3.8730  -3.8730  -3.8724  -3.8678  -3.8678  -3.8644
    -3.8644  -3.8622  -3.8525  -3.8437  -3.8299  -3.8299  -3.8027  -3.7809
    -3.7707  -3.7707  -3.7445  -3.7445  -3.7087  -3.7087  -3.7052  -3.6760
    -3.5711  -3.5711  -3.4856  -3.4717  -3.4680  -3.4680  -3.4572  -3.4572
    -3.4548  -3.4456  -3.4456  -3.4151  -3.4151  -3.3406  -3.0340  -3.0246
    -3.0246  -3.0238  -3.0077  -3.0077  -2.9977  -2.9977  -2.9833  -2.9729
    -2.9729  -2.9071  -2.8834  -2.7704  -2.2832  -2.2629  -2.2629  -2.2626
    -2.2569  -2.2569  -2.2518  -2.2518  -2.2425  -2.2425  -2.2416  -2.2348
    -2.2054  -2.2050  -2.2029  -2.2029  -2.1945  -2.1936  -2.1839  -2.1812
    -2.1812  -2.1518  -2.1518  -0.0001   2.8634   2.8725   3.2242   3.2316
     3.2322   3.2322   3.3750   3.3860   3.3860   3.3860   3.3912   3.3912
     3.4012   3.4012   3.4295   3.4373   3.4373   3.5087   3.7451   3.7478
     3.7478   3.7495   3.7505   3.7696   3.7696   3.7775   3.8643   3.8691
     3.8691   3.8714   3.8814   3.8814   3.8889   3.8889   3.9740   3.9740
     3.9909   4.0608   4.2971   4.2971   4.3349   4.3349   4.7232   4.7232
     4.7273   4.7325   4.7325   4.7356   4.7423   4.7423   4.7743   4.8082
     4.8082   4.9469   5.2230   5.2230   5.2406   5.2406   5.3718   5.3718
     5.3777   5.3798   5.3798   5.3863   5.3907   5.3907   5.4056   5.4270
     5.4711   5.4711   5.5319   5.6257   6.4036   6.4036   6.4422   6.4422
     6.7668   6.7778   6.7830   6.7830   6.7870   6.7936   6.7936   6.8634
     7.0369   7.0431   7.0431   7.0538   7.0545   7.0545   7.0636   7.0637
     7.0637   7.0894   7.1745   7.1745   7.2099   7.2168   7.2168   7.2197
     7.2305   7.2305   7.2312   7.2312   7.2894   7.3125   7.3125   7.4269
     7.6764   7.6784   7.6784   7.6789   7.6840   7.6840   7.7029   7.7138
     7.7152   7.7152   7.8047   7.8047   7.8221   7.8775   7.8895   7.8895
     8.0985   8.1113   8.1113   8.1195   8.1244   8.1244   8.1386   8.1475
     8.1475   8.1529   8.1529   8.3258   8.3258   8.3260   8.3544   8.3544
     8.3905   8.3982   8.3982   8.4076   8.4086   8.4086   8.4186   8.4196
     8.4196   8.4287   8.4408   8.6285   8.6285   8.7574   8.7574   8.9718
     8.9718   9.0259   9.1935   9.1935   9.5462   9.5462  11.6918  11.7530
    13.3244  13.3268  13.3761  13.4175  13.6709  13.6790  13.6790  13.6862
    13.6867  13.6868  13.6906  13.6938  13.6938  13.7443  13.7444  13.8511
    14.0053  14.0062  14.0063  14.0141  14.0179  14.0210  14.0323  14.0368
    14.0433

     occupation numbers 
     1.0000   1.0000   1.0000   1.0000   1.0000   1.0000   1.0000   1.0000
     1.0000   1.0000   1.0000   1.0000   1.0000   1.0000   1.0000   1.0000
     1.0000   1.0000   1.0000   1.0000   1.0000   1.0000   1.0000   1.0000
     1.0000   1.0000   1.0000   1.0000   1.0000   1.0000   1.0000   1.0000
     1.0000   1.0000   1.0000   1.0000   1.0000   1.0000   1.0000   1.0000
     1.0000   1.0000   1.0000   1.0000   1.0000   1.0000   1.0000   1.0000
     1.0000   1.0000   1.0000   1.0000   1.0000   1.0000   1.0000   1.0000
     1.0000   1.0000   1.0000   1.0000   1.0000   1.0000   1.0000   1.0000
     1.0000   1.0000   1.0000   1.0000   1.0000   1.0000   1.0000   1.0000
     1.0000   1.0000   1.0000   1.0000   1.0000   1.0000   1.0000   1.0000
     1.0000   1.0000   1.0000   1.0000   1.0000   1.0000   1.0000   1.0000
     1.0000   1.0000   1.0000   1.0000   1.0000   1.0000   1.0000   1.0000
     1.0000   1.0000   1.0000   1.0000   1.0000   1.0000   1.0000   1.0000
     1.0000   1.0000   1.0000   1.0000   1.0000   1.0000   1.0000   1.0000
     1.0000   1.0000   1.0000   1.0000   1.0000   1.0000   1.0000   1.0000
     1.0000   1.0000   1.0000   1.0000   1.0000   1.0000   1.0000   1.0000
     1.0000   1.0000   1.0000   1.0000   1.0000   1.0000   1.0000   1.0000
     1.0000   1.0000   1.0000   1.0000   1.0000   1.0000   1.0000   1.0000
     1.0000   1.0000   1.0000   1.0000   1.0000   1.0000   1.0000   1.0000
     1.0000   1.0000   1.0000   1.0000   1.0000   1.0000   1.0000   1.0000
     1.0000   1.0000   1.0000   1.0000   1.0000   1.0000   1.0000   1.0000
     1.0000   1.0000   1.0000   1.0000   1.0000   1.0000   1.0000   1.0000
     1.0000   1.0000   1.0000   1.0000   1.0000   1.0000   1.0000   1.0000
     1.0000   1.0000   1.0000   1.0000   1.0000   1.0000   1.0000   1.0000
     1.0000   1.0000   1.0000   1.0000   1.0000   1.0000   1.0000   1.0000
     1.0000   1.0000   1.0000   1.0000   1.0000   1.0000   1.0000   1.0000
     1.0000   1.0000   1.0000   1.0000   1.0000   1.0000   1.0000   1.0000
     1.0000   1.0000   1.0000   1.0000   1.0000   1.0000   1.0000   1.0000
     1.0000   1.0000   1.0000   1.0000   1.0000   1.0000   1.0000   1.0000
     1.0000   1.0000   1.0000   1.0000   1.0000   1.0000   1.0000   1.0000
     1.0000   1.0000   1.0000   1.0000   1.0000   1.0000   1.0000   1.0000
     1.0000   1.0000   1.0000   1.0000   1.0000   1.0000   1.0000   1.0000
     1.0000   1.0000   1.0000   1.0000   1.0000   1.0000   1.0000   1.0000
     1.0000   1.0000   1.0000   1.0000   1.0000   1.0000   1.0000   1.0000
     1.0000   1.0000   1.0000   1.0000   1.0000   1.0000   1.0000   1.0000
     1.0000   1.0000   1.0000   1.0000   1.0000   1.0000   1.0000   1.0000
     1.0000   1.0000   1.0000   1.0000   1.0000   1.0000   1.0000   1.0000
     1.0000   1.0000   1.0000   1.0000   1.0000   1.0000   1.0000   1.0000
     1.0000   1.0000   1.0000   1.0000   1.0000   1.0000   1.0000   1.0000
     1.0000   1.0000   1.0000   1.0000   1.0000   1.0000   1.0000   1.0000
     1.0000   1.0000   1.0000   1.0000   1.0000   1.0000   1.0000   1.0000
     1.0000   1.0000   1.0000   1.0000   1.0000   1.0000   1.0000   1.0000
     1.0000   1.0000   1.0000   1.0000   1.0000   1.0000   1.0000   1.0000
     1.0000   1.0000   1.0000   1.0000   1.0000   1.0000   1.0000   1.0000
     1.0000   1.0000   1.0000   1.0000   1.0000   1.0000   1.0000   1.0000
     1.0000   1.0000   1.0000   1.0000   1.0000   1.0000   1.0000   1.0000
     1.0000   1.0000   1.0000   1.0000   1.0000   1.0000   1.0000   1.0000
     1.0000   1.0000   1.0000   1.0000   1.0000   1.0000   1.0000   1.0000
     1.0000   1.0000   1.0000   1.0000   1.0000   1.0000   1.0000   1.0000
     1.0000   1.0000   1.0000   1.0000   1.0000   1.0000   1.0000   1.0000
     1.0000   1.0000   1.0000   1.0000   1.0000   1.0000   1.0000   1.0000
     1.0000   1.0000   1.0000   1.0000   1.0000   1.0000   1.0000   1.0000
     1.0000   1.0000   1.0000   1.0000   1.0000   1.0000   1.0000   1.0000
     1.0000   1.0000   1.0000   1.0000   1.0000   1.0000   1.0000   1.0000
     1.0000   1.0000   1.0000   1.0000   1.0000   1.0000   1.0000   1.0000
     1.0000   1.0000   1.0000   1.0000   1.0000   1.0000   1.0000   1.0000
     1.0000   1.0000   1.0000   1.0000   1.0000   1.0000   1.0000   1.0000
     1.0000   1.0000   1.0000   1.0000   1.0000   1.0000   1.0000   1.0000
     1.0000   1.0000   1.0000   1.0000   1.0000   1.0000   1.0000   1.0000
     1.0000   1.0000   1.0000   1.0000   1.0000   1.0000   1.0000   1.0000
     1.0000   1.0000   1.0000   1.0000   0.0000   0.0000   0.0000   0.0000
     0.0000   0.0000   0.0000   0.0000   0.0000   0.0000   0.0000   0.0000
     0.0000   0.0000   0.0000   0.0000   0.0000   0.0000   0.0000   0.0000
     0.0000   0.0000   0.0000   0.0000   0.0000   0.0000   0.0000   0.0000
     0.0000

          k = 0.0000 0.3849 0.0000 ( 51300 PWs)   bands (ev):

    -6.3596  -6.1168  -6.1119  -6.0818  -5.9187  -5.9091  -5.9010  -5.8767
    -5.7684  -5.7672  -5.7661  -5.7645  -5.7443  -5.7392  -5.7203  -5.7153
    -5.6904  -5.6596  -5.6526  -5.6504  -5.6428  -5.6392  -5.6381  -5.6371
    -5.6285  -5.6264  -5.6140  -5.6087  -5.6041  -5.5993  -5.5948  -5.5910
    -5.5902  -5.5751  -5.5728  -5.5687  -5.5686  -5.5633  -5.5599  -5.5584
    -5.5509  -5.5499  -5.5464  -5.5446  -5.5418  -5.5402  -5.5357  -5.5332
    -5.5242  -5.5028  -5.5027  -5.4774  -5.4765  -4.2057  -4.2022  -4.1942
    -4.1885  -4.1840  -4.1839  -4.1808  -4.1766  -4.1747  -4.1691  -4.1690
    -4.1653  -4.1640  -4.1635  -4.1594  -4.1586  -4.1580  -4.1544  -4.1533
    -4.1510  -4.1501  -4.1483  -4.1475  -4.1447  -4.1441  -4.1423  -4.1422
    -4.1398  -4.1392  -4.1386  -4.1370  -4.1367  -4.1357  -4.1343  -4.1336
    -4.1329  -4.1312  -4.1307  -4.1293  -4.1274  -4.1268  -4.1244  -4.1233
    -4.1222  -4.1209  -4.1187  -4.1182  -4.1150  -4.1148  -4.1134  -4.1122
    -4.1120  -4.1100  -4.1080  -4.1054  -4.1048  -4.1026  -4.1023  -4.1005
    -4.0987  -4.0983  -4.0953  -4.0951  -4.0925  -4.0901  -4.0889  -4.0854
    -4.0842  -4.0833  -4.0815  -4.0796  -4.0789  -4.0746  -4.0723  -4.0714
    -4.0688  -4.0688  -4.0647  -4.0636  -4.0621  -4.0620  -4.0576  -4.0566
    -4.0506  -4.0459  -4.0447  -4.0425  -4.0415  -4.0411  -4.0375  -4.0329
    -4.0279  -4.0269  -4.0262  -4.0246  -4.0223  -4.0204  -4.0186  -4.0160
    -4.0149  -4.0137  -4.0109  -4.0109  -4.0096  -4.0092  -4.0073  -4.0054
    -4.0036  -4.0024  -4.0001  -4.0000  -3.9986  -3.9977  -3.9969  -3.9945
    -3.9935  -3.9924  -3.9910  -3.9906  -3.9896  -3.9888  -3.9872  -3.9861
    -3.9856  -3.9841  -3.9834  -3.9816  -3.9814  -3.9799  -3.9797  -3.9777
    -3.9754  -3.9749  -3.9742  -3.9723  -3.9713  -3.9703  -3.9680  -3.9656
    -3.9629  -3.9601  -3.9580  -3.9578  -3.9573  -3.9553  -3.9551  -3.9544
    -3.9515  -3.9514  -3.9504  -3.9502  -3.9474  -3.9460  -3.9447  -3.9404
    -3.9399  -3.9365  -3.9361  -3.9338  -3.9326  -3.9326  -3.9288  -3.9285
    -3.9272  -3.9251  -3.9213  -3.9211  -3.9201  -3.9193  -3.9168  -3.9154
    -3.9151  -3.9130  -3.9129  -3.9103  -3.9077  -3.9069  -3.9062  -3.9054
    -3.9044  -3.9034  -3.9012  -3.9004  -3.8994  -3.8994  -3.8978  -3.8958
    -3.8946  -3.8930  -3.8925  -3.8915  -3.8893  -3.8886  -3.8878  -3.8876
    -3.8834  -3.8830  -3.8815  -3.8783  -3.8741  -3.8736  -3.8721  -3.8712
    -3.8671  -3.8603  -3.8592  -3.8575  -3.8474  -3.8216  -3.8213  -3.7897
    -3.7874  -3.7706  -3.7524  -3.7432  -3.7277  -3.7145  -3.7134  -3.7048
    -3.6970  -3.6740  -3.6563  -3.6558  -3.5702  -3.5639  -3.4641  -3.4604
    -3.4485  -3.4351  -3.2910  -3.2743  -3.1127  -3.1045  -3.0107  -3.0003
    -2.9281  -2.9276  -2.9207  -2.9166  -2.8620  -2.7499  -2.7482  -2.7482
    -2.7446  -2.7407  -2.6873  -2.6076  -2.5914  -2.5375  -2.4859  -2.4852
    -2.4807  -2.4607  -2.3881  -2.3835  -2.3782  -2.3778  -2.3408  -2.3262
    -2.2669  -2.1846  -2.1778  -2.1773  -2.1695  -2.1473  -2.1168  -2.0678
    -2.0261  -2.0107  -1.9975   0.0117   2.5624   2.7766   2.7863   3.0225
     3.0334   3.1251   3.1305   3.1309   3.1425   3.1571   3.1801   3.1813
     3.1936   3.3441   3.3475   3.3795   3.3882   3.4070   3.4258   3.5005
     3.5078   3.5126   3.5329   3.5428   3.5613   3.8234   3.8283   3.8352
     3.8619   3.9053   3.9340   3.9466   3.9485   4.0848   4.0936   4.1424
     4.1585   4.1832   4.2067   4.2609   4.4267   4.4805   4.9494   4.9588
     4.9601   4.9886   5.0050   5.0328   5.0738   5.0740   5.1074   5.1216
     5.1591   5.2898   5.2964   5.3186   5.3305   5.7059   5.7203   5.7398
     5.7481   5.7744   5.7818   5.8845   6.2218   6.2306   6.2314   6.2347
     6.2718   6.2809   6.2880   6.3048   6.3113   6.3265   6.3567   6.3602
     6.3832   6.4168   6.4819   6.4922   6.5810   6.6010   6.6815   6.7411
     6.7622   6.7889   6.7967   6.7985   6.8214   6.8608   6.9184   6.9575
     7.0132   7.0309   7.0416   7.0439   7.0464   7.0664   7.0697   7.0944
     7.1153   7.1178   7.1202   7.1557   7.1597   7.2228   7.3121   7.3933
     7.4020   7.4085   7.4210   7.4930   7.5213   7.6069   7.6350   7.7785
     7.7856   7.7885   7.7996   7.8050   7.8104   7.8154   7.8231   7.8278
     7.8491   7.8530   7.8574   7.8599   7.8932   7.9104   7.9318   7.9932
     7.9946   7.9959   8.0087   8.0525   8.0714   8.0771   8.1427   8.1638
     8.1668   8.2013   8.2242   8.2849   8.2942   8.3066   8.3135   8.3510
     8.3521   8.4039   8.4820   8.4942   8.5220   8.6285   8.6360   8.8561
     8.8612   8.8977   9.0000   9.0608   9.3221   9.4564  11.9257  13.1201
    13.1535  13.1789  13.3229  13.3549  13.6776  13.7045  13.8852  13.8902
    13.8914  13.9104  13.9715  13.9732  14.0294  14.0369  14.0441  14.0657
    14.0885  14.1270  14.1886  14.2275  14.2404  14.3811  14.6573  14.7453
    14.7607

     occupation numbers 
     1.0000   1.0000   1.0000   1.0000   1.0000   1.0000   1.0000   1.0000
     1.0000   1.0000   1.0000   1.0000   1.0000   1.0000   1.0000   1.0000
     1.0000   1.0000   1.0000   1.0000   1.0000   1.0000   1.0000   1.0000
     1.0000   1.0000   1.0000   1.0000   1.0000   1.0000   1.0000   1.0000
     1.0000   1.0000   1.0000   1.0000   1.0000   1.0000   1.0000   1.0000
     1.0000   1.0000   1.0000   1.0000   1.0000   1.0000   1.0000   1.0000
     1.0000   1.0000   1.0000   1.0000   1.0000   1.0000   1.0000   1.0000
     1.0000   1.0000   1.0000   1.0000   1.0000   1.0000   1.0000   1.0000
     1.0000   1.0000   1.0000   1.0000   1.0000   1.0000   1.0000   1.0000
     1.0000   1.0000   1.0000   1.0000   1.0000   1.0000   1.0000   1.0000
     1.0000   1.0000   1.0000   1.0000   1.0000   1.0000   1.0000   1.0000
     1.0000   1.0000   1.0000   1.0000   1.0000   1.0000   1.0000   1.0000
     1.0000   1.0000   1.0000   1.0000   1.0000   1.0000   1.0000   1.0000
     1.0000   1.0000   1.0000   1.0000   1.0000   1.0000   1.0000   1.0000
     1.0000   1.0000   1.0000   1.0000   1.0000   1.0000   1.0000   1.0000
     1.0000   1.0000   1.0000   1.0000   1.0000   1.0000   1.0000   1.0000
     1.0000   1.0000   1.0000   1.0000   1.0000   1.0000   1.0000   1.0000
     1.0000   1.0000   1.0000   1.0000   1.0000   1.0000   1.0000   1.0000
     1.0000   1.0000   1.0000   1.0000   1.0000   1.0000   1.0000   1.0000
     1.0000   1.0000   1.0000   1.0000   1.0000   1.0000   1.0000   1.0000
     1.0000   1.0000   1.0000   1.0000   1.0000   1.0000   1.0000   1.0000
     1.0000   1.0000   1.0000   1.0000   1.0000   1.0000   1.0000   1.0000
     1.0000   1.0000   1.0000   1.0000   1.0000   1.0000   1.0000   1.0000
     1.0000   1.0000   1.0000   1.0000   1.0000   1.0000   1.0000   1.0000
     1.0000   1.0000   1.0000   1.0000   1.0000   1.0000   1.0000   1.0000
     1.0000   1.0000   1.0000   1.0000   1.0000   1.0000   1.0000   1.0000
     1.0000   1.0000   1.0000   1.0000   1.0000   1.0000   1.0000   1.0000
     1.0000   1.0000   1.0000   1.0000   1.0000   1.0000   1.0000   1.0000
     1.0000   1.0000   1.0000   1.0000   1.0000   1.0000   1.0000   1.0000
     1.0000   1.0000   1.0000   1.0000   1.0000   1.0000   1.0000   1.0000
     1.0000   1.0000   1.0000   1.0000   1.0000   1.0000   1.0000   1.0000
     1.0000   1.0000   1.0000   1.0000   1.0000   1.0000   1.0000   1.0000
     1.0000   1.0000   1.0000   1.0000   1.0000   1.0000   1.0000   1.0000
     1.0000   1.0000   1.0000   1.0000   1.0000   1.0000   1.0000   1.0000
     1.0000   1.0000   1.0000   1.0000   1.0000   1.0000   1.0000   1.0000
     1.0000   1.0000   1.0000   1.0000   1.0000   1.0000   1.0000   1.0000
     1.0000   1.0000   1.0000   1.0000   1.0000   1.0000   1.0000   1.0000
     1.0000   1.0000   1.0000   1.0000   1.0000   1.0000   1.0000   1.0000
     1.0000   1.0000   1.0000   1.0000   1.0000   1.0000   1.0000   1.0000
     1.0000   1.0000   1.0000   1.0000   1.0000   1.0000   1.0000   1.0000
     1.0000   1.0000   1.0000   1.0000   1.0000   1.0000   1.0000   1.0000
     1.0000   1.0000   1.0000   1.0000   1.0000   1.0000   1.0000   1.0000
     1.0000   1.0000   1.0000   1.0000   1.0000   1.0000   1.0000   1.0000
     1.0000   1.0000   1.0000   1.0000   1.0000   1.0000   1.0000   1.0000
     1.0000   1.0000   1.0000   1.0000   1.0000   1.0000   1.0000   1.0000
     1.0000   1.0000   1.0000   1.0000   1.0000   1.0000   1.0000   1.0000
     1.0000   1.0000   1.0000   1.0000   1.0000   1.0000   1.0000   1.0000
     1.0000   1.0000   1.0000   1.0000   1.0000   1.0000   1.0000   1.0000
     1.0000   1.0000   1.0000   1.0000   1.0000   1.0000   1.0000   1.0000
     1.0000   1.0000   1.0000   1.0000   1.0000   1.0000   1.0000   1.0000
     1.0000   1.0000   1.0000   1.0000   1.0000   1.0000   1.0000   1.0000
     1.0000   1.0000   1.0000   1.0000   1.0000   1.0000   1.0000   1.0000
     1.0000   1.0000   1.0000   1.0000   1.0000   1.0000   1.0000   1.0000
     1.0000   1.0000   1.0000   1.0000   1.0000   1.0000   1.0000   1.0000
     1.0000   1.0000   1.0000   1.0000   1.0000   1.0000   1.0000   1.0000
     1.0000   1.0000   1.0000   1.0000   1.0000   1.0000   1.0000   1.0000
     1.0000   1.0000   1.0000   1.0000   1.0000   1.0000   1.0000   1.0000
     1.0000   1.0000   1.0000   1.0000   1.0000   1.0000   1.0000   1.0000
     1.0000   1.0000   1.0000   1.0000   1.0000   1.0000   1.0000   1.0000
     1.0000   1.0000   1.0000   1.0000   1.0000   1.0000   1.0000   1.0000
     1.0000   1.0000   1.0000   1.0000   0.9717   0.0566   0.0000   0.0000
     0.0000   0.0000   0.0000   0.0000   0.0000   0.0000   0.0000   0.0000
     0.0000   0.0000   0.0000   0.0000   0.0000   0.0000   0.0000   0.0000
     0.0000   0.0000   0.0000   0.0000   0.0000   0.0000   0.0000   0.0000
     0.0000

          k = 0.0000 0.3849-0.3067 ( 51248 PWs)   bands (ev):

    -6.2987  -6.2814  -6.0431  -6.0308  -5.9031  -5.9005  -5.8707  -5.8672
    -5.8638  -5.8403  -5.7512  -5.7503  -5.7048  -5.6996  -5.6970  -5.6932
    -5.6798  -5.6745  -5.6724  -5.6626  -5.6620  -5.6614  -5.6521  -5.6507
    -5.6139  -5.6137  -5.6118  -5.6084  -5.6050  -5.6023  -5.5857  -5.5812
    -5.5791  -5.5771  -5.5746  -5.5713  -5.5713  -5.5665  -5.5634  -5.5565
    -5.5525  -5.5474  -5.5432  -5.5425  -5.5406  -5.5400  -5.5375  -5.5356
    -5.5255  -5.5036  -5.5031  -5.4777  -5.4768  -4.2045  -4.1993  -4.1923
    -4.1913  -4.1803  -4.1780  -4.1775  -4.1757  -4.1718  -4.1686  -4.1671
    -4.1671  -4.1656  -4.1639  -4.1606  -4.1603  -4.1575  -4.1573  -4.1564
    -4.1541  -4.1514  -4.1501  -4.1477  -4.1463  -4.1456  -4.1437  -4.1435
    -4.1430  -4.1413  -4.1402  -4.1393  -4.1381  -4.1363  -4.1360  -4.1353
    -4.1335  -4.1334  -4.1313  -4.1310  -4.1288  -4.1272  -4.1266  -4.1252
    -4.1247  -4.1241  -4.1228  -4.1219  -4.1219  -4.1192  -4.1181  -4.1164
    -4.1151  -4.1105  -4.1096  -4.1064  -4.1040  -4.1037  -4.1020  -4.0971
    -4.0941  -4.0924  -4.0910  -4.0892  -4.0872  -4.0830  -4.0830  -4.0797
    -4.0787  -4.0782  -4.0768  -4.0717  -4.0717  -4.0707  -4.0697  -4.0673
    -4.0672  -4.0637  -4.0622  -4.0615  -4.0608  -4.0569  -4.0557  -4.0541
    -4.0528  -4.0523  -4.0491  -4.0487  -4.0466  -4.0443  -4.0420  -4.0402
    -4.0378  -4.0353  -4.0328  -4.0290  -4.0250  -4.0230  -4.0218  -4.0205
    -4.0169  -4.0141  -4.0126  -4.0090  -4.0067  -4.0061  -4.0052  -4.0038
    -4.0028  -4.0026  -4.0005  -3.9991  -3.9985  -3.9964  -3.9962  -3.9955
    -3.9934  -3.9918  -3.9911  -3.9908  -3.9889  -3.9868  -3.9856  -3.9846
    -3.9815  -3.9815  -3.9800  -3.9799  -3.9776  -3.9761  -3.9751  -3.9734
    -3.9730  -3.9710  -3.9708  -3.9698  -3.9675  -3.9655  -3.9649  -3.9637
    -3.9632  -3.9628  -3.9615  -3.9606  -3.9598  -3.9574  -3.9567  -3.9562
    -3.9544  -3.9530  -3.9519  -3.9510  -3.9492  -3.9482  -3.9433  -3.9427
    -3.9409  -3.9384  -3.9379  -3.9345  -3.9338  -3.9298  -3.9290  -3.9253
    -3.9234  -3.9233  -3.9231  -3.9204  -3.9192  -3.9164  -3.9155  -3.9151
    -3.9128  -3.9125  -3.9100  -3.9088  -3.9088  -3.9076  -3.9066  -3.9059
    -3.9034  -3.9032  -3.9018  -3.9009  -3.8994  -3.8977  -3.8974  -3.8962
    -3.8953  -3.8941  -3.8915  -3.8906  -3.8886  -3.8882  -3.8875  -3.8846
    -3.8845  -3.8824  -3.8808  -3.8781  -3.8744  -3.8735  -3.8714  -3.8678
    -3.8641  -3.8599  -3.8574  -3.8484  -3.8472  -3.8212  -3.8159  -3.7955
    -3.7709  -3.7700  -3.7492  -3.7425  -3.7283  -3.7146  -3.7141  -3.7048
    -3.6939  -3.6611  -3.6349  -3.6305  -3.5988  -3.5911  -3.5621  -3.5561
    -3.4390  -3.4271  -3.1679  -3.1661  -3.1650  -3.1524  -3.0760  -3.0759
    -3.0539  -3.0207  -2.8563  -2.8235  -2.7958  -2.7784  -2.6855  -2.6848
    -2.6828  -2.6657  -2.5871  -2.5837  -2.5785  -2.5678  -2.5589  -2.5468
    -2.5390  -2.4773  -2.3497  -2.3484  -2.3429  -2.3423  -2.3307  -2.3293
    -2.3214  -2.2353  -2.1822  -2.1741  -2.1261  -2.1234  -2.1162  -2.0742
    -2.0647  -2.0613  -2.0449   0.0068   2.8739   2.8922   2.9562   2.9666
     3.0077   3.0151   3.1830   3.1894   3.1917   3.2026   3.2056   3.2195
     3.2326   3.2416   3.3210   3.3223   3.3329   3.3368   3.3591   3.3687
     3.3836   3.4065   3.4248   3.4362   3.5302   3.5513   3.5562   3.6243
     3.9204   3.9365   3.9419   3.9562   3.9617   4.0059   4.2824   4.2864
     4.3029   4.3430   4.4034   4.4310   4.4419   4.5144   4.9852   5.0078
     5.0148   5.0259   5.0422   5.0608   5.2523   5.2546   5.2947   5.3095
     5.4093   5.4189   5.4263   5.4423   5.4579   5.4926   5.5372   5.5924
     5.6769   5.6853   5.7092   5.7503   5.7800   5.7889   5.7959   5.8336
     5.9021   5.9806   6.1515   6.1565   6.1625   6.2228   6.3721   6.3756
     6.3989   6.4217   6.5308   6.6071   6.7536   6.7828   6.8461   6.8490
     6.8544   6.8574   6.8659   6.8709   6.8956   6.9175   6.9305   6.9330
     6.9511   7.0410   7.1959   7.2093   7.2197   7.2206   7.3342   7.3463
     7.3705   7.3710   7.3728   7.3728   7.4150   7.4286   7.4406   7.4480
     7.4813   7.5187   7.5404   7.5455   7.5603   7.5626   7.5722   7.5743
     7.5811   7.5882   7.5942   7.6342   7.6456   7.6871   7.7289   7.7300
     7.7340   7.7393   7.7423   7.7923   7.8050   7.8189   7.8704   7.8828
     7.9066   7.9216   7.9973   8.0797   8.0913   8.1073   8.1416   8.1594
     8.1643   8.1712   8.1947   8.2074   8.2133   8.2309   8.3404   8.3830
     8.4023   8.4316   8.5100   8.5735   8.5760   8.6517   8.7398   8.7630
     8.7987   8.9116   9.0746   9.1148   9.2372   9.4483  12.3076  12.3801
    13.2155  13.2811  13.6275  13.6396  13.8034  13.8110  13.8564  13.8628
    13.8906  13.8979  13.9442  13.9816  14.0745  14.1096  14.2256  14.2270
    14.2324  14.2328  14.2396  14.2440  14.2511  14.3656  14.3759  14.3838
    14.4019

     occupation numbers 
     1.0000   1.0000   1.0000   1.0000   1.0000   1.0000   1.0000   1.0000
     1.0000   1.0000   1.0000   1.0000   1.0000   1.0000   1.0000   1.0000
     1.0000   1.0000   1.0000   1.0000   1.0000   1.0000   1.0000   1.0000
     1.0000   1.0000   1.0000   1.0000   1.0000   1.0000   1.0000   1.0000
     1.0000   1.0000   1.0000   1.0000   1.0000   1.0000   1.0000   1.0000
     1.0000   1.0000   1.0000   1.0000   1.0000   1.0000   1.0000   1.0000
     1.0000   1.0000   1.0000   1.0000   1.0000   1.0000   1.0000   1.0000
     1.0000   1.0000   1.0000   1.0000   1.0000   1.0000   1.0000   1.0000
     1.0000   1.0000   1.0000   1.0000   1.0000   1.0000   1.0000   1.0000
     1.0000   1.0000   1.0000   1.0000   1.0000   1.0000   1.0000   1.0000
     1.0000   1.0000   1.0000   1.0000   1.0000   1.0000   1.0000   1.0000
     1.0000   1.0000   1.0000   1.0000   1.0000   1.0000   1.0000   1.0000
     1.0000   1.0000   1.0000   1.0000   1.0000   1.0000   1.0000   1.0000
     1.0000   1.0000   1.0000   1.0000   1.0000   1.0000   1.0000   1.0000
     1.0000   1.0000   1.0000   1.0000   1.0000   1.0000   1.0000   1.0000
     1.0000   1.0000   1.0000   1.0000   1.0000   1.0000   1.0000   1.0000
     1.0000   1.0000   1.0000   1.0000   1.0000   1.0000   1.0000   1.0000
     1.0000   1.0000   1.0000   1.0000   1.0000   1.0000   1.0000   1.0000
     1.0000   1.0000   1.0000   1.0000   1.0000   1.0000   1.0000   1.0000
     1.0000   1.0000   1.0000   1.0000   1.0000   1.0000   1.0000   1.0000
     1.0000   1.0000   1.0000   1.0000   1.0000   1.0000   1.0000   1.0000
     1.0000   1.0000   1.0000   1.0000   1.0000   1.0000   1.0000   1.0000
     1.0000   1.0000   1.0000   1.0000   1.0000   1.0000   1.0000   1.0000
     1.0000   1.0000   1.0000   1.0000   1.0000   1.0000   1.0000   1.0000
     1.0000   1.0000   1.0000   1.0000   1.0000   1.0000   1.0000   1.0000
     1.0000   1.0000   1.0000   1.0000   1.0000   1.0000   1.0000   1.0000
     1.0000   1.0000   1.0000   1.0000   1.0000   1.0000   1.0000   1.0000
     1.0000   1.0000   1.0000   1.0000   1.0000   1.0000   1.0000   1.0000
     1.0000   1.0000   1.0000   1.0000   1.0000   1.0000   1.0000   1.0000
     1.0000   1.0000   1.0000   1.0000   1.0000   1.0000   1.0000   1.0000
     1.0000   1.0000   1.0000   1.0000   1.0000   1.0000   1.0000   1.0000
     1.0000   1.0000   1.0000   1.0000   1.0000   1.0000   1.0000   1.0000
     1.0000   1.0000   1.0000   1.0000   1.0000   1.0000   1.0000   1.0000
     1.0000   1.0000   1.0000   1.0000   1.0000   1.0000   1.0000   1.0000
     1.0000   1.0000   1.0000   1.0000   1.0000   1.0000   1.0000   1.0000
     1.0000   1.0000   1.0000   1.0000   1.0000   1.0000   1.0000   1.0000
     1.0000   1.0000   1.0000   1.0000   1.0000   1.0000   1.0000   1.0000
     1.0000   1.0000   1.0000   1.0000   1.0000   1.0000   1.0000   1.0000
     1.0000   1.0000   1.0000   1.0000   1.0000   1.0000   1.0000   1.0000
     1.0000   1.0000   1.0000   1.0000   1.0000   1.0000   1.0000   1.0000
     1.0000   1.0000   1.0000   1.0000   1.0000   1.0000   1.0000   1.0000
     1.0000   1.0000   1.0000   1.0000   1.0000   1.0000   1.0000   1.0000
     1.0000   1.0000   1.0000   1.0000   1.0000   1.0000   1.0000   1.0000
     1.0000   1.0000   1.0000   1.0000   1.0000   1.0000   1.0000   1.0000
     1.0000   1.0000   1.0000   1.0000   1.0000   1.0000   1.0000   1.0000
     1.0000   1.0000   1.0000   1.0000   1.0000   1.0000   1.0000   1.0000
     1.0000   1.0000   1.0000   1.0000   1.0000   1.0000   1.0000   1.0000
     1.0000   1.0000   1.0000   1.0000   1.0000   1.0000   1.0000   1.0000
     1.0000   1.0000   1.0000   1.0000   1.0000   1.0000   1.0000   1.0000
     1.0000   1.0000   1.0000   1.0000   1.0000   1.0000   1.0000   1.0000
     1.0000   1.0000   1.0000   1.0000   1.0000   1.0000   1.0000   1.0000
     1.0000   1.0000   1.0000   1.0000   1.0000   1.0000   1.0000   1.0000
     1.0000   1.0000   1.0000   1.0000   1.0000   1.0000   1.0000   1.0000
     1.0000   1.0000   1.0000   1.0000   1.0000   1.0000   1.0000   1.0000
     1.0000   1.0000   1.0000   1.0000   1.0000   1.0000   1.0000   1.0000
     1.0000   1.0000   1.0000   1.0000   1.0000   1.0000   1.0000   1.0000
     1.0000   1.0000   1.0000   1.0000   1.0000   1.0000   1.0000   1.0000
     1.0000   1.0000   1.0000   1.0000   1.0000   1.0000   1.0000   1.0000
     1.0000   1.0000   1.0000   1.0000   1.0000   1.0000   1.0000   1.0000
     1.0000   1.0000   1.0000   1.0000   1.0000   1.0000   1.0000   1.0000
     1.0000   1.0000   1.0000   1.0000   1.0000   0.0848   0.0000   0.0000
     0.0000   0.0000   0.0000   0.0000   0.0000   0.0000   0.0000   0.0000
     0.0000   0.0000   0.0000   0.0000   0.0000   0.0000   0.0000   0.0000
     0.0000   0.0000   0.0000   0.0000   0.0000   0.0000   0.0000   0.0000
     0.0000

          k = 0.3333 0.5774 0.0000 ( 51216 PWs)   bands (ev):

    -6.1869  -6.1853  -6.1390  -5.9774  -5.9736  -5.9707  -5.9704  -5.9399
    -5.9096  -5.7379  -5.7251  -5.7198  -5.6924  -5.6917  -5.6857  -5.6840
    -5.6665  -5.6654  -5.6625  -5.6579  -5.6570  -5.6495  -5.6471  -5.6433
    -5.6327  -5.6318  -5.6214  -5.6211  -5.6172  -5.6043  -5.5979  -5.5945
    -5.5936  -5.5935  -5.5831  -5.5666  -5.5626  -5.5556  -5.5535  -5.5529
    -5.5497  -5.5484  -5.5468  -5.5465  -5.5425  -5.5364  -5.5363  -5.5332
    -5.5219  -5.5032  -5.5015  -5.4777  -5.4756  -4.1998  -4.1882  -4.1880
    -4.1853  -4.1788  -4.1773  -4.1739  -4.1722  -4.1711  -4.1642  -4.1638
    -4.1635  -4.1605  -4.1590  -4.1577  -4.1559  -4.1558  -4.1537  -4.1536
    -4.1519  -4.1512  -4.1511  -4.1496  -4.1495  -4.1473  -4.1440  -4.1423
    -4.1412  -4.1376  -4.1367  -4.1348  -4.1338  -4.1332  -4.1301  -4.1299
    -4.1292  -4.1277  -4.1257  -4.1254  -4.1247  -4.1237  -4.1226  -4.1207
    -4.1195  -4.1168  -4.1165  -4.1160  -4.1152  -4.1141  -4.1105  -4.1093
    -4.1084  -4.1082  -4.1077  -4.1077  -4.1073  -4.1060  -4.1042  -4.1030
    -4.1018  -4.1008  -4.1005  -4.0994  -4.0982  -4.0969  -4.0958  -4.0949
    -4.0921  -4.0920  -4.0882  -4.0880  -4.0870  -4.0855  -4.0841  -4.0756
    -4.0729  -4.0709  -4.0692  -4.0631  -4.0620  -4.0615  -4.0542  -4.0520
    -4.0476  -4.0440  -4.0426  -4.0424  -4.0415  -4.0388  -4.0359  -4.0309
    -4.0298  -4.0295  -4.0254  -4.0239  -4.0233  -4.0230  -4.0217  -4.0206
    -4.0197  -4.0182  -4.0176  -4.0159  -4.0155  -4.0137  -4.0124  -4.0121
    -4.0098  -4.0085  -4.0067  -4.0061  -4.0032  -4.0030  -4.0008  -4.0000
    -3.9993  -3.9980  -3.9979  -3.9929  -3.9915  -3.9902  -3.9885  -3.9878
    -3.9847  -3.9845  -3.9835  -3.9807  -3.9797  -3.9794  -3.9775  -3.9770
    -3.9768  -3.9756  -3.9732  -3.9714  -3.9706  -3.9680  -3.9679  -3.9671
    -3.9666  -3.9665  -3.9649  -3.9646  -3.9638  -3.9617  -3.9572  -3.9563
    -3.9524  -3.9513  -3.9493  -3.9480  -3.9441  -3.9406  -3.9404  -3.9384
    -3.9370  -3.9364  -3.9342  -3.9336  -3.9327  -3.9320  -3.9291  -3.9259
    -3.9238  -3.9224  -3.9214  -3.9200  -3.9198  -3.9194  -3.9171  -3.9135
    -3.9117  -3.9103  -3.9086  -3.9076  -3.9063  -3.9049  -3.9036  -3.9036
    -3.9032  -3.9027  -3.9009  -3.9003  -3.8994  -3.8987  -3.8979  -3.8949
    -3.8947  -3.8945  -3.8924  -3.8923  -3.8918  -3.8914  -3.8867  -3.8857
    -3.8835  -3.8815  -3.8777  -3.8775  -3.8772  -3.8767  -3.8693  -3.8685
    -3.8659  -3.8621  -3.8608  -3.8455  -3.8304  -3.8259  -3.8205  -3.8162
    -3.8022  -3.7957  -3.7860  -3.7769  -3.7683  -3.7487  -3.7448  -3.7247
    -3.7180  -3.7061  -3.7045  -3.7001  -3.6620  -3.5651  -3.5624  -3.2045
    -3.1872  -3.1782  -3.1131  -3.1109  -3.1101  -3.1085  -3.0799  -3.0532
    -3.0020  -2.9992  -2.9974  -2.9942  -2.9653  -2.8983  -2.6570  -2.6442
    -2.6340  -2.5581  -2.5563  -2.5553  -2.5530  -2.5295  -2.4923  -2.4143
    -2.4090  -2.4066  -2.4003  -2.3931  -2.3889  -2.3875  -2.3759  -2.3353
    -2.2956  -2.2937  -2.2876  -2.2868  -2.2589  -2.1790  -2.1479  -2.1239
    -2.0253  -1.9869  -1.9611   0.0148   2.7642   2.7675   2.7747   2.7910
     2.7921   2.8109   2.8601   2.8602   2.9323   3.0746   3.0777   3.0795
     3.2973   3.3028   3.3087   3.3097   3.3243   3.3442   3.4756   3.4772
     3.4894   3.5099   3.5173   3.5316   3.6086   3.6425   3.6488   4.1000
     4.1001   4.1010   4.1011   4.1065   4.1132   4.1321   4.1359   4.1369
     4.1427   4.1442   4.1741   4.1876   4.2695   4.3526   4.6188   4.6413
     4.7040   5.0828   5.1100   5.1107   5.2406   5.2449   5.2941   5.9114
     5.9171   5.9208   6.0146   6.0183   6.0309   6.0315   6.0430   6.0630
     6.0964   6.0984   6.1041   6.1068   6.1172   6.1253   6.1342   6.1380
     6.1443   6.1474   6.1518   6.1910   6.2046   6.2483   6.2876   6.4177
     6.4246   6.4452   6.5184   6.5331   6.5373   6.5419   6.5688   6.5924
     6.9170   6.9213   6.9245   6.9251   6.9260   6.9329   6.9336   6.9387
     6.9498   6.9594   6.9606   6.9632   6.9695   6.9840   6.9899   6.9922
     7.0012   7.0201   7.0492   7.0611   7.0680   7.0841   7.1461   7.1472
     7.1975   7.2103   7.2136   7.2418   7.2747   7.3153   7.5749   7.5796
     7.6404   7.7533   7.7580   7.7616   7.7689   7.7729   7.7757   7.7797
     7.7943   7.7949   7.7999   7.8207   7.8212   7.8287   7.8291   7.8291
     7.8455   7.8467   7.8565   7.9283   7.9875   8.0264   8.0475   8.0514
     8.0531   8.0534   8.1779   8.1987   8.2967   8.3053   8.3116   8.3193
     8.4004   8.4489   8.4559   8.4750   8.4802   8.5691   8.6706   8.7168
     8.8215   8.8479   8.8481   9.0688   9.2136   9.2838  12.8508  12.8620
    12.9288  13.6646  13.6647  13.6763  13.6846  13.7197  13.7439  13.7559
    13.7662  13.7688  13.7797  13.7816  13.9649  14.6484  14.6535  14.6540
    14.6723  14.6737  14.7010  14.7598  14.7645  14.7669  14.7696  14.7921
    14.8190

     occupation numbers 
     1.0000   1.0000   1.0000   1.0000   1.0000   1.0000   1.0000   1.0000
     1.0000   1.0000   1.0000   1.0000   1.0000   1.0000   1.0000   1.0000
     1.0000   1.0000   1.0000   1.0000   1.0000   1.0000   1.0000   1.0000
     1.0000   1.0000   1.0000   1.0000   1.0000   1.0000   1.0000   1.0000
     1.0000   1.0000   1.0000   1.0000   1.0000   1.0000   1.0000   1.0000
     1.0000   1.0000   1.0000   1.0000   1.0000   1.0000   1.0000   1.0000
     1.0000   1.0000   1.0000   1.0000   1.0000   1.0000   1.0000   1.0000
     1.0000   1.0000   1.0000   1.0000   1.0000   1.0000   1.0000   1.0000
     1.0000   1.0000   1.0000   1.0000   1.0000   1.0000   1.0000   1.0000
     1.0000   1.0000   1.0000   1.0000   1.0000   1.0000   1.0000   1.0000
     1.0000   1.0000   1.0000   1.0000   1.0000   1.0000   1.0000   1.0000
     1.0000   1.0000   1.0000   1.0000   1.0000   1.0000   1.0000   1.0000
     1.0000   1.0000   1.0000   1.0000   1.0000   1.0000   1.0000   1.0000
     1.0000   1.0000   1.0000   1.0000   1.0000   1.0000   1.0000   1.0000
     1.0000   1.0000   1.0000   1.0000   1.0000   1.0000   1.0000   1.0000
     1.0000   1.0000   1.0000   1.0000   1.0000   1.0000   1.0000   1.0000
     1.0000   1.0000   1.0000   1.0000   1.0000   1.0000   1.0000   1.0000
     1.0000   1.0000   1.0000   1.0000   1.0000   1.0000   1.0000   1.0000
     1.0000   1.0000   1.0000   1.0000   1.0000   1.0000   1.0000   1.0000
     1.0000   1.0000   1.0000   1.0000   1.0000   1.0000   1.0000   1.0000
     1.0000   1.0000   1.0000   1.0000   1.0000   1.0000   1.0000   1.0000
     1.0000   1.0000   1.0000   1.0000   1.0000   1.0000   1.0000   1.0000
     1.0000   1.0000   1.0000   1.0000   1.0000   1.0000   1.0000   1.0000
     1.0000   1.0000   1.0000   1.0000   1.0000   1.0000   1.0000   1.0000
     1.0000   1.0000   1.0000   1.0000   1.0000   1.0000   1.0000   1.0000
     1.0000   1.0000   1.0000   1.0000   1.0000   1.0000   1.0000   1.0000
     1.0000   1.0000   1.0000   1.0000   1.0000   1.0000   1.0000   1.0000
     1.0000   1.0000   1.0000   1.0000   1.0000   1.0000   1.0000   1.0000
     1.0000   1.0000   1.0000   1.0000   1.0000   1.0000   1.0000   1.0000
     1.0000   1.0000   1.0000   1.0000   1.0000   1.0000   1.0000   1.0000
     1.0000   1.0000   1.0000   1.0000   1.0000   1.0000   1.0000   1.0000
     1.0000   1.0000   1.0000   1.0000   1.0000   1.0000   1.0000   1.0000
     1.0000   1.0000   1.0000   1.0000   1.0000   1.0000   1.0000   1.0000
     1.0000   1.0000   1.0000   1.0000   1.0000   1.0000   1.0000   1.0000
     1.0000   1.0000   1.0000   1.0000   1.0000   1.0000   1.0000   1.0000
     1.0000   1.0000   1.0000   1.0000   1.0000   1.0000   1.0000   1.0000
     1.0000   1.0000   1.0000   1.0000   1.0000   1.0000   1.0000   1.0000
     1.0000   1.0000   1.0000   1.0000   1.0000   1.0000   1.0000   1.0000
     1.0000   1.0000   1.0000   1.0000   1.0000   1.0000   1.0000   1.0000
     1.0000   1.0000   1.0000   1.0000   1.0000   1.0000   1.0000   1.0000
     1.0000   1.0000   1.0000   1.0000   1.0000   1.0000   1.0000   1.0000
     1.0000   1.0000   1.0000   1.0000   1.0000   1.0000   1.0000   1.0000
     1.0000   1.0000   1.0000   1.0000   1.0000   1.0000   1.0000   1.0000
     1.0000   1.0000   1.0000   1.0000   1.0000   1.0000   1.0000   1.0000
     1.0000   1.0000   1.0000   1.0000   1.0000   1.0000   1.0000   1.0000
     1.0000   1.0000   1.0000   1.0000   1.0000   1.0000   1.0000   1.0000
     1.0000   1.0000   1.0000   1.0000   1.0000   1.0000   1.0000   1.0000
     1.0000   1.0000   1.0000   1.0000   1.0000   1.0000   1.0000   1.0000
     1.0000   1.0000   1.0000   1.0000   1.0000   1.0000   1.0000   1.0000
     1.0000   1.0000   1.0000   1.0000   1.0000   1.0000   1.0000   1.0000
     1.0000   1.0000   1.0000   1.0000   1.0000   1.0000   1.0000   1.0000
     1.0000   1.0000   1.0000   1.0000   1.0000   1.0000   1.0000   1.0000
     1.0000   1.0000   1.0000   1.0000   1.0000   1.0000   1.0000   1.0000
     1.0000   1.0000   1.0000   1.0000   1.0000   1.0000   1.0000   1.0000
     1.0000   1.0000   1.0000   1.0000   1.0000   1.0000   1.0000   1.0000
     1.0000   1.0000   1.0000   1.0000   1.0000   1.0000   1.0000   1.0000
     1.0000   1.0000   1.0000   1.0000   1.0000   1.0000   1.0000   1.0000
     1.0000   1.0000   1.0000   1.0000   1.0000   1.0000   1.0000   1.0000
     1.0000   1.0000   1.0000   1.0000   1.0000   1.0000   1.0000   1.0000
     1.0000   1.0000   1.0000   1.0000   1.0000   1.0000   1.0000   1.0000
     1.0000   1.0000   1.0000   1.0000   1.0000   0.9981   0.0000   0.0000
     0.0000   0.0000   0.0000   0.0000   0.0000   0.0000   0.0000   0.0000
     0.0000   0.0000   0.0000   0.0000   0.0000   0.0000   0.0000   0.0000
     0.0000   0.0000   0.0000   0.0000   0.0000   0.0000   0.0000   0.0000
     0.0000

          k = 0.3333 0.5774-0.3067 ( 51264 PWs)   bands (ev):

    -6.1325  -6.1301  -6.1205  -6.1196  -6.1087  -6.0405  -5.8063  -5.8032
    -5.8028  -5.8015  -5.7706  -5.7671  -5.7161  -5.7058  -5.7033  -5.7021
    -5.6968  -5.6880  -5.6539  -5.6451  -5.6443  -5.6416  -5.6412  -5.6360
    -5.6278  -5.6277  -5.6226  -5.6188  -5.6119  -5.5972  -5.5900  -5.5892
    -5.5880  -5.5852  -5.5788  -5.5664  -5.5602  -5.5586  -5.5539  -5.5522
    -5.5511  -5.5501  -5.5470  -5.5466  -5.5400  -5.5385  -5.5378  -5.5376
    -5.5239  -5.5045  -5.5022  -5.4781  -5.4760  -4.1997  -4.1880  -4.1875
    -4.1840  -4.1756  -4.1755  -4.1731  -4.1718  -4.1668  -4.1648  -4.1624
    -4.1607  -4.1601  -4.1581  -4.1571  -4.1556  -4.1555  -4.1528  -4.1528
    -4.1526  -4.1518  -4.1507  -4.1487  -4.1475  -4.1475  -4.1475  -4.1457
    -4.1454  -4.1444  -4.1422  -4.1392  -4.1386  -4.1364  -4.1348  -4.1336
    -4.1330  -4.1315  -4.1294  -4.1265  -4.1255  -4.1233  -4.1228  -4.1224
    -4.1223  -4.1189  -4.1176  -4.1171  -4.1170  -4.1163  -4.1146  -4.1118
    -4.1111  -4.1103  -4.1096  -4.1089  -4.1073  -4.1061  -4.1044  -4.1031
    -4.1028  -4.1016  -4.1007  -4.0974  -4.0960  -4.0953  -4.0911  -4.0908
    -4.0903  -4.0873  -4.0812  -4.0762  -4.0717  -4.0700  -4.0695  -4.0668
    -4.0617  -4.0586  -4.0581  -4.0576  -4.0568  -4.0537  -4.0532  -4.0505
    -4.0503  -4.0492  -4.0472  -4.0468  -4.0449  -4.0407  -4.0398  -4.0397
    -4.0376  -4.0372  -4.0353  -4.0342  -4.0303  -4.0299  -4.0261  -4.0256
    -4.0256  -4.0236  -4.0235  -4.0177  -4.0153  -4.0143  -4.0119  -4.0089
    -4.0082  -4.0078  -4.0071  -4.0059  -4.0012  -4.0004  -3.9987  -3.9977
    -3.9965  -3.9958  -3.9927  -3.9918  -3.9908  -3.9871  -3.9854  -3.9842
    -3.9830  -3.9824  -3.9821  -3.9814  -3.9784  -3.9776  -3.9774  -3.9765
    -3.9764  -3.9755  -3.9749  -3.9736  -3.9732  -3.9684  -3.9684  -3.9680
    -3.9680  -3.9655  -3.9607  -3.9605  -3.9592  -3.9570  -3.9555  -3.9522
    -3.9513  -3.9508  -3.9484  -3.9478  -3.9431  -3.9413  -3.9403  -3.9396
    -3.9384  -3.9374  -3.9352  -3.9346  -3.9340  -3.9329  -3.9325  -3.9308
    -3.9303  -3.9281  -3.9276  -3.9240  -3.9215  -3.9210  -3.9200  -3.9193
    -3.9161  -3.9125  -3.9115  -3.9103  -3.9073  -3.9062  -3.9061  -3.9050
    -3.9029  -3.9008  -3.8999  -3.8992  -3.8985  -3.8976  -3.8964  -3.8961
    -3.8950  -3.8944  -3.8929  -3.8924  -3.8924  -3.8895  -3.8894  -3.8858
    -3.8837  -3.8819  -3.8806  -3.8803  -3.8796  -3.8777  -3.8722  -3.8714
    -3.8658  -3.8635  -3.8603  -3.8601  -3.8547  -3.8498  -3.8439  -3.8191
    -3.8146  -3.7867  -3.7632  -3.7578  -3.7442  -3.7308  -3.7160  -3.7082
    -3.7070  -3.6947  -3.5900  -3.5819  -3.5375  -3.5287  -3.5181  -3.5175
    -3.4985  -3.4799  -3.1590  -3.1534  -3.1508  -3.1507  -3.1223  -3.0809
    -2.7412  -2.7405  -2.7401  -2.7400  -2.7028  -2.6931  -2.6492  -2.6388
    -2.6348  -2.6314  -2.6311  -2.6258  -2.6255  -2.6111  -2.6108  -2.6001
    -2.5986  -2.5119  -2.4390  -2.4384  -2.4344  -2.4313  -2.3917  -2.3063
    -2.1941  -2.1859  -2.1850  -2.1775  -2.1535  -2.1447  -2.1118  -2.1048
    -2.1024  -2.0954  -2.0685   0.0098   2.8844   2.8896   2.9024   2.9035
     2.9048   2.9069   2.9149   2.9174   2.9231   2.9516   2.9545   2.9922
     3.2356   3.2363   3.2458   3.2458   3.2860   3.3378   3.4945   3.4963
     3.5029   3.5098   3.5384   3.5614   3.7024   3.7039   3.7064   3.7441
     3.7532   3.7581   3.8241   3.8254   3.8429   3.8760   3.8883   3.8932
     4.4729   4.4739   4.4789   4.5112   4.5200   4.5867   5.1766   5.1785
     5.1845   5.1896   5.2394   5.3671   5.5522   5.5527   5.5564   5.5605
     5.5622   5.5623   5.5731   5.5846   5.5874   5.6062   5.6439   5.7374
     5.8687   5.8709   5.8748   5.8903   5.9108   5.9267   6.3356   6.3382
     6.3391   6.3529   6.3620   6.3630   6.4151   6.4157   6.4297   6.4327
     6.4521   6.4654   6.5283   6.5306   6.5312   6.5544   6.5627   6.6278
     6.6704   6.6707   6.6862   6.6953   6.6989   6.7081   6.7268   6.7302
     6.7448   6.8081   6.8696   6.9371   7.3309   7.3400   7.3444   7.3511
     7.3596   7.3913   7.3953   7.3958   7.4021   7.4045   7.4119   7.4767
     7.5348   7.5381   7.5437   7.5459   7.5467   7.5499   7.5503   7.5578
     7.5715   7.5765   7.6061   7.6139   7.6422   7.6430   7.6507   7.6553
     7.6853   7.6885   7.6922   7.6969   7.6987   7.7024   7.7055   7.7120
     7.7158   7.7258   7.7401   7.8123   7.8779   7.9343   7.9482   7.9559
     7.9721   7.9802   8.0071   8.1289   8.1347   8.1574   8.1615   8.2973
     8.3629   8.3936   8.7122   8.7255   8.7307   8.7333   8.7339   8.7352
     8.7382   8.7447   8.7547   9.0980   9.2042   9.2565  13.0535  13.0538
    13.0839  13.0848  13.0943  13.2437  14.0410  14.0427  14.0511  14.0582
    14.0682  14.0922  14.2155  14.2202  14.2275  14.2414  14.2524  14.2749
    14.4361  14.4365  14.4487  14.4581  14.5271  14.5741  14.8620  14.8710
    14.8831

     occupation numbers 
     1.0000   1.0000   1.0000   1.0000   1.0000   1.0000   1.0000   1.0000
     1.0000   1.0000   1.0000   1.0000   1.0000   1.0000   1.0000   1.0000
     1.0000   1.0000   1.0000   1.0000   1.0000   1.0000   1.0000   1.0000
     1.0000   1.0000   1.0000   1.0000   1.0000   1.0000   1.0000   1.0000
     1.0000   1.0000   1.0000   1.0000   1.0000   1.0000   1.0000   1.0000
     1.0000   1.0000   1.0000   1.0000   1.0000   1.0000   1.0000   1.0000
     1.0000   1.0000   1.0000   1.0000   1.0000   1.0000   1.0000   1.0000
     1.0000   1.0000   1.0000   1.0000   1.0000   1.0000   1.0000   1.0000
     1.0000   1.0000   1.0000   1.0000   1.0000   1.0000   1.0000   1.0000
     1.0000   1.0000   1.0000   1.0000   1.0000   1.0000   1.0000   1.0000
     1.0000   1.0000   1.0000   1.0000   1.0000   1.0000   1.0000   1.0000
     1.0000   1.0000   1.0000   1.0000   1.0000   1.0000   1.0000   1.0000
     1.0000   1.0000   1.0000   1.0000   1.0000   1.0000   1.0000   1.0000
     1.0000   1.0000   1.0000   1.0000   1.0000   1.0000   1.0000   1.0000
     1.0000   1.0000   1.0000   1.0000   1.0000   1.0000   1.0000   1.0000
     1.0000   1.0000   1.0000   1.0000   1.0000   1.0000   1.0000   1.0000
     1.0000   1.0000   1.0000   1.0000   1.0000   1.0000   1.0000   1.0000
     1.0000   1.0000   1.0000   1.0000   1.0000   1.0000   1.0000   1.0000
     1.0000   1.0000   1.0000   1.0000   1.0000   1.0000   1.0000   1.0000
     1.0000   1.0000   1.0000   1.0000   1.0000   1.0000   1.0000   1.0000
     1.0000   1.0000   1.0000   1.0000   1.0000   1.0000   1.0000   1.0000
     1.0000   1.0000   1.0000   1.0000   1.0000   1.0000   1.0000   1.0000
     1.0000   1.0000   1.0000   1.0000   1.0000   1.0000   1.0000   1.0000
     1.0000   1.0000   1.0000   1.0000   1.0000   1.0000   1.0000   1.0000
     1.0000   1.0000   1.0000   1.0000   1.0000   1.0000   1.0000   1.0000
     1.0000   1.0000   1.0000   1.0000   1.0000   1.0000   1.0000   1.0000
     1.0000   1.0000   1.0000   1.0000   1.0000   1.0000   1.0000   1.0000
     1.0000   1.0000   1.0000   1.0000   1.0000   1.0000   1.0000   1.0000
     1.0000   1.0000   1.0000   1.0000   1.0000   1.0000   1.0000   1.0000
     1.0000   1.0000   1.0000   1.0000   1.0000   1.0000   1.0000   1.0000
     1.0000   1.0000   1.0000   1.0000   1.0000   1.0000   1.0000   1.0000
     1.0000   1.0000   1.0000   1.0000   1.0000   1.0000   1.0000   1.0000
     1.0000   1.0000   1.0000   1.0000   1.0000   1.0000   1.0000   1.0000
     1.0000   1.0000   1.0000   1.0000   1.0000   1.0000   1.0000   1.0000
     1.0000   1.0000   1.0000   1.0000   1.0000   1.0000   1.0000   1.0000
     1.0000   1.0000   1.0000   1.0000   1.0000   1.0000   1.0000   1.0000
     1.0000   1.0000   1.0000   1.0000   1.0000   1.0000   1.0000   1.0000
     1.0000   1.0000   1.0000   1.0000   1.0000   1.0000   1.0000   1.0000
     1.0000   1.0000   1.0000   1.0000   1.0000   1.0000   1.0000   1.0000
     1.0000   1.0000   1.0000   1.0000   1.0000   1.0000   1.0000   1.0000
     1.0000   1.0000   1.0000   1.0000   1.0000   1.0000   1.0000   1.0000
     1.0000   1.0000   1.0000   1.0000   1.0000   1.0000   1.0000   1.0000
     1.0000   1.0000   1.0000   1.0000   1.0000   1.0000   1.0000   1.0000
     1.0000   1.0000   1.0000   1.0000   1.0000   1.0000   1.0000   1.0000
     1.0000   1.0000   1.0000   1.0000   1.0000   1.0000   1.0000   1.0000
     1.0000   1.0000   1.0000   1.0000   1.0000   1.0000   1.0000   1.0000
     1.0000   1.0000   1.0000   1.0000   1.0000   1.0000   1.0000   1.0000
     1.0000   1.0000   1.0000   1.0000   1.0000   1.0000   1.0000   1.0000
     1.0000   1.0000   1.0000   1.0000   1.0000   1.0000   1.0000   1.0000
     1.0000   1.0000   1.0000   1.0000   1.0000   1.0000   1.0000   1.0000
     1.0000   1.0000   1.0000   1.0000   1.0000   1.0000   1.0000   1.0000
     1.0000   1.0000   1.0000   1.0000   1.0000   1.0000   1.0000   1.0000
     1.0000   1.0000   1.0000   1.0000   1.0000   1.0000   1.0000   1.0000
     1.0000   1.0000   1.0000   1.0000   1.0000   1.0000   1.0000   1.0000
     1.0000   1.0000   1.0000   1.0000   1.0000   1.0000   1.0000   1.0000
     1.0000   1.0000   1.0000   1.0000   1.0000   1.0000   1.0000   1.0000
     1.0000   1.0000   1.0000   1.0000   1.0000   1.0000   1.0000   1.0000
     1.0000   1.0000   1.0000   1.0000   1.0000   1.0000   1.0000   1.0000
     1.0000   1.0000   1.0000   1.0000   1.0000   1.0000   1.0000   1.0000
     1.0000   1.0000   1.0000   1.0000   1.0000   1.0000   1.0000   1.0000
     1.0000   1.0000   1.0000   1.0000   1.0000   0.9998   0.0000   0.0000
     0.0000   0.0000   0.0000   0.0000   0.0000   0.0000   0.0000   0.0000
     0.0000   0.0000   0.0000   0.0000   0.0000   0.0000   0.0000   0.0000
     0.0000   0.0000   0.0000   0.0000   0.0000   0.0000   0.0000   0.0000
     0.0000

     the Fermi energy is     9.3954 ev

!    total energy              =  -16525.38038152 Ry
     total all-electron energy =   -215840.872481 Ry
     estimated scf accuracy    <          4.5E-09 Ry
     smearing contrib. (-TS)   =      -0.00069319 Ry
     internal energy E=F+TS    =  -16525.37968833 Ry

     The total energy is F=E-TS. E is the sum of the following terms:
     one-electron contribution =   -4987.31326718 Ry
     hartree contribution      =    3540.15822400 Ry
     xc contribution           =   -2384.22669095 Ry
     ewald contribution        =   -6224.65797914 Ry
     one-center paw contrib.   =   -6469.33997505 Ry
      -> PAW hartree energy AE =     782.75108295 Ry
      -> PAW hartree energy PS =    -777.11906560 Ry
      -> PAW xc energy AE      =    -805.93438200 Ry
      -> PAW xc energy PS      =     210.95547490 Ry
      -> total E_H with PAW    =    3545.79024134 Ry
      -> total E_XC with PAW   =   -2979.20559806 Ry

     total magnetization       =     0.74 Bohr mag/cell
     absolute magnetization    =     0.87 Bohr mag/cell

     convergence has been achieved in  26 iterations

     Forces acting on atoms (cartesian axes, Ry/au):

     atom    1 type  1   force =     0.00000000    0.00000000    0.01703565
     atom    2 type  1   force =    -0.00581580    0.00335775    0.00561669
     atom    3 type  3   force =     0.00000000   -0.00000000   -0.01434080
     atom    4 type  2   force =     0.00917337   -0.00529625    0.00971368
     atom    5 type  1   force =    -0.00498108   -0.00107915   -0.00104509
     atom    6 type  1   force =     0.00000000    0.00009954    0.00159654
     atom    7 type  2   force =     0.01082114    0.00095702   -0.00069807
     atom    8 type  2   force =     0.00000000   -0.00086747   -0.00153749
     atom    9 type  1   force =     0.00498108   -0.00107915   -0.00104509
     atom   10 type  1   force =     0.00581580    0.00335775    0.00561669
     atom   11 type  2   force =    -0.01082114    0.00095702   -0.00069807
     atom   12 type  2   force =    -0.00917337   -0.00529625    0.00971368
     atom   13 type  1   force =     0.00342511   -0.00377417   -0.00104509
     atom   14 type  1   force =     0.00000000   -0.00671550    0.00561669
     atom   15 type  2   force =    -0.00623938    0.00889287   -0.00069807
     atom   16 type  2   force =     0.00000000    0.01059250    0.00971368
     atom   17 type  1   force =    -0.00342511   -0.00377417   -0.00104509
     atom   18 type  1   force =    -0.00231937   -0.00133909    0.00072560
     atom   19 type  2   force =     0.00623938    0.00889287   -0.00069807
     atom   20 type  2   force =     0.00096636    0.00055793   -0.00026706
     atom   21 type  1   force =     0.00000000    0.00000000   -0.00217491
     atom   22 type  1   force =     0.00231937   -0.00133909    0.00072560
     atom   23 type  2   force =     0.00000000   -0.00000000    0.00023865
     atom   24 type  2   force =    -0.00096636    0.00055793   -0.00026706
     atom   25 type  1   force =    -0.00155597    0.00485332   -0.00104509
     atom   26 type  1   force =    -0.00008620   -0.00004977    0.00159654
     atom   27 type  2   force =     0.00458176   -0.00984990   -0.00069807
     atom   28 type  2   force =     0.00075125    0.00043374   -0.00153749
     atom   29 type  1   force =     0.00000000    0.00000000   -0.00174460
     atom   30 type  1   force =     0.00008620   -0.00004977    0.00159654
     atom   31 type  2   force =     0.00000000   -0.00000000    0.00027928
     atom   32 type  2   force =    -0.00075125    0.00043374   -0.00153749
     atom   33 type  1   force =     0.00155597    0.00485332   -0.00104509
     atom   34 type  1   force =     0.00000000    0.00267817    0.00072560
     atom   35 type  2   force =    -0.00458176   -0.00984990   -0.00069807
     atom   36 type  2   force =    -0.00000000   -0.00111585   -0.00026706
     atom   37 type  1   force =     0.00000000    0.00000000   -0.00703453
     atom   38 type  1   force =    -0.00008548    0.00004935   -0.00087817
     atom   39 type  2   force =     0.00000000    0.00000000    0.00114101
     atom   40 type  2   force =     0.00012773   -0.00007375    0.00019626
     atom   41 type  1   force =    -0.00339409   -0.00100373    0.00016322
     atom   42 type  1   force =     0.00000000    0.00031865   -0.00006684
     atom   43 type  2   force =     0.00070575    0.00051175    0.00083378
     atom   44 type  2   force =     0.00000000   -0.00027590    0.00020074
     atom   45 type  1   force =     0.00339409   -0.00100373    0.00016322
     atom   46 type  1   force =     0.00008548    0.00004935   -0.00087817
     atom   47 type  2   force =    -0.00070575    0.00051175    0.00083378
     atom   48 type  2   force =    -0.00012773   -0.00007375    0.00019626
     atom   49 type  1   force =     0.00256630   -0.00243750    0.00016322
     atom   50 type  1   force =    -0.00000000   -0.00009870   -0.00087817
     atom   51 type  2   force =    -0.00079606    0.00035532    0.00083378
     atom   52 type  2   force =    -0.00000000    0.00014749    0.00019626
     atom   53 type  1   force =    -0.00256630   -0.00243750    0.00016322
     atom   54 type  1   force =    -0.00009098   -0.00005252   -0.00008460
     atom   55 type  2   force =     0.00079606    0.00035532    0.00083378
     atom   56 type  2   force =     0.00004974    0.00002872    0.00023709
     atom   57 type  1   force =     0.00000000    0.00000000    0.00009834
     atom   58 type  1   force =     0.00009098   -0.00005252   -0.00008460
     atom   59 type  2   force =     0.00000000   -0.00000000   -0.00007083
     atom   60 type  2   force =    -0.00004974    0.00002872    0.00023709
     atom   61 type  1   force =    -0.00082779    0.00344123    0.00016322
     atom   62 type  1   force =    -0.00027596   -0.00015932   -0.00006684
     atom   63 type  2   force =    -0.00009031   -0.00086707    0.00083378
     atom   64 type  2   force =     0.00023894    0.00013795    0.00020074
     atom   65 type  1   force =     0.00000000    0.00000000    0.00082578
     atom   66 type  1   force =     0.00027596   -0.00015932   -0.00006684
     atom   67 type  2   force =     0.00000000   -0.00000000   -0.00024147
     atom   68 type  2   force =    -0.00023894    0.00013795    0.00020074
     atom   69 type  1   force =     0.00082779    0.00344123    0.00016322
     atom   70 type  1   force =    -0.00000000    0.00010505   -0.00008460
     atom   71 type  2   force =     0.00009031   -0.00086707    0.00083378
     atom   72 type  2   force =     0.00000000   -0.00005744    0.00023709
     atom   73 type  1   force =     0.00000000   -0.00000000    0.00021245
     atom   74 type  1   force =     0.00073773   -0.00042593    0.00320554
     atom   75 type  2   force =     0.00000000   -0.00000000   -0.00117698
     atom   76 type  2   force =     0.00903610   -0.00521699   -0.01377783
     atom   77 type  1   force =     0.00005788    0.00021214   -0.00008812
     atom   78 type  1   force =     0.00000000    0.00028151   -0.00127496
     atom   79 type  2   force =     0.00087559    0.00053619   -0.00056789
     atom   80 type  2   force =     0.00000000   -0.00060221    0.00103176
     atom   81 type  1   force =    -0.00005788    0.00021214   -0.00008812
     atom   82 type  1   force =    -0.00073773   -0.00042593    0.00320554
     atom   83 type  2   force =    -0.00087559    0.00053619   -0.00056789
     atom   84 type  2   force =    -0.00903610   -0.00521699   -0.01377783
     atom   85 type  1   force =    -0.00021266   -0.00005594   -0.00008812
     atom   86 type  1   force =     0.00000000    0.00085185    0.00320554
     atom   87 type  2   force =    -0.00090214    0.00049019   -0.00056789
     atom   88 type  2   force =    -0.00000000    0.01043398   -0.01377783
     atom   89 type  1   force =     0.00021266   -0.00005594   -0.00008812
     atom   90 type  1   force =    -0.00031663   -0.00018281   -0.00093597
     atom   91 type  2   force =     0.00090214    0.00049019   -0.00056789
     atom   92 type  2   force =     0.00095234    0.00054983    0.00119345
     atom   93 type  1   force =     0.00000000   -0.00000000   -0.00034551
     atom   94 type  1   force =     0.00031663   -0.00018281   -0.00093597
     atom   95 type  2   force =     0.00000000    0.00000000    0.00068089
     atom   96 type  2   force =    -0.00095234    0.00054983    0.00119345
     atom   97 type  1   force =    -0.00015478   -0.00015620   -0.00008812
     atom   98 type  1   force =    -0.00024380   -0.00014076   -0.00127496
     atom   99 type  2   force =    -0.00002656   -0.00102637   -0.00056789
     atom  100 type  2   force =     0.00052153    0.00030110    0.00103176
     atom  101 type  1   force =     0.00000000    0.00000000   -0.00046028
     atom  102 type  1   force =     0.00024380   -0.00014076   -0.00127496
     atom  103 type  2   force =     0.00000000   -0.00000000    0.00080764
     atom  104 type  2   force =    -0.00052153    0.00030110    0.00103176
     atom  105 type  1   force =     0.00015478   -0.00015620   -0.00008812
     atom  106 type  1   force =     0.00000000    0.00036561   -0.00093597
     atom  107 type  2   force =     0.00002656   -0.00102637   -0.00056789
     atom  108 type  2   force =    -0.00000000   -0.00109967    0.00119345
     The non-local contrib.  to forces
     atom    1 type  1   force =     0.00000000    0.00000000   -0.37572368
     atom    2 type  1   force =     0.23648925   -0.13653713    0.05364932
     atom    3 type  3   force =     0.00000000    0.00000000    0.01637840
     atom    4 type  2   force =     0.02918070   -0.01684749    0.07215082
     atom    5 type  1   force =     0.02337268    0.00718346    0.01127964
     atom    6 type  1   force =     0.00000000   -0.01317025    0.00123076
     atom    7 type  2   force =     0.04933922    0.00695639    0.00976944
     atom    8 type  2   force =     0.00000000   -0.00211822    0.01040801
     atom    9 type  1   force =    -0.02337268    0.00718346    0.01127964
     atom   10 type  1   force =    -0.23648925   -0.13653713    0.05364932
     atom   11 type  2   force =    -0.04933922    0.00695639    0.00976944
     atom   12 type  2   force =    -0.02918070   -0.01684749    0.07215082
     atom   13 type  1   force =    -0.01790740    0.01664960    0.01127964
     atom   14 type  1   force =     0.00000000    0.27307427    0.05364932
     atom   15 type  2   force =    -0.03069402    0.03925082    0.00976944
     atom   16 type  2   force =     0.00000000    0.03369497    0.07215082
     atom   17 type  1   force =     0.01790740    0.01664960    0.01127964
     atom   18 type  1   force =     0.00622673    0.00359500   -0.00562292
     atom   19 type  2   force =     0.03069402    0.03925082    0.00976944
     atom   20 type  2   force =     0.00354210    0.00204503    0.01125282
     atom   21 type  1   force =     0.00000000   -0.00000000    0.01549269
     atom   22 type  1   force =    -0.00622673    0.00359500   -0.00562292
     atom   23 type  2   force =     0.00000000   -0.00000000    0.01491653
     atom   24 type  2   force =    -0.00354210    0.00204503    0.01125282
     atom   25 type  1   force =     0.00546528   -0.02383306    0.01127964
     atom   26 type  1   force =     0.01140577    0.00658512    0.00123076
     atom   27 type  2   force =     0.01864520   -0.04620721    0.00976944
     atom   28 type  2   force =     0.00183444    0.00105911    0.01040801
     atom   29 type  1   force =     0.00000000   -0.00000000    0.01093410
     atom   30 type  1   force =    -0.01140577    0.00658512    0.00123076
     atom   31 type  2   force =     0.00000000   -0.00000000    0.01582279
     atom   32 type  2   force =    -0.00183444    0.00105911    0.01040801
     atom   33 type  1   force =    -0.00546528   -0.02383306    0.01127964
     atom   34 type  1   force =     0.00000000   -0.00719001   -0.00562292
     atom   35 type  2   force =    -0.01864520   -0.04620721    0.00976944
     atom   36 type  2   force =     0.00000000   -0.00409006    0.01125282
     atom   37 type  1   force =     0.00000000    0.00000000    0.02240245
     atom   38 type  1   force =     0.00115558   -0.00066718    0.00454609
     atom   39 type  2   force =     0.00000000   -0.00000000    0.01989871
     atom   40 type  2   force =     0.00064949   -0.00037498    0.01347640
     atom   41 type  1   force =     0.02322255    0.01000291    0.00059333
     atom   42 type  1   force =     0.00000000   -0.00237126    0.00224805
     atom   43 type  2   force =     0.00293389    0.00198619    0.01754990
     atom   44 type  2   force =    -0.00000000   -0.00120579    0.01353933
     atom   45 type  1   force =    -0.02322255    0.01000291    0.00059333
     atom   46 type  1   force =    -0.00115558   -0.00066718    0.00454609
     atom   47 type  2   force =    -0.00293389    0.00198619    0.01754990
     atom   48 type  2   force =    -0.00064949   -0.00037498    0.01347640
     atom   49 type  1   force =    -0.02027405    0.01510987    0.00059333
     atom   50 type  1   force =     0.00000000    0.00133435    0.00454609
     atom   51 type  2   force =    -0.00318704    0.00154773    0.01754990
     atom   52 type  2   force =     0.00000000    0.00074997    0.01347640
     atom   53 type  1   force =     0.02027405    0.01510987    0.00059333
     atom   54 type  1   force =     0.00098134    0.00056658    0.00212173
     atom   55 type  2   force =     0.00318704    0.00154773    0.01754990
     atom   56 type  2   force =     0.00047946    0.00027682    0.01357723
     atom   57 type  1   force =     0.00000000   -0.00000000    0.00239838
     atom   58 type  1   force =    -0.00098134    0.00056658    0.00212173
     atom   59 type  2   force =     0.00000000    0.00000000    0.01218930
     atom   60 type  2   force =    -0.00047946    0.00027682    0.01357723
     atom   61 type  1   force =     0.00294850   -0.02511277    0.00059333
     atom   62 type  1   force =     0.00205357    0.00118563    0.00224805
     atom   63 type  2   force =    -0.00025315   -0.00353392    0.01754990
     atom   64 type  2   force =     0.00104424    0.00060289    0.01353933
     atom   65 type  1   force =     0.00000000    0.00000000   -0.00365361
     atom   66 type  1   force =    -0.00205357    0.00118563    0.00224805
     atom   67 type  2   force =     0.00000000    0.00000000    0.01154500
     atom   68 type  2   force =    -0.00104424    0.00060289    0.01353933
     atom   69 type  1   force =    -0.00294850   -0.02511277    0.00059333
     atom   70 type  1   force =     0.00000000   -0.00113315    0.00212173
     atom   71 type  2   force =     0.00025315   -0.00353392    0.01754990
     atom   72 type  2   force =     0.00000000   -0.00055363    0.01357723
     atom   73 type  1   force =     0.00000000   -0.00000000   -0.00104507
     atom   74 type  1   force =    -0.00595875    0.00344029   -0.02960327
     atom   75 type  2   force =     0.00000000   -0.00000000    0.00783425
     atom   76 type  2   force =     0.04550057   -0.02626976   -0.03632685
     atom   77 type  1   force =    -0.00033398   -0.00126491    0.00129971
     atom   78 type  1   force =     0.00000000   -0.00183544    0.01038980
     atom   79 type  2   force =     0.00505563    0.00330595    0.01013373
     atom   80 type  2   force =     0.00000000   -0.00316605    0.01653658
     atom   81 type  1   force =     0.00033398   -0.00126491    0.00129971
     atom   82 type  1   force =     0.00595875    0.00344029   -0.02960327
     atom   83 type  2   force =    -0.00505563    0.00330595    0.01013373
     atom   84 type  2   force =    -0.04550057   -0.02626976   -0.03632685
     atom   85 type  1   force =     0.00126243    0.00034322    0.00129971
     atom   86 type  1   force =    -0.00000000   -0.00688058   -0.02960327
     atom   87 type  2   force =    -0.00539085    0.00272533    0.01013373
     atom   88 type  2   force =     0.00000000    0.05253953   -0.03632685
     atom   89 type  1   force =    -0.00126243    0.00034322    0.00129971
     atom   90 type  1   force =     0.00105066    0.00060660    0.00781704
     atom   91 type  2   force =     0.00539085    0.00272533    0.01013373
     atom   92 type  2   force =     0.00418189    0.00241441    0.01656480
     atom   93 type  1   force =     0.00000000   -0.00000000    0.00420206
     atom   94 type  1   force =    -0.00105066    0.00060660    0.00781704
     atom   95 type  2   force =     0.00000000    0.00000000    0.01516078
     atom   96 type  2   force =    -0.00418189    0.00241441    0.01656480
     atom   97 type  1   force =     0.00092845    0.00092169    0.00129971
     atom   98 type  1   force =     0.00158954    0.00091772    0.01038980
     atom   99 type  2   force =    -0.00033523   -0.00603128    0.01013373
     atom  100 type  2   force =     0.00274188    0.00158302    0.01653658
     atom  101 type  1   force =     0.00000000   -0.00000000    0.00500501
     atom  102 type  1   force =    -0.00158954    0.00091772    0.01038980
     atom  103 type  2   force =     0.00000000    0.00000000    0.01542473
     atom  104 type  2   force =    -0.00274188    0.00158302    0.01653658
     atom  105 type  1   force =    -0.00092845    0.00092169    0.00129971
     atom  106 type  1   force =     0.00000000   -0.00121320    0.00781704
     atom  107 type  2   force =     0.00033523   -0.00603128    0.01013373
     atom  108 type  2   force =     0.00000000   -0.00482883    0.01656480
     The ionic contribution  to forces
     atom    1 type  1   force =     0.00000000   -0.00000020    2.04963769
     atom    2 type  1   force =    -1.46298672    0.84465575   -0.47540403
     atom    3 type  3   force =     0.00000000   -0.00000008   -0.12598438
     atom    4 type  2   force =    -0.11263123    0.06502765   -0.39371126
     atom    5 type  1   force =    -0.29585915   -0.00000020    0.47906860
     atom    6 type  1   force =     0.00000000    0.04452445    0.07450488
     atom    7 type  2   force =    -0.20803577   -0.00000010   -0.15748047
     atom    8 type  2   force =     0.00000000    0.00940947   -0.24594237
     atom    9 type  1   force =     0.29585915   -0.00000020    0.47906860
     atom   10 type  1   force =     1.46298672    0.84465575   -0.47540403
     atom   11 type  2   force =     0.20803577   -0.00000010   -0.15748047
     atom   12 type  2   force =     0.11263123    0.06502765   -0.39371126
     atom   13 type  1   force =     0.14792958   -0.25622174    0.47906859
     atom   14 type  1   force =    -0.00000000   -1.68931161   -0.47540400
     atom   15 type  2   force =     0.10401789   -0.18016436   -0.15748046
     atom   16 type  2   force =    -0.00000000   -0.13005533   -0.39371131
     atom   17 type  1   force =    -0.14792958   -0.25622174    0.47906859
     atom   18 type  1   force =    -0.28796156   -0.16625473    0.04478687
     atom   19 type  2   force =    -0.10401789   -0.18016436   -0.15748046
     atom   20 type  2   force =    -0.05057982   -0.02920226   -0.26306085
     atom   21 type  1   force =     0.00000000   -0.00000020    0.34204980
     atom   22 type  1   force =     0.28796156   -0.16625473    0.04478687
     atom   23 type  2   force =     0.00000000   -0.00000010   -0.15748046
     atom   24 type  2   force =     0.05057982   -0.02920226   -0.26306085
     atom   25 type  1   force =    -0.14792958    0.25622183    0.47906859
     atom   26 type  1   force =    -0.03855933   -0.02226207    0.07450497
     atom   27 type  2   force =    -0.10401788    0.18016437   -0.15748047
     atom   28 type  2   force =    -0.00814886   -0.00470464   -0.24594246
     atom   29 type  1   force =     0.00000000    0.00000029    0.34204980
     atom   30 type  1   force =     0.03855933   -0.02226207    0.07450497
     atom   31 type  2   force =     0.00000000    0.00000011   -0.15748047
     atom   32 type  2   force =     0.00814886   -0.00470464   -0.24594246
     atom   33 type  1   force =     0.14792958    0.25622183    0.47906859
     atom   34 type  1   force =     0.00000000    0.33250954    0.04478691
     atom   35 type  2   force =     0.10401788    0.18016437   -0.15748047
     atom   36 type  2   force =     0.00000000    0.05840465   -0.26306089
     atom   37 type  1   force =     0.00000000   -0.00000020   -0.55068265
     atom   38 type  1   force =    -0.02085400    0.01204004   -0.00625619
     atom   39 type  2   force =     0.00000000   -0.00000010   -0.25688313
     atom   40 type  2   force =    -0.00336171    0.00194086   -0.15748042
     atom   41 type  1   force =    -0.13235983   -0.00000020   -0.15099521
     atom   42 type  1   force =     0.00000000    0.00372700    0.02942063
     atom   43 type  2   force =    -0.01265757   -0.00000010   -0.22935684
     atom   44 type  2   force =     0.00000000    0.00067097   -0.15748042
     atom   45 type  1   force =     0.13235983   -0.00000020   -0.15099521
     atom   46 type  1   force =     0.02085400    0.01204004   -0.00625619
     atom   47 type  2   force =     0.01265757   -0.00000010   -0.22935684
     atom   48 type  2   force =     0.00336171    0.00194086   -0.15748042
     atom   49 type  1   force =     0.06617992   -0.11462717   -0.15099522
     atom   50 type  1   force =    -0.00000000   -0.02408017   -0.00625614
     atom   51 type  2   force =     0.00632878   -0.01096187   -0.22935683
     atom   52 type  2   force =     0.00000000   -0.00388175   -0.15748047
     atom   53 type  1   force =    -0.06617992   -0.11462717   -0.15099522
     atom   54 type  1   force =    -0.01556431   -0.00898610    0.02316790
     atom   55 type  2   force =    -0.00632878   -0.01096187   -0.22935683
     atom   56 type  2   force =    -0.00265993   -0.00153570   -0.15748047
     atom   57 type  1   force =     0.00000000   -0.00000020   -0.06090352
     atom   58 type  1   force =     0.01556431   -0.00898610    0.02316790
     atom   59 type  2   force =     0.00000000   -0.00000010   -0.21877207
     atom   60 type  2   force =     0.00265993   -0.00153570   -0.15748047
     atom   61 type  1   force =    -0.06617991    0.11462726   -0.15099521
     atom   62 type  1   force =    -0.00322771   -0.00186334    0.02942072
     atom   63 type  2   force =    -0.00632878    0.01096188   -0.22935684
     atom   64 type  2   force =    -0.00058109   -0.00033539   -0.15748051
     atom   65 type  1   force =     0.00000000    0.00000029   -0.06090351
     atom   66 type  1   force =     0.00322771   -0.00186334    0.02942072
     atom   67 type  2   force =     0.00000000    0.00000011   -0.21877208
     atom   68 type  2   force =     0.00058109   -0.00033539   -0.15748051
     atom   69 type  1   force =     0.06617991    0.11462726   -0.15099521
     atom   70 type  1   force =     0.00000000    0.01797229    0.02316794
     atom   71 type  2   force =     0.00632878    0.01096188   -0.22935684
     atom   72 type  2   force =     0.00000000    0.00307153   -0.15748051
     atom   73 type  1   force =     0.00000000   -0.00000020    0.21371832
     atom   74 type  1   force =    -0.05573622    0.03217929    0.45234148
     atom   75 type  2   force =     0.00000000   -0.00000010   -0.05807781
     atom   76 type  2   force =    -0.11263123    0.06502765    0.07875042
     atom   77 type  1   force =    -0.01024306   -0.00000020    0.20401723
     atom   78 type  1   force =     0.00000000    0.00833312    0.35506323
     atom   79 type  2   force =    -0.01265757   -0.00000010   -0.08560410
     atom   80 type  2   force =     0.00000000    0.00940947   -0.06901847
     atom   81 type  1   force =     0.01024306   -0.00000020    0.20401723
     atom   82 type  1   force =     0.05573622    0.03217929    0.45234148
     atom   83 type  2   force =     0.01265757   -0.00000010   -0.08560410
     atom   84 type  2   force =     0.11263123    0.06502765    0.07875042
     atom   85 type  1   force =     0.00512153   -0.00887094    0.20401722
     atom   86 type  1   force =    -0.00000000   -0.06435869    0.45234153
     atom   87 type  2   force =     0.00632878   -0.01096187   -0.08560409
     atom   88 type  2   force =     0.00000000   -0.13005533    0.07875037
     atom   89 type  1   force =    -0.00512153   -0.00887094    0.20401722
     atom   90 type  1   force =    -0.03744694   -0.02162004    0.37090012
     atom   91 type  2   force =    -0.00632878   -0.01096187   -0.08560409
     atom   92 type  2   force =    -0.05057982   -0.02920226   -0.05190008
     atom   93 type  1   force =     0.00000000   -0.00000020    0.19968204
     atom   94 type  1   force =     0.03744694   -0.02162004    0.37090012
     atom   95 type  2   force =     0.00000000   -0.00000010   -0.09618885
     atom   96 type  2   force =     0.05057982   -0.02920226   -0.05190008
     atom   97 type  1   force =    -0.00512153    0.00887104    0.20401722
     atom   98 type  1   force =    -0.00721672   -0.00416640    0.35506331
     atom   99 type  2   force =    -0.00632878    0.01096188   -0.08560410
     atom  100 type  2   force =    -0.00814886   -0.00470464   -0.06901856
     atom  101 type  1   force =     0.00000000    0.00000029    0.19968204
     atom  102 type  1   force =     0.00721672   -0.00416640    0.35506331
     atom  103 type  2   force =     0.00000000    0.00000011   -0.09618886
     atom  104 type  2   force =     0.00814886   -0.00470464   -0.06901856
     atom  105 type  1   force =     0.00512153    0.00887104    0.20401722
     atom  106 type  1   force =     0.00000000    0.04324017    0.37090016
     atom  107 type  2   force =     0.00632878    0.01096188   -0.08560410
     atom  108 type  2   force =     0.00000000    0.05840465   -0.05190012
     The local contribution  to forces
     atom    1 type  1   force =     0.00000000    0.00000000   -1.66535355
     atom    2 type  1   force =     1.22620072   -0.70794502    0.42930345
     atom    3 type  3   force =     0.00000000    0.00000000    0.09562007
     atom    4 type  2   force =     0.09314682   -0.05377816    0.33259183
     atom    5 type  1   force =     0.26756253   -0.00813803   -0.49154285
     atom    6 type  1   force =     0.00000000   -0.03155375   -0.07420722
     atom    7 type  2   force =     0.17041534   -0.00586962    0.14715927
     atom    8 type  2   force =    -0.00000000   -0.00819541    0.23416261
     atom    9 type  1   force =    -0.26756253   -0.00813803   -0.49154285
     atom   10 type  1   force =    -1.22620072   -0.70794502    0.42930345
     atom   11 type  2   force =    -0.17041534   -0.00586962    0.14715927
     atom   12 type  2   force =    -0.09314682   -0.05377816    0.33259183
     atom   13 type  1   force =    -0.12673352    0.23578496   -0.49154285
     atom   14 type  1   force =    -0.00000000    1.41589695    0.42930346
     atom   15 type  2   force =    -0.08012443    0.15051883    0.14715927
     atom   16 type  2   force =    -0.00000000    0.10755687    0.33259183
     atom   17 type  1   force =     0.12673352    0.23578496   -0.49154285
     atom   18 type  1   force =     0.27935772    0.16128955   -0.03862149
     atom   19 type  2   force =     0.08012443    0.15051883    0.14715927
     atom   20 type  2   force =     0.04806733    0.02775187    0.25171591
     atom   21 type  1   force =     0.00000000    0.00000000   -0.35985575
     atom   22 type  1   force =    -0.27935772    0.16128955   -0.03862149
     atom   23 type  2   force =    -0.00000000    0.00000000    0.14304455
     atom   24 type  2   force =    -0.04806733    0.02775187    0.25171591
     atom   25 type  1   force =     0.14082900   -0.22764348   -0.49154285
     atom   26 type  1   force =     0.02732834    0.01578033   -0.07420722
     atom   27 type  2   force =     0.09029091   -0.14464893    0.14715927
     atom   28 type  2   force =     0.00709759    0.00409798    0.23416261
     atom   29 type  1   force =     0.00000000    0.00000345   -0.35489054
     atom   30 type  1   force =    -0.02732834    0.01578033   -0.07420722
     atom   31 type  2   force =     0.00000000    0.00000028    0.14219537
     atom   32 type  2   force =    -0.00709759    0.00409798    0.23416261
     atom   33 type  1   force =    -0.14082900   -0.22764348   -0.49154285
     atom   34 type  1   force =    -0.00000000   -0.32257220   -0.03862149
     atom   35 type  2   force =    -0.09029091   -0.14464893    0.14715927
     atom   36 type  2   force =    -0.00000000   -0.05550319    0.25171591
     atom   37 type  1   force =     0.00000000    0.00000000    0.52077411
     atom   38 type  1   force =     0.01962692   -0.01132931    0.00058539
     atom   39 type  2   force =     0.00000000    0.00000000    0.23845705
     atom   40 type  2   force =     0.00285151   -0.00164614    0.14440161
     atom   41 type  1   force =     0.10595720   -0.01088443    0.15037537
     atom   42 type  1   force =    -0.00000000   -0.00105665   -0.03195169
     atom   43 type  2   force =     0.01048378   -0.00143779    0.21292784
     atom   44 type  2   force =    -0.00000000    0.00023646    0.14434464
     atom   45 type  1   force =    -0.10595720   -0.01088443    0.15037537
     atom   46 type  1   force =    -0.01962692   -0.01132931    0.00058539
     atom   47 type  2   force =    -0.01048378   -0.00143779    0.21292784
     atom   48 type  2   force =    -0.00285151   -0.00164614    0.14440161
     atom   49 type  1   force =    -0.04355240    0.09720385    0.15037537
     atom   50 type  1   force =    -0.00000000    0.02266551    0.00058539
     atom   51 type  2   force =    -0.00399673    0.00979812    0.21292784
     atom   52 type  2   force =    -0.00000000    0.00329282    0.14440161
     atom   53 type  1   force =     0.04355240    0.09720385    0.15037537
     atom   54 type  1   force =     0.01450884    0.00837898   -0.02559167
     atom   55 type  2   force =     0.00399673    0.00979812    0.21292784
     atom   56 type  2   force =     0.00223918    0.00129298    0.14434300
     atom   57 type  1   force =     0.00000000    0.00000000    0.05841872
     atom   58 type  1   force =    -0.01450884    0.00837898   -0.02559167
     atom   59 type  2   force =     0.00000000    0.00000000    0.20669596
     atom   60 type  2   force =    -0.00223918    0.00129298    0.14434300
     atom   61 type  1   force =     0.06240480   -0.08631595    0.15037537
     atom   62 type  1   force =     0.00091708    0.00053178   -0.03195169
     atom   63 type  2   force =     0.00648705   -0.00836005    0.21292784
     atom   64 type  2   force =    -0.00020462   -0.00011795    0.14434464
     atom   65 type  1   force =     0.00000000    0.00000345    0.06516648
     atom   66 type  1   force =    -0.00091708    0.00053178   -0.03195169
     atom   67 type  2   force =     0.00000000    0.00000028    0.20715939
     atom   68 type  2   force =     0.00020462   -0.00011795    0.14434464
     atom   69 type  1   force =    -0.06240480   -0.08631595    0.15037537
     atom   70 type  1   force =    -0.00000000   -0.01675106   -0.02559167
     atom   71 type  2   force =    -0.00648705   -0.00836005    0.21292784
     atom   72 type  2   force =    -0.00000000   -0.00258540    0.14434300
     atom   73 type  1   force =     0.00000000    0.00000000   -0.21275282
     atom   74 type  1   force =     0.06236353   -0.03600330   -0.42017222
     atom   75 type  2   force =     0.00000000    0.00000000    0.04917112
     atom   76 type  2   force =     0.07700605   -0.04445928   -0.05689545
     atom   77 type  1   force =     0.01063241    0.00146971   -0.20567155
     atom   78 type  1   force =    -0.00000000   -0.00624010   -0.36689896
     atom   79 type  2   force =     0.00857265   -0.00270773    0.07504430
     atom   80 type  2   force =    -0.00000000   -0.00690412    0.05377267
     atom   81 type  1   force =    -0.01063241    0.00146971   -0.20567155
     atom   82 type  1   force =    -0.06236353   -0.03600330   -0.42017222
     atom   83 type  2   force =    -0.00857265   -0.00270773    0.07504430
     atom   84 type  2   force =    -0.07700605   -0.04445928   -0.05689545
     atom   85 type  1   force =    -0.00658901    0.00847308   -0.20567155
     atom   86 type  1   force =    -0.00000000    0.07201350   -0.42017222
     atom   87 type  2   force =    -0.00194136    0.00877800    0.07504430
     atom   88 type  2   force =    -0.00000000    0.08891911   -0.05689545
     atom   89 type  1   force =     0.00658901    0.00847308   -0.20567155
     atom   90 type  1   force =     0.03607770    0.02083177   -0.37984261
     atom   91 type  2   force =     0.00194136    0.00877800    0.07504430
     atom   92 type  2   force =     0.04742504    0.02738104    0.03678777
     atom   93 type  1   force =     0.00000000    0.00000000   -0.20445644
     atom   94 type  1   force =    -0.03607770    0.02083177   -0.37984261
     atom   95 type  2   force =     0.00000000    0.00000000    0.08194314
     atom   96 type  2   force =    -0.04742504    0.02738104    0.03678777
     atom   97 type  1   force =     0.00404340   -0.00993934   -0.20567155
     atom   98 type  1   force =     0.00540608    0.00312350   -0.36689897
     atom   99 type  2   force =     0.00663129   -0.00606999    0.07504430
     atom  100 type  2   force =     0.00597930    0.00345234    0.05377267
     atom  101 type  1   force =     0.00000000    0.00000345   -0.20536250
     atom  102 type  1   force =    -0.00540608    0.00312350   -0.36689897
     atom  103 type  2   force =     0.00000000    0.00000028    0.08180961
     atom  104 type  2   force =    -0.00597930    0.00345234    0.05377267
     atom  105 type  1   force =    -0.00404340   -0.00993934   -0.20567155
     atom  106 type  1   force =    -0.00000000   -0.04165664   -0.37984261
     atom  107 type  2   force =    -0.00663129   -0.00606999    0.07504430
     atom  108 type  2   force =    -0.00000000   -0.05476153    0.03678777
     The core correction contribution to forces
     atom    1 type  1   force =    -0.00000000    0.00000000    0.00845096
     atom    2 type  1   force =    -0.00550949    0.00318107   -0.00190793
     atom    3 type  3   force =    -0.00000000   -0.00000000   -0.00035442
     atom    4 type  2   force =    -0.00052130    0.00030097   -0.00130946
     atom    5 type  1   force =    -0.00005424   -0.00012398    0.00013202
     atom    6 type  1   force =     0.00000000    0.00029636    0.00009033
     atom    7 type  2   force =    -0.00089520   -0.00012988   -0.00014254
     atom    8 type  2   force =     0.00000000    0.00003665   -0.00015795
     atom    9 type  1   force =     0.00005424   -0.00012398    0.00013202
     atom   10 type  1   force =     0.00550949    0.00318107   -0.00190793
     atom   11 type  2   force =     0.00089520   -0.00012988   -0.00014254
     atom   12 type  2   force =     0.00052130    0.00030097   -0.00130946
     atom   13 type  1   force =     0.00013448    0.00001502    0.00013202
     atom   14 type  1   force =     0.00000000   -0.00636164   -0.00190793
     atom   15 type  2   force =     0.00056008   -0.00071032   -0.00014254
     atom   16 type  2   force =     0.00000000   -0.00060194   -0.00130946
     atom   17 type  1   force =    -0.00013448    0.00001502    0.00013202
     atom   18 type  1   force =     0.00006651    0.00003857    0.00020530
     atom   19 type  2   force =    -0.00056008   -0.00071032   -0.00014254
     atom   20 type  2   force =    -0.00006074   -0.00003507   -0.00016715
     atom   21 type  1   force =    -0.00000000    0.00000000    0.00012514
     atom   22 type  1   force =    -0.00006651    0.00003857    0.00020530
     atom   23 type  2   force =    -0.00000000   -0.00000000   -0.00023780
     atom   24 type  2   force =     0.00006074   -0.00003507   -0.00016715
     atom   25 type  1   force =     0.00008025    0.00010921    0.00013202
     atom   26 type  1   force =    -0.00025651   -0.00014793    0.00009033
     atom   27 type  2   force =    -0.00033512    0.00084020   -0.00014254
     atom   28 type  2   force =    -0.00003174   -0.00001833   -0.00015795
     atom   29 type  1   force =    -0.00000000    0.00000026    0.00015003
     atom   30 type  1   force =     0.00025651   -0.00014793    0.00009033
     atom   31 type  2   force =    -0.00000000   -0.00000000   -0.00025440
     atom   32 type  2   force =     0.00003174   -0.00001833   -0.00015795
     atom   33 type  1   force =    -0.00008025    0.00010921    0.00013202
     atom   34 type  1   force =    -0.00000000   -0.00007663    0.00020530
     atom   35 type  2   force =     0.00033512    0.00084020   -0.00014254
     atom   36 type  2   force =     0.00000000    0.00007014   -0.00016715
     atom   37 type  1   force =    -0.00000000    0.00000000    0.00049569
     atom   38 type  1   force =    -0.00001708    0.00001003    0.00025222
     atom   39 type  2   force =    -0.00000000   -0.00000000   -0.00032867
     atom   40 type  2   force =    -0.00001210    0.00000698   -0.00020858
     atom   41 type  1   force =    -0.00020593   -0.00012086    0.00020627
     atom   42 type  1   force =     0.00000000    0.00002198    0.00021925
     atom   43 type  2   force =    -0.00005356   -0.00003626   -0.00028597
     atom   44 type  2   force =     0.00000000    0.00002217   -0.00020964
     atom   45 type  1   force =     0.00020593   -0.00012086    0.00020627
     atom   46 type  1   force =     0.00001708    0.00001003    0.00025222
     atom   47 type  2   force =     0.00005356   -0.00003626   -0.00028597
     atom   48 type  2   force =     0.00001210    0.00000698   -0.00020858
     atom   49 type  1   force =     0.00020764   -0.00011791    0.00020627
     atom   50 type  1   force =     0.00000000   -0.00001955    0.00025222
     atom   51 type  2   force =     0.00005818   -0.00002825   -0.00028597
     atom   52 type  2   force =     0.00000000   -0.00001397   -0.00020858
     atom   53 type  1   force =    -0.00020764   -0.00011791    0.00020627
     atom   54 type  1   force =    -0.00001520   -0.00000861    0.00022001
     atom   55 type  2   force =    -0.00005818   -0.00002825   -0.00028597
     atom   56 type  2   force =    -0.00000937   -0.00000541   -0.00021017
     atom   57 type  1   force =    -0.00000000    0.00000000    0.00019889
     atom   58 type  1   force =     0.00001520   -0.00000861    0.00022001
     atom   59 type  2   force =    -0.00000000   -0.00000000   -0.00018447
     atom   60 type  2   force =     0.00000937   -0.00000541   -0.00021017
     atom   61 type  1   force =     0.00000171    0.00023903    0.00020627
     atom   62 type  1   force =    -0.00001889   -0.00001073    0.00021925
     atom   63 type  2   force =     0.00000462    0.00006450   -0.00028597
     atom   64 type  2   force =    -0.00001920   -0.00001109   -0.00020964
     atom   65 type  1   force =    -0.00000000    0.00000026    0.00023095
     atom   66 type  1   force =     0.00001889   -0.00001073    0.00021925
     atom   67 type  2   force =    -0.00000000   -0.00000000   -0.00017324
     atom   68 type  2   force =     0.00001920   -0.00001109   -0.00020964
     atom   69 type  1   force =    -0.00000171    0.00023903    0.00020627
     atom   70 type  1   force =     0.00000000    0.00001772    0.00022001
     atom   71 type  2   force =    -0.00000462    0.00006450   -0.00028597
     atom   72 type  2   force =     0.00000000    0.00001082   -0.00021017
     atom   73 type  1   force =    -0.00000000    0.00000000    0.00027370
     atom   74 type  1   force =     0.00006885   -0.00003958    0.00063122
     atom   75 type  2   force =    -0.00000000   -0.00000000   -0.00010943
     atom   76 type  2   force =    -0.00083964    0.00048476    0.00068793
     atom   77 type  1   force =     0.00000330    0.00000695    0.00024869
     atom   78 type  1   force =     0.00000000    0.00002583    0.00016053
     atom   79 type  2   force =    -0.00009470   -0.00006233   -0.00014664
     atom   80 type  2   force =     0.00000000    0.00005841   -0.00026406
     atom   81 type  1   force =    -0.00000330    0.00000695    0.00024869
     atom   82 type  1   force =    -0.00006885   -0.00003958    0.00063122
     atom   83 type  2   force =     0.00009470   -0.00006233   -0.00014664
     atom   84 type  2   force =     0.00083964    0.00048476    0.00068793
     atom   85 type  1   force =    -0.00000767   -0.00000062    0.00024869
     atom   86 type  1   force =     0.00000000    0.00007968    0.00063122
     atom   87 type  2   force =     0.00010133   -0.00005085   -0.00014664
     atom   88 type  2   force =     0.00000000   -0.00096953    0.00068793
     atom   89 type  1   force =     0.00000767   -0.00000062    0.00024869
     atom   90 type  1   force =     0.00000295    0.00000187    0.00018098
     atom   91 type  2   force =    -0.00010133   -0.00005085   -0.00014664
     atom   92 type  2   force =    -0.00007340   -0.00004238   -0.00026391
     atom   93 type  1   force =    -0.00000000    0.00000000    0.00020874
     atom   94 type  1   force =    -0.00000295    0.00000187    0.00018098
     atom   95 type  2   force =    -0.00000000   -0.00000000   -0.00023828
     atom   96 type  2   force =     0.00007340   -0.00004238   -0.00026391
     atom   97 type  1   force =    -0.00000437   -0.00000608    0.00024869
     atom   98 type  1   force =    -0.00002222   -0.00001266    0.00016053
     atom   99 type  2   force =     0.00000663    0.00011317   -0.00014664
     atom  100 type  2   force =    -0.00005059   -0.00002921   -0.00026406
     atom  101 type  1   force =    -0.00000000    0.00000026    0.00019829
     atom  102 type  1   force =     0.00002222   -0.00001266    0.00016053
     atom  103 type  2   force =    -0.00000000   -0.00000000   -0.00024288
     atom  104 type  2   force =     0.00005059   -0.00002921   -0.00026406
     atom  105 type  1   force =     0.00000437   -0.00000608    0.00024869
     atom  106 type  1   force =     0.00000000   -0.00000323    0.00018098
     atom  107 type  2   force =    -0.00000663    0.00011317   -0.00014664
     atom  108 type  2   force =     0.00000000    0.00008476   -0.00026391
     The Hubbard contrib.    to forces
     atom    1 type  1   force =     0.00000000    0.00000000    0.00000000
     atom    2 type  1   force =     0.00000000    0.00000000    0.00000000
     atom    3 type  3   force =     0.00000000    0.00000000    0.00000000
     atom    4 type  2   force =     0.00000000    0.00000000    0.00000000
     atom    5 type  1   force =     0.00000000    0.00000000    0.00000000
     atom    6 type  1   force =     0.00000000    0.00000000    0.00000000
     atom    7 type  2   force =     0.00000000    0.00000000    0.00000000
     atom    8 type  2   force =     0.00000000    0.00000000    0.00000000
     atom    9 type  1   force =     0.00000000    0.00000000    0.00000000
     atom   10 type  1   force =     0.00000000    0.00000000    0.00000000
     atom   11 type  2   force =     0.00000000    0.00000000    0.00000000
     atom   12 type  2   force =     0.00000000    0.00000000    0.00000000
     atom   13 type  1   force =     0.00000000    0.00000000    0.00000000
     atom   14 type  1   force =     0.00000000    0.00000000    0.00000000
     atom   15 type  2   force =     0.00000000    0.00000000    0.00000000
     atom   16 type  2   force =     0.00000000    0.00000000    0.00000000
     atom   17 type  1   force =     0.00000000    0.00000000    0.00000000
     atom   18 type  1   force =     0.00000000    0.00000000    0.00000000
     atom   19 type  2   force =     0.00000000    0.00000000    0.00000000
     atom   20 type  2   force =     0.00000000    0.00000000    0.00000000
     atom   21 type  1   force =     0.00000000    0.00000000    0.00000000
     atom   22 type  1   force =     0.00000000    0.00000000    0.00000000
     atom   23 type  2   force =     0.00000000    0.00000000    0.00000000
     atom   24 type  2   force =     0.00000000    0.00000000    0.00000000
     atom   25 type  1   force =     0.00000000    0.00000000    0.00000000
     atom   26 type  1   force =     0.00000000    0.00000000    0.00000000
     atom   27 type  2   force =     0.00000000    0.00000000    0.00000000
     atom   28 type  2   force =     0.00000000    0.00000000    0.00000000
     atom   29 type  1   force =     0.00000000    0.00000000    0.00000000
     atom   30 type  1   force =     0.00000000    0.00000000    0.00000000
     atom   31 type  2   force =     0.00000000    0.00000000    0.00000000
     atom   32 type  2   force =     0.00000000    0.00000000    0.00000000
     atom   33 type  1   force =     0.00000000    0.00000000    0.00000000
     atom   34 type  1   force =     0.00000000    0.00000000    0.00000000
     atom   35 type  2   force =     0.00000000    0.00000000    0.00000000
     atom   36 type  2   force =     0.00000000    0.00000000    0.00000000
     atom   37 type  1   force =     0.00000000    0.00000000    0.00000000
     atom   38 type  1   force =     0.00000000    0.00000000    0.00000000
     atom   39 type  2   force =     0.00000000    0.00000000    0.00000000
     atom   40 type  2   force =     0.00000000    0.00000000    0.00000000
     atom   41 type  1   force =     0.00000000    0.00000000    0.00000000
     atom   42 type  1   force =     0.00000000    0.00000000    0.00000000
     atom   43 type  2   force =     0.00000000    0.00000000    0.00000000
     atom   44 type  2   force =     0.00000000    0.00000000    0.00000000
     atom   45 type  1   force =     0.00000000    0.00000000    0.00000000
     atom   46 type  1   force =     0.00000000    0.00000000    0.00000000
     atom   47 type  2   force =     0.00000000    0.00000000    0.00000000
     atom   48 type  2   force =     0.00000000    0.00000000    0.00000000
     atom   49 type  1   force =     0.00000000    0.00000000    0.00000000
     atom   50 type  1   force =     0.00000000    0.00000000    0.00000000
     atom   51 type  2   force =     0.00000000    0.00000000    0.00000000
     atom   52 type  2   force =     0.00000000    0.00000000    0.00000000
     atom   53 type  1   force =     0.00000000    0.00000000    0.00000000
     atom   54 type  1   force =     0.00000000    0.00000000    0.00000000
     atom   55 type  2   force =     0.00000000    0.00000000    0.00000000
     atom   56 type  2   force =     0.00000000    0.00000000    0.00000000
     atom   57 type  1   force =     0.00000000    0.00000000    0.00000000
     atom   58 type  1   force =     0.00000000    0.00000000    0.00000000
     atom   59 type  2   force =     0.00000000    0.00000000    0.00000000
     atom   60 type  2   force =     0.00000000    0.00000000    0.00000000
     atom   61 type  1   force =     0.00000000    0.00000000    0.00000000
     atom   62 type  1   force =     0.00000000    0.00000000    0.00000000
     atom   63 type  2   force =     0.00000000    0.00000000    0.00000000
     atom   64 type  2   force =     0.00000000    0.00000000    0.00000000
     atom   65 type  1   force =     0.00000000    0.00000000    0.00000000
     atom   66 type  1   force =     0.00000000    0.00000000    0.00000000
     atom   67 type  2   force =     0.00000000    0.00000000    0.00000000
     atom   68 type  2   force =     0.00000000    0.00000000    0.00000000
     atom   69 type  1   force =     0.00000000    0.00000000    0.00000000
     atom   70 type  1   force =     0.00000000    0.00000000    0.00000000
     atom   71 type  2   force =     0.00000000    0.00000000    0.00000000
     atom   72 type  2   force =     0.00000000    0.00000000    0.00000000
     atom   73 type  1   force =     0.00000000    0.00000000    0.00000000
     atom   74 type  1   force =     0.00000000    0.00000000    0.00000000
     atom   75 type  2   force =     0.00000000    0.00000000    0.00000000
     atom   76 type  2   force =     0.00000000    0.00000000    0.00000000
     atom   77 type  1   force =     0.00000000    0.00000000    0.00000000
     atom   78 type  1   force =     0.00000000    0.00000000    0.00000000
     atom   79 type  2   force =     0.00000000    0.00000000    0.00000000
     atom   80 type  2   force =     0.00000000    0.00000000    0.00000000
     atom   81 type  1   force =     0.00000000    0.00000000    0.00000000
     atom   82 type  1   force =     0.00000000    0.00000000    0.00000000
     atom   83 type  2   force =     0.00000000    0.00000000    0.00000000
     atom   84 type  2   force =     0.00000000    0.00000000    0.00000000
     atom   85 type  1   force =     0.00000000    0.00000000    0.00000000
     atom   86 type  1   force =     0.00000000    0.00000000    0.00000000
     atom   87 type  2   force =     0.00000000    0.00000000    0.00000000
     atom   88 type  2   force =     0.00000000    0.00000000    0.00000000
     atom   89 type  1   force =     0.00000000    0.00000000    0.00000000
     atom   90 type  1   force =     0.00000000    0.00000000    0.00000000
     atom   91 type  2   force =     0.00000000    0.00000000    0.00000000
     atom   92 type  2   force =     0.00000000    0.00000000    0.00000000
     atom   93 type  1   force =     0.00000000    0.00000000    0.00000000
     atom   94 type  1   force =     0.00000000    0.00000000    0.00000000
     atom   95 type  2   force =     0.00000000    0.00000000    0.00000000
     atom   96 type  2   force =     0.00000000    0.00000000    0.00000000
     atom   97 type  1   force =     0.00000000    0.00000000    0.00000000
     atom   98 type  1   force =     0.00000000    0.00000000    0.00000000
     atom   99 type  2   force =     0.00000000    0.00000000    0.00000000
     atom  100 type  2   force =     0.00000000    0.00000000    0.00000000
     atom  101 type  1   force =     0.00000000    0.00000000    0.00000000
     atom  102 type  1   force =     0.00000000    0.00000000    0.00000000
     atom  103 type  2   force =     0.00000000    0.00000000    0.00000000
     atom  104 type  2   force =     0.00000000    0.00000000    0.00000000
     atom  105 type  1   force =     0.00000000    0.00000000    0.00000000
     atom  106 type  1   force =     0.00000000    0.00000000    0.00000000
     atom  107 type  2   force =     0.00000000    0.00000000    0.00000000
     atom  108 type  2   force =     0.00000000    0.00000000    0.00000000
     The SCF correction term to forces
     atom    1 type  1   force =     0.00000000    0.00000000    0.00002350
     atom    2 type  1   force =    -0.00000956    0.00000552   -0.00002485
     atom    3 type  3   force =     0.00000000    0.00000000   -0.00000120
     atom    4 type  2   force =    -0.00000164    0.00000094   -0.00000896
     atom    5 type  1   force =    -0.00000169    0.00000010    0.00001679
     atom    6 type  1   force =     0.00000000    0.00000523   -0.00002300
     atom    7 type  2   force =    -0.00000232    0.00000021   -0.00000450
     atom    8 type  2   force =     0.00000000    0.00000024   -0.00000844
     atom    9 type  1   force =     0.00000169    0.00000010    0.00001679
     atom   10 type  1   force =     0.00000956    0.00000552   -0.00002485
     atom   11 type  2   force =     0.00000232    0.00000021   -0.00000450
     atom   12 type  2   force =     0.00000164    0.00000094   -0.00000896
     atom   13 type  1   force =     0.00000076   -0.00000151    0.00001679
     atom   14 type  1   force =     0.00000000   -0.00001104   -0.00002485
     atom   15 type  2   force =     0.00000097   -0.00000212   -0.00000450
     atom   16 type  2   force =    -0.00000000   -0.00000189   -0.00000896
     atom   17 type  1   force =    -0.00000076   -0.00000151    0.00001679
     atom   18 type  1   force =    -0.00000870   -0.00000502   -0.00002291
     atom   19 type  2   force =    -0.00000097   -0.00000212   -0.00000450
     atom   20 type  2   force =    -0.00000248   -0.00000143   -0.00000850
     atom   21 type  1   force =     0.00000000    0.00000000    0.00001248
     atom   22 type  1   force =     0.00000870   -0.00000502   -0.00002291
     atom   23 type  2   force =     0.00000000    0.00000000   -0.00000490
     atom   24 type  2   force =     0.00000248   -0.00000143   -0.00000850
     atom   25 type  1   force =    -0.00000093    0.00000141    0.00001679
     atom   26 type  1   force =    -0.00000453   -0.00000262   -0.00002300
     atom   27 type  2   force =    -0.00000134    0.00000190   -0.00000450
     atom   28 type  2   force =    -0.00000021   -0.00000012   -0.00000844
     atom   29 type  1   force =     0.00000000    0.00000000    0.00001128
     atom   30 type  1   force =     0.00000453   -0.00000262   -0.00002300
     atom   31 type  2   force =     0.00000000   -0.00000000   -0.00000474
     atom   32 type  2   force =     0.00000021   -0.00000012   -0.00000844
     atom   33 type  1   force =     0.00000093    0.00000141    0.00001679
     atom   34 type  1   force =     0.00000000    0.00001005   -0.00002291
     atom   35 type  2   force =     0.00000134    0.00000190   -0.00000450
     atom   36 type  2   force =    -0.00000000    0.00000287   -0.00000850
     atom   37 type  1   force =     0.00000000    0.00000000   -0.00002485
     atom   38 type  1   force =     0.00000311   -0.00000179   -0.00000642
     atom   39 type  2   force =     0.00000000    0.00000000   -0.00000368
     atom   40 type  2   force =     0.00000053   -0.00000031    0.00000654
     atom   41 type  1   force =    -0.00000687   -0.00000064   -0.00001726
     atom   42 type  1   force =     0.00000000    0.00000008   -0.00000386
     atom   43 type  2   force =    -0.00000066   -0.00000032   -0.00000188
     atom   44 type  2   force =    -0.00000000    0.00000049    0.00000616
     atom   45 type  1   force =     0.00000687   -0.00000064   -0.00001726
     atom   46 type  1   force =    -0.00000311   -0.00000179   -0.00000642
     atom   47 type  2   force =     0.00000066   -0.00000032   -0.00000188
     atom   48 type  2   force =    -0.00000053   -0.00000031    0.00000654
     atom   49 type  1   force =     0.00000399   -0.00000563   -0.00001726
     atom   50 type  1   force =     0.00000000    0.00000359   -0.00000642
     atom   51 type  2   force =     0.00000060   -0.00000041   -0.00000188
     atom   52 type  2   force =    -0.00000000    0.00000061    0.00000654
     atom   53 type  1   force =    -0.00000399   -0.00000563   -0.00001726
     atom   54 type  1   force =    -0.00000157   -0.00000091   -0.00000331
     atom   55 type  2   force =    -0.00000060   -0.00000041   -0.00000188
     atom   56 type  2   force =     0.00000043    0.00000025    0.00000678
     atom   57 type  1   force =     0.00000000    0.00000000   -0.00001486
     atom   58 type  1   force =     0.00000157   -0.00000091   -0.00000331
     atom   59 type  2   force =     0.00000000    0.00000000   -0.00000028
     atom   60 type  2   force =    -0.00000043    0.00000025    0.00000678
     atom   61 type  1   force =    -0.00000288    0.00000627   -0.00001726
     atom   62 type  1   force =    -0.00000007   -0.00000004   -0.00000386
     atom   63 type  2   force =    -0.00000005    0.00000073   -0.00000188
     atom   64 type  2   force =    -0.00000042   -0.00000024    0.00000616
     atom   65 type  1   force =     0.00000000    0.00000000   -0.00001525
     atom   66 type  1   force =     0.00000007   -0.00000004   -0.00000386
     atom   67 type  2   force =     0.00000000   -0.00000000   -0.00000126
     atom   68 type  2   force =     0.00000042   -0.00000024    0.00000616
     atom   69 type  1   force =     0.00000288    0.00000627   -0.00001726
     atom   70 type  1   force =     0.00000000    0.00000182   -0.00000331
     atom   71 type  2   force =     0.00000005    0.00000073   -0.00000188
     atom   72 type  2   force =    -0.00000000   -0.00000050    0.00000678
     atom   73 type  1   force =     0.00000000    0.00000000    0.00001759
     atom   74 type  1   force =     0.00000032   -0.00000019    0.00000758
     atom   75 type  2   force =     0.00000000    0.00000000    0.00000417
     atom   76 type  2   force =     0.00000033   -0.00000019    0.00000542
     atom   77 type  1   force =     0.00000042    0.00000108    0.00001707
     atom   78 type  1   force =    -0.00000000    0.00000062    0.00000966
     atom   79 type  2   force =    -0.00000028    0.00000037    0.00000410
     atom   80 type  2   force =    -0.00000000    0.00000028    0.00000437
     atom   81 type  1   force =    -0.00000042    0.00000108    0.00001707
     atom   82 type  1   force =    -0.00000032   -0.00000019    0.00000758
     atom   83 type  2   force =     0.00000028    0.00000037    0.00000410
     atom   84 type  2   force =    -0.00000033   -0.00000019    0.00000542
     atom   85 type  1   force =    -0.00000115   -0.00000018    0.00001707
     atom   86 type  1   force =     0.00000000    0.00000037    0.00000758
     atom   87 type  2   force =    -0.00000018   -0.00000043    0.00000410
     atom   88 type  2   force =    -0.00000000    0.00000038    0.00000542
     atom   89 type  1   force =     0.00000115   -0.00000018    0.00001707
     atom   90 type  1   force =    -0.00000094   -0.00000054    0.00000777
     atom   91 type  2   force =     0.00000018   -0.00000043    0.00000410
     atom   92 type  2   force =    -0.00000134   -0.00000077    0.00000416
     atom   93 type  1   force =     0.00000000    0.00000000    0.00001737
     atom   94 type  1   force =     0.00000094   -0.00000054    0.00000777
     atom   95 type  2   force =     0.00000000    0.00000000    0.00000338
     atom   96 type  2   force =     0.00000134   -0.00000077    0.00000416
     atom   97 type  1   force =    -0.00000073   -0.00000090    0.00001707
     atom   98 type  1   force =    -0.00000054   -0.00000031    0.00000966
     atom   99 type  2   force =    -0.00000047    0.00000006    0.00000410
     atom  100 type  2   force =    -0.00000024   -0.00000014    0.00000437
     atom  101 type  1   force =     0.00000000    0.00000000    0.00001615
     atom  102 type  1   force =     0.00000054   -0.00000031    0.00000966
     atom  103 type  2   force =     0.00000000   -0.00000000    0.00000431
     atom  104 type  2   force =     0.00000024   -0.00000014    0.00000437
     atom  105 type  1   force =     0.00000073   -0.00000090    0.00001707
     atom  106 type  1   force =    -0.00000000    0.00000108    0.00000777
     atom  107 type  2   force =     0.00000047    0.00000006    0.00000410
     atom  108 type  2   force =    -0.00000000    0.00000154    0.00000416

     Total force =     0.058058     Total SCF correction =     0.000129

     Writing all to output data dir ./tmp/GaN.save/ :
     XML data file, charge density, pseudopotentials, collected wavefunctions
 
     init_run     :     59.50s CPU     60.66s WALL (       1 calls)
     electrons    :   5580.75s CPU   5707.24s WALL (       1 calls)
     forces       :     32.86s CPU     33.76s WALL (       1 calls)

     Called by init_run:
     wfcinit      :     56.05s CPU     56.66s WALL (       1 calls)
     wfcinit:atom :      0.26s CPU      0.31s WALL (      12 calls)
     wfcinit:wfcr :     54.06s CPU     54.40s WALL (      12 calls)
     potinit      :      1.57s CPU      1.64s WALL (       1 calls)
     hinit0       :      0.55s CPU      0.58s WALL (       1 calls)

     Called by electrons:
     c_bands      :   5123.66s CPU   5222.52s WALL (      26 calls)
     sum_band     :    392.81s CPU    407.09s WALL (      26 calls)
     v_of_rho     :      7.74s CPU      8.85s WALL (      27 calls)
     v_h          :      0.34s CPU      0.34s WALL (      27 calls)
     v_xc         :      7.68s CPU      8.83s WALL (      28 calls)
     newd         :     23.37s CPU     35.36s WALL (      27 calls)
     PAW_pot      :     33.27s CPU     33.52s WALL (      27 calls)
     mix_rho      :      1.43s CPU      1.62s WALL (      26 calls)

     Called by c_bands:
     init_us_2    :     30.03s CPU     30.10s WALL (     648 calls)
     cegterg      :   5067.45s CPU   5165.61s WALL (     312 calls)

     Called by sum_band:
     sum_band:wei :      0.08s CPU      0.08s WALL (      26 calls)
     sum_band:loo :    360.04s CPU    362.43s WALL (      26 calls)
     sum_band:buf :      3.78s CPU      3.78s WALL (     312 calls)
     sum_band:ini :     14.48s CPU     14.49s WALL (     312 calls)
     sum_band:cal :    180.31s CPU    180.38s WALL (     312 calls)
     sum_band:bec :      1.37s CPU      1.37s WALL (     312 calls)
     addusdens    :     31.64s CPU     43.30s WALL (      26 calls)
                                        0.00s GPU  (      26 calls)
     addusd:skk   :      1.16s CPU      3.52s WALL (      78 calls)
                                        0.00s GPU  (      78 calls)

     Called by *egterg:
     cdiaghg      :    764.96s CPU    787.67s WALL (    2538 calls)
     cegterg:over :    511.52s CPU    517.27s WALL (    2226 calls)
     cegterg:upda :    348.86s CPU    360.25s WALL (    2226 calls)
     cegterg:last :    828.31s CPU    828.74s WALL (     886 calls)
     cdiaghg:chol :     21.18s CPU     33.10s WALL (    2538 calls)
     cdiaghg:inve :      9.26s CPU     13.00s WALL (    2538 calls)
     cdiaghg:para :    156.03s CPU    158.34s WALL (    5076 calls)
     h_psi        :   1943.21s CPU   1968.71s WALL (    2550 calls)
     s_psi        :    592.75s CPU    596.91s WALL (    2550 calls)
     g_psi        :      5.88s CPU      5.90s WALL (    2226 calls)

     Called by h_psi:
     h_psi:calbec :    590.04s CPU    590.46s WALL (    2550 calls)
     vloc_psi     :    751.39s CPU    761.94s WALL (    2550 calls)
     add_vuspsi   :    593.28s CPU    598.70s WALL (    2550 calls)

     General routines
     calbec       :    798.07s CPU    798.58s WALL (    2910 calls)
     fft          :      3.44s CPU      3.71s WALL (     688 calls)
     ffts         :      0.10s CPU      0.11s WALL (     106 calls)
     fftw         :    579.06s CPU    587.08s WALL ( 1182742 calls)
     interpolate  :      0.45s CPU      0.51s WALL (      54 calls)
 
     Parallel routines

     PAW routines
     PAW_pot      :     33.27s CPU     33.52s WALL (      27 calls)
     PAW_symme    :      0.03s CPU      0.03s WALL (      53 calls)
 
     PWSCF        :      1h34m CPU      1h36m WALL

 
   This run was terminated on:  13:52:20  30Aug2026            

=------------------------------------------------------------------------------=
   JOB DONE.
=------------------------------------------------------------------------------=
