
     Program PWSCF v.7.3.1 starts on  4Aug2026 at 22:10:15 

     This program is part of the open-source Quantum ESPRESSO suite
     for quantum simulation of materials; please cite
         "P. Giannozzi et al., J. Phys.:Condens. Matter 21 395502 (2009);
         "P. Giannozzi et al., J. Phys.:Condens. Matter 29 465901 (2017);
         "P. Giannozzi et al., J. Chem. Phys. 152 154105 (2020);
          URL http://www.quantum-espresso.org", 
     in publications or presentations arising from this work. More details at
     http://www.quantum-espresso.org/quote

     Parallel version (MPI & OpenMP), running on       8 processor cores
     Number of MPI processes:                 8
     Threads/MPI process:                     1

     MPI processes distributed on     1 nodes
     40584 MiB available memory on the printing compute node when the environment starts
 
     Waiting for input...
     Reading input from standard input

     Current dimensions of program PWSCF are:
     Max number of different atomic species (ntypx) = 10
     Max number of k-points (npk) =  40000
     Max angular momentum in pseudopotentials (lmaxx) =  4
     file Ga.pbe-dn-kjpaw_psl.1.0.0.UPF: wavefunction(s)  4S renormalized
     file N.pbe-n-kjpaw_psl.1.0.0.UPF: wavefunction(s)  2S renormalized
 
     R & G space division:  proc/nbgrp/npool/nimage =       8
     Subspace diagonalization in iterative solution of the eigenvalue problem:
     a serial algorithm will be used

 
     Parallelization info
     --------------------
     sticks:   dense  smooth     PW     G-vecs:    dense   smooth      PW
     Min         223      90     26                12449     3138     520
     Max         224      91     27                12456     3140     527
     Sum        1789     721    211                99623    25109    4187
 
     Using Slab Decomposition
 


     bravais-lattice index     =            4
     lattice parameter (alat)  =       6.0849  a.u.
     unit-cell volume          =     318.1254 (a.u.)^3
     number of atoms/cell      =            4
     number of atomic types    =            2
     number of electrons       =        36.00
     number of Kohn-Sham states=           22
     kinetic-energy cutoff     =      70.0000  Ry
     charge density cutoff     =     700.0000  Ry
     scf convergence threshold =      1.0E-08
     mixing beta               =       0.7000
     number of iterations used =            8  plain     mixing
     Exchange-correlation= SLA  PW   PBX  PBC
                           (   1   4   3   4   0   0   0)

     celldm(1)=   6.084918  celldm(2)=   0.000000  celldm(3)=   1.630435
     celldm(4)=   0.000000  celldm(5)=   0.000000  celldm(6)=   0.000000

     crystal axes: (cart. coord. in units of alat)
               a(1) = (   1.000000   0.000000   0.000000 )  
               a(2) = (  -0.500000   0.866025   0.000000 )  
               a(3) = (   0.000000   0.000000   1.630435 )  

     reciprocal axes: (cart. coord. in units 2 pi/alat)
               b(1) = (  1.000000  0.577350  0.000000 )  
               b(2) = (  0.000000  1.154701  0.000000 )  
               b(3) = (  0.000000  0.000000  0.613333 )  


     PseudoPot. # 1 for Ga read from file:
     /data-fast/greenano/Students/cohort2/rojassan/Project_GaN/PSEUDO/Ga.pbe-dn-kjpaw_psl.1.0.0.UPF
     MD5 check sum: 93aceff68ec27daa0acc11ebb2e245f0
     Pseudo is Projector augmented-wave + core cor, Zval = 13.0
     Generated using 'atomic' code by A. Dal Corso  v.7.3.1
     Shape of augmentation charge: PSQ
     Using radial grid of 1205 points,  6 beta functions with: 
                l(1) =   0
                l(2) =   0
                l(3) =   1
                l(4) =   1
                l(5) =   2
                l(6) =   2
     Q(r) pseudized with 0 coefficients 


     PseudoPot. # 2 for N  read from file:
     /data-fast/greenano/Students/cohort2/rojassan/Project_GaN/PSEUDO/N.pbe-n-kjpaw_psl.1.0.0.UPF
     MD5 check sum: 86f48117b7e7b472c01f85d0863ba463
     Pseudo is Projector augmented-wave + core cor, Zval =  5.0
     Generated using 'atomic' code by A. Dal Corso  v.7.3.1
     Shape of augmentation charge: PSQ
     Using radial grid of 1085 points,  4 beta functions with: 
                l(1) =   0
                l(2) =   0
                l(3) =   1
                l(4) =   1
     Q(r) pseudized with 0 coefficients 


     atomic species   valence    mass     pseudopotential
     Ga               13.00    69.72300     Ga( 1.00)
     N                 5.00    14.00700     N ( 1.00)

     12 Sym. Ops. (no inversion) found ( 6 have fractional translation)


                                    s                        frac. trans.

      isym =  1     identity                                     

 cryst.   s( 1) = (     1          0          0      )
                  (     0          1          0      )
                  (     0          0          1      )

 cart.    s( 1) = (  1.0000000  0.0000000  0.0000000 )
                  (  0.0000000  1.0000000  0.0000000 )
                  (  0.0000000  0.0000000  1.0000000 )


      isym =  2     180 deg rotation - cart. axis [0,0,1]        

 cryst.   s( 2) = (    -1          0          0      )    f =(  0.0000000 )
                  (     0         -1          0      )       (  0.0000000 )
                  (     0          0          1      )       ( -0.5000000 )

 cart.    s( 2) = ( -1.0000000  0.0000000  0.0000000 )    f =(  0.0000000 )
                  (  0.0000000 -1.0000000  0.0000000 )       (  0.0000000 )
                  (  0.0000000  0.0000000  1.0000000 )       ( -0.8152174 )


      isym =  3      60 deg rotation - cryst. axis [0,0,1]       

 cryst.   s( 3) = (     1          1          0      )    f =(  0.0000000 )
                  (    -1          0          0      )       (  0.0000000 )
                  (     0          0          1      )       ( -0.5000000 )

 cart.    s( 3) = (  0.5000000 -0.8660254  0.0000000 )    f =(  0.0000000 )
                  (  0.8660254  0.5000000  0.0000000 )       (  0.0000000 )
                  (  0.0000000  0.0000000  1.0000000 )       ( -0.8152174 )


      isym =  4      60 deg rotation - cryst. axis [0,0,-1]      

 cryst.   s( 4) = (     0         -1          0      )    f =(  0.0000000 )
                  (     1          1          0      )       (  0.0000000 )
                  (     0          0          1      )       ( -0.5000000 )

 cart.    s( 4) = (  0.5000000  0.8660254  0.0000000 )    f =( -0.0000000 )
                  ( -0.8660254  0.5000000  0.0000000 )       (  0.0000000 )
                  (  0.0000000  0.0000000  1.0000000 )       ( -0.8152174 )


      isym =  5     120 deg rotation - cryst. axis [0,0,1]       

 cryst.   s( 5) = (     0          1          0      )
                  (    -1         -1          0      )
                  (     0          0          1      )

 cart.    s( 5) = ( -0.5000000 -0.8660254  0.0000000 )
                  (  0.8660254 -0.5000000  0.0000000 )
                  (  0.0000000  0.0000000  1.0000000 )


      isym =  6     120 deg rotation - cryst. axis [0,0,-1]      

 cryst.   s( 6) = (    -1         -1          0      )
                  (     1          0          0      )
                  (     0          0          1      )

 cart.    s( 6) = ( -0.5000000  0.8660254  0.0000000 )
                  ( -0.8660254 -0.5000000  0.0000000 )
                  (  0.0000000  0.0000000  1.0000000 )


      isym =  7     inv. 180 deg rotation - cart. axis [0,1,0]   

 cryst.   s( 7) = (     1          0          0      )    f =(  0.0000000 )
                  (    -1         -1          0      )       (  0.0000000 )
                  (     0          0          1      )       ( -0.5000000 )

 cart.    s( 7) = (  1.0000000  0.0000000  0.0000000 )    f =( -0.0000000 )
                  (  0.0000000 -1.0000000  0.0000000 )       (  0.0000000 )
                  (  0.0000000  0.0000000  1.0000000 )       ( -0.8152174 )


      isym =  8     inv. 180 deg rotation - cart. axis [1,0,0]   

 cryst.   s( 8) = (    -1          0          0      )
                  (     1          1          0      )
                  (     0          0          1      )

 cart.    s( 8) = ( -1.0000000  0.0000000  0.0000000 )
                  (  0.0000000  1.0000000  0.0000000 )
                  (  0.0000000  0.0000000  1.0000000 )


      isym =  9     inv. 180 deg rotation - cryst. axis [1,-1,0] 

 cryst.   s( 9) = (     0          1          0      )    f =(  0.0000000 )
                  (     1          0          0      )       (  0.0000000 )
                  (     0          0          1      )       ( -0.5000000 )

 cart.    s( 9) = ( -0.5000000  0.8660254  0.0000000 )    f =(  0.0000000 )
                  (  0.8660254  0.5000000  0.0000000 )       (  0.0000000 )
                  (  0.0000000  0.0000000  1.0000000 )       ( -0.8152174 )


      isym = 10     inv. 180 deg rotation - cryst. axis [2,1,0]  

 cryst.   s(10) = (    -1         -1          0      )    f =(  0.0000000 )
                  (     0          1          0      )       (  0.0000000 )
                  (     0          0          1      )       ( -0.5000000 )

 cart.    s(10) = ( -0.5000000 -0.8660254  0.0000000 )    f =(  0.0000000 )
                  ( -0.8660254  0.5000000  0.0000000 )       (  0.0000000 )
                  (  0.0000000  0.0000000  1.0000000 )       ( -0.8152174 )


      isym = 11     inv. 180 deg rotation - cryst. axis [0,1,0]  

 cryst.   s(11) = (     1          1          0      )
                  (     0         -1          0      )
                  (     0          0          1      )

 cart.    s(11) = (  0.5000000  0.8660254  0.0000000 )
                  (  0.8660254 -0.5000000  0.0000000 )
                  (  0.0000000  0.0000000  1.0000000 )


      isym = 12     inv. 180 deg rotation - cryst. axis [1,1,0]  

 cryst.   s(12) = (     0         -1          0      )
                  (    -1          0          0      )
                  (     0          0          1      )

 cart.    s(12) = (  0.5000000 -0.8660254  0.0000000 )
                  ( -0.8660254 -0.5000000  0.0000000 )
                  (  0.0000000  0.0000000  1.0000000 )


     point group C_6v (6mm) 
     there are  6 classes
     the character table:

       E     2C6   2C3   C2    3s_v  3s_d 
A_1    1.00  1.00  1.00  1.00  1.00  1.00
A_2    1.00  1.00  1.00  1.00 -1.00 -1.00
B_1    1.00 -1.00  1.00 -1.00  1.00 -1.00
B_2    1.00 -1.00  1.00 -1.00 -1.00  1.00
E_1    2.00  1.00 -1.00 -2.00  0.00  0.00
E_2    2.00 -1.00 -1.00  2.00  0.00  0.00

     the symmetry operations in each class and the name of the first element:

     E        1
          identity                                               
     2C6      3    4
           60 deg rotation - cryst. axis [0,0,1]                 
     2C3      5    6
          120 deg rotation - cryst. axis [0,0,1]                 
     C2       2
          180 deg rotation - cart. axis [0,0,1]                  
     3s_v     8   12   11
          inv. 180 deg rotation - cart. axis [1,0,0]             
     3s_d     7    9   10
          inv. 180 deg rotation - cart. axis [0,1,0]             

   Cartesian axes

     site n.     atom                  positions (alat units)
         1        Ga     tau(   1) = (   0.0000000   0.5773503   0.0000000  )
         2        Ga     tau(   2) = (   0.5000000   0.2886751   0.8152174  )
         3        N      tau(   3) = (   0.0000000   0.5773503   0.6136663  )
         4        N      tau(   4) = (   0.5000000   0.2886751   1.4288837  )

   Crystallographic axes

     site n.     atom                  positions (cryst. coord.)
         1        Ga     tau(   1) = (  0.3333333  0.6666667  0.0000000  )
         2        Ga     tau(   2) = (  0.6666667  0.3333333  0.5000000  )
         3        N      tau(   3) = (  0.3333333  0.6666667  0.3763820  )
         4        N      tau(   4) = (  0.6666667  0.3333333  0.8763820  )

     number of k points=    12
                       cart. coord. in units 2pi/alat
        k(    1) = (   0.1250000   0.2165064   0.1022222), wk =   0.1666667
        k(    2) = (   0.1250000   0.2165064  -0.3066667), wk =   0.0833333
        k(    3) = (   0.1250000   0.5051815   0.1022222), wk =   0.3333333
        k(    4) = (   0.1250000   0.5051815  -0.3066667), wk =   0.1666667
        k(    5) = (   0.1250000  -0.3608439   0.1022222), wk =   0.3333333
        k(    6) = (   0.1250000  -0.3608439  -0.3066667), wk =   0.1666667
        k(    7) = (   0.1250000  -0.0721688   0.1022222), wk =   0.1666667
        k(    8) = (   0.1250000  -0.0721688  -0.3066667), wk =   0.0833333
        k(    9) = (   0.3750000   0.6495191   0.1022222), wk =   0.1666667
        k(   10) = (   0.3750000   0.6495191  -0.3066667), wk =   0.0833333
        k(   11) = (   0.3750000  -0.2165064   0.1022222), wk =   0.1666667
        k(   12) = (   0.3750000  -0.2165064  -0.3066667), wk =   0.0833333

                       cryst. coord.
        k(    1) = (   0.1250000   0.1250000   0.1666667), wk =   0.1666667
        k(    2) = (   0.1250000   0.1250000  -0.5000000), wk =   0.0833333
        k(    3) = (   0.1250000   0.3750000   0.1666667), wk =   0.3333333
        k(    4) = (   0.1250000   0.3750000  -0.5000000), wk =   0.1666667
        k(    5) = (   0.1250000  -0.3750000   0.1666667), wk =   0.3333333
        k(    6) = (   0.1250000  -0.3750000  -0.5000000), wk =   0.1666667
        k(    7) = (   0.1250000  -0.1250000   0.1666667), wk =   0.1666667
        k(    8) = (   0.1250000  -0.1250000  -0.5000000), wk =   0.0833333
        k(    9) = (   0.3750000   0.3750000   0.1666667), wk =   0.1666667
        k(   10) = (   0.3750000   0.3750000  -0.5000000), wk =   0.0833333
        k(   11) = (   0.3750000  -0.3750000   0.1666667), wk =   0.1666667
        k(   12) = (   0.3750000  -0.3750000  -0.5000000), wk =   0.0833333

     Dense  grid:    99623 G-vectors     FFT dimensions: (  54,  54,  90)

     Smooth grid:    25109 G-vectors     FFT dimensions: (  36,  36,  54)

     Dynamical RAM for                 wfc:       0.13 MB

     Dynamical RAM for     wfc (w. buffer):       1.72 MB

     Dynamical RAM for           str. fact:       0.38 MB

     Dynamical RAM for           local pot:       0.00 MB

     Dynamical RAM for          nlocal pot:       0.31 MB

     Dynamical RAM for                qrad:       4.24 MB

     Dynamical RAM for          rho,v,vnew:       1.37 MB

     Dynamical RAM for               rhoin:       0.46 MB

     Dynamical RAM for            rho*nmix:       3.04 MB

     Dynamical RAM for           G-vectors:       0.74 MB

     Dynamical RAM for          h,s,v(r/c):       0.09 MB

     Dynamical RAM for          <psi|beta>:       0.02 MB

     Dynamical RAM for                 psi:       0.26 MB

     Dynamical RAM for                hpsi:       0.26 MB

     Dynamical RAM for                spsi:       0.26 MB

     Dynamical RAM for      wfcinit/wfcrot:       0.33 MB

     Dynamical RAM for           addusdens:      35.73 MB

     Dynamical RAM for          addusforce:      36.21 MB

     Dynamical RAM for         addusstress:      38.20 MB

     Estimated static dynamical RAM per process >      11.12 MB

     Estimated max dynamical RAM per process >      52.36 MB

     Estimated total dynamical RAM >     418.92 MB

     Initial potential from superposition of free atoms

     starting charge      35.9941, renormalised to      36.0000
     Starting wfcs are   26 randomized atomic wfcs
     Checking if some PAW data can be deallocated... 
       PAW data deallocated on    4 nodes for type:  1
       PAW data deallocated on    4 nodes for type:  2

     total cpu time spent up to now is        0.7 secs

     Self-consistent Calculation

     iteration #  1     ecut=    70.00 Ry     beta= 0.70
     Davidson diagonalization with overlap

---- Real-time Memory Report at c_bands before calling an iterative solver
           165 MiB given to the printing process from OS
             0 MiB allocation reported by mallinfo(arena+hblkhd)
         40285 MiB available memory on the node where the printing process lives
------------------
     ethr =  1.00E-02,  avg # of iterations =  2.2

     total cpu time spent up to now is        1.1 secs

     total energy              =    -611.67233504 Ry
     estimated scf accuracy    <       1.11833388 Ry

     iteration #  2     ecut=    70.00 Ry     beta= 0.70
     Davidson diagonalization with overlap

---- Real-time Memory Report at c_bands before calling an iterative solver
           181 MiB given to the printing process from OS
             0 MiB allocation reported by mallinfo(arena+hblkhd)
         40189 MiB available memory on the node where the printing process lives
------------------
     ethr =  3.11E-03,  avg # of iterations =  5.7

     total cpu time spent up to now is        1.6 secs

     total energy              =    -612.13131148 Ry
     estimated scf accuracy    <       1.41120981 Ry

     iteration #  3     ecut=    70.00 Ry     beta= 0.70
     Davidson diagonalization with overlap

---- Real-time Memory Report at c_bands before calling an iterative solver
           186 MiB given to the printing process from OS
             0 MiB allocation reported by mallinfo(arena+hblkhd)
         40182 MiB available memory on the node where the printing process lives
------------------
     ethr =  3.11E-03,  avg # of iterations =  2.0

     total cpu time spent up to now is        2.1 secs

     total energy              =    -612.39109307 Ry
     estimated scf accuracy    <       0.02740422 Ry

     iteration #  4     ecut=    70.00 Ry     beta= 0.70
     Davidson diagonalization with overlap

---- Real-time Memory Report at c_bands before calling an iterative solver
           186 MiB given to the printing process from OS
             0 MiB allocation reported by mallinfo(arena+hblkhd)
         40195 MiB available memory on the node where the printing process lives
------------------
     ethr =  7.61E-05,  avg # of iterations =  9.8

     total cpu time spent up to now is        2.9 secs

     total energy              =    -612.43295308 Ry
     estimated scf accuracy    <       0.01529024 Ry

     iteration #  5     ecut=    70.00 Ry     beta= 0.70
     Davidson diagonalization with overlap

---- Real-time Memory Report at c_bands before calling an iterative solver
           187 MiB given to the printing process from OS
             0 MiB allocation reported by mallinfo(arena+hblkhd)
         40186 MiB available memory on the node where the printing process lives
------------------
     ethr =  4.25E-05,  avg # of iterations =  2.2

     total cpu time spent up to now is        3.4 secs

     total energy              =    -612.43137265 Ry
     estimated scf accuracy    <       0.01081878 Ry

     iteration #  6     ecut=    70.00 Ry     beta= 0.70
     Davidson diagonalization with overlap

---- Real-time Memory Report at c_bands before calling an iterative solver
           187 MiB given to the printing process from OS
             0 MiB allocation reported by mallinfo(arena+hblkhd)
         40195 MiB available memory on the node where the printing process lives
------------------
     ethr =  3.01E-05,  avg # of iterations =  2.1

     total cpu time spent up to now is        3.8 secs

     total energy              =    -612.43104794 Ry
     estimated scf accuracy    <       0.00250971 Ry

     iteration #  7     ecut=    70.00 Ry     beta= 0.70
     Davidson diagonalization with overlap

---- Real-time Memory Report at c_bands before calling an iterative solver
           188 MiB given to the printing process from OS
             0 MiB allocation reported by mallinfo(arena+hblkhd)
         40192 MiB available memory on the node where the printing process lives
------------------
     ethr =  6.97E-06,  avg # of iterations =  5.6

     total cpu time spent up to now is        4.3 secs

     total energy              =    -612.43165959 Ry
     estimated scf accuracy    <       0.00030908 Ry

     iteration #  8     ecut=    70.00 Ry     beta= 0.70
     Davidson diagonalization with overlap

---- Real-time Memory Report at c_bands before calling an iterative solver
           189 MiB given to the printing process from OS
             0 MiB allocation reported by mallinfo(arena+hblkhd)
         40188 MiB available memory on the node where the printing process lives
------------------
     ethr =  8.59E-07,  avg # of iterations =  5.7

     total cpu time spent up to now is        4.9 secs

     total energy              =    -612.43182046 Ry
     estimated scf accuracy    <       0.00007775 Ry

     iteration #  9     ecut=    70.00 Ry     beta= 0.70
     Davidson diagonalization with overlap

---- Real-time Memory Report at c_bands before calling an iterative solver
           190 MiB given to the printing process from OS
             0 MiB allocation reported by mallinfo(arena+hblkhd)
         40191 MiB available memory on the node where the printing process lives
------------------
     ethr =  2.16E-07,  avg # of iterations =  4.5

     total cpu time spent up to now is        5.4 secs

     total energy              =    -612.43184052 Ry
     estimated scf accuracy    <       0.00004434 Ry

     iteration # 10     ecut=    70.00 Ry     beta= 0.70
     Davidson diagonalization with overlap

---- Real-time Memory Report at c_bands before calling an iterative solver
           191 MiB given to the printing process from OS
             0 MiB allocation reported by mallinfo(arena+hblkhd)
         40189 MiB available memory on the node where the printing process lives
------------------
     ethr =  1.23E-07,  avg # of iterations =  3.0

     total cpu time spent up to now is        5.9 secs

     total energy              =    -612.43184517 Ry
     estimated scf accuracy    <       0.00000516 Ry

     iteration # 11     ecut=    70.00 Ry     beta= 0.70
     Davidson diagonalization with overlap

---- Real-time Memory Report at c_bands before calling an iterative solver
           191 MiB given to the printing process from OS
             0 MiB allocation reported by mallinfo(arena+hblkhd)
         40227 MiB available memory on the node where the printing process lives
------------------
     ethr =  1.43E-08,  avg # of iterations =  6.3

     total cpu time spent up to now is        6.5 secs

     total energy              =    -612.43184734 Ry
     estimated scf accuracy    <       0.00002307 Ry

     iteration # 12     ecut=    70.00 Ry     beta= 0.70
     Davidson diagonalization with overlap

---- Real-time Memory Report at c_bands before calling an iterative solver
           192 MiB given to the printing process from OS
             0 MiB allocation reported by mallinfo(arena+hblkhd)
         40227 MiB available memory on the node where the printing process lives
------------------
     ethr =  1.43E-08,  avg # of iterations =  2.0

     total cpu time spent up to now is        7.0 secs

     total energy              =    -612.43184819 Ry
     estimated scf accuracy    <       0.00000024 Ry

     iteration # 13     ecut=    70.00 Ry     beta= 0.70
     Davidson diagonalization with overlap

---- Real-time Memory Report at c_bands before calling an iterative solver
           192 MiB given to the printing process from OS
             0 MiB allocation reported by mallinfo(arena+hblkhd)
         40229 MiB available memory on the node where the printing process lives
------------------
     ethr =  6.56E-10,  avg # of iterations =  8.2

     total cpu time spent up to now is        7.6 secs

     total energy              =    -612.43184854 Ry
     estimated scf accuracy    <       0.00000002 Ry

     iteration # 14     ecut=    70.00 Ry     beta= 0.70
     Davidson diagonalization with overlap

---- Real-time Memory Report at c_bands before calling an iterative solver
           192 MiB given to the printing process from OS
             0 MiB allocation reported by mallinfo(arena+hblkhd)
         40221 MiB available memory on the node where the printing process lives
------------------
     ethr =  5.40E-11,  avg # of iterations =  6.0

     total cpu time spent up to now is        8.3 secs

     End of self-consistent calculation

          k = 0.1250 0.2165 0.1022 (  3132 PWs)   bands (ev):

    -6.0526  -5.6074  -4.1532  -4.1427  -4.0954  -4.0827  -4.0018  -3.9562
    -3.9263  -3.9233  -3.8499  -2.5604   3.3377   6.2449   6.4019   7.5138
     8.5886   8.6699  13.2874  15.2656  16.8788  17.1904

     occupation numbers 
     1.0000   1.0000   1.0000   1.0000   1.0000   1.0000   1.0000   1.0000
     1.0000   1.0000   1.0000   1.0000   1.0000   1.0000   1.0000   1.0000
     1.0000   1.0000   0.0000   0.0000   0.0000   0.0000

          k = 0.1250 0.2165-0.3067 (  3146 PWs)   bands (ev):

    -5.7579  -5.7579  -4.1290  -4.1290  -4.1093  -4.1093  -3.9878  -3.9878
    -3.9070  -3.9070  -3.4691  -3.4691   5.0461   5.0461   7.4222   7.4222
     7.9766   7.9766  14.5720  14.5720  16.6622  16.6622

     occupation numbers 
     1.0000   1.0000   1.0000   1.0000   1.0000   1.0000   1.0000   1.0000
     1.0000   1.0000   1.0000   1.0000   1.0000   1.0000   1.0000   1.0000
     1.0000   1.0000   0.0000   0.0000   0.0000   0.0000

          k = 0.1250 0.5052 0.1022 (  3152 PWs)   bands (ev):

    -5.6517  -5.5338  -4.1438  -4.1111  -4.0362  -3.9971  -3.9776  -3.9343
    -3.8933  -3.8724  -2.7937  -2.1219   3.0461   3.9890   5.5094   6.2321
     7.4640   7.6831  14.3132  15.2547  16.0439  17.1825

     occupation numbers 
     1.0000   1.0000   1.0000   1.0000   1.0000   1.0000   1.0000   1.0000
     1.0000   1.0000   1.0000   1.0000   1.0000   1.0000   1.0000   1.0000
     1.0000   1.0000   0.0000   0.0000   0.0000   0.0000

          k = 0.1250 0.5052-0.3067 (  3160 PWs)   bands (ev):

    -5.5569  -5.5569  -4.1231  -4.1231  -4.0455  -4.0455  -3.9452  -3.9452
    -3.8857  -3.8857  -2.5043  -2.5043   3.0839   3.0839   6.6096   6.6096
     7.6319   7.6319  14.2033  14.2033  17.0503  17.0503

     occupation numbers 
     1.0000   1.0000   1.0000   1.0000   1.0000   1.0000   1.0000   1.0000
     1.0000   1.0000   1.0000   1.0000   1.0000   1.0000   1.0000   1.0000
     1.0000   1.0000   0.0000   0.0000   0.0000   0.0000

          k = 0.1250-0.3608 0.1022 (  3142 PWs)   bands (ev):

    -5.7920  -5.5552  -4.1349  -4.1217  -4.0574  -4.0248  -3.9836  -3.9620
    -3.9130  -3.8818  -3.4613  -2.2385   3.5183   4.9027   5.4674   6.6169
     7.9751   8.2237  14.1567  15.6973  16.0034  17.2013

     occupation numbers 
     1.0000   1.0000   1.0000   1.0000   1.0000   1.0000   1.0000   1.0000
     1.0000   1.0000   1.0000   1.0000   1.0000   1.0000   1.0000   1.0000
     1.0000   1.0000   0.0000   0.0000   0.0000   0.0000

          k = 0.1250-0.3608-0.3067 (  3160 PWs)   bands (ev):

    -5.6229  -5.6229  -4.1141  -4.1141  -4.0680  -4.0680  -3.9803  -3.9803
    -3.8939  -3.8939  -3.0061  -3.0061   4.0574   4.0574   7.0394   7.0394
     7.4954   7.4954  14.5608  14.5608  16.8729  16.8729

     occupation numbers 
     1.0000   1.0000   1.0000   1.0000   1.0000   1.0000   1.0000   1.0000
     1.0000   1.0000   1.0000   1.0000   1.0000   1.0000   1.0000   1.0000
     1.0000   1.0000   0.0000   0.0000   0.0000   0.0000

          k = 0.1250-0.0722 0.1022 (  3137 PWs)   bands (ev):

    -6.2678  -5.6604  -4.1808  -4.1666  -4.1297  -4.1121  -4.1092  -3.9586
    -3.9544  -3.8994  -3.8744  -2.7709   3.0363   7.2901   7.6845   8.0293
     8.8776   9.0283  12.4174  14.2206  17.5693  18.1016

     occupation numbers 
     1.0000   1.0000   1.0000   1.0000   1.0000   1.0000   1.0000   1.0000
     1.0000   1.0000   1.0000   1.0000   1.0000   1.0000   1.0000   1.0000
     1.0000   1.0000   0.0000   0.0000   0.0000   0.0000

          k = 0.1250-0.0722-0.3067 (  3112 PWs)   bands (ev):

    -5.8829  -5.8829  -4.1548  -4.1548  -4.1449  -4.1449  -3.9632  -3.9632
    -3.9096  -3.9096  -3.6968  -3.6968   5.3866   5.3866   8.0138   8.0138
     8.5102   8.5102  13.9491  13.9491  17.0698  17.0698

     occupation numbers 
     1.0000   1.0000   1.0000   1.0000   1.0000   1.0000   1.0000   1.0000
     1.0000   1.0000   1.0000   1.0000   1.0000   1.0000   1.0000   1.0000
     1.0000   1.0000   0.0000   0.0000   0.0000   0.0000

          k = 0.3750 0.6495 0.1022 (  3149 PWs)   bands (ev):

    -5.5846  -5.5394  -4.1674  -4.0593  -4.0225  -3.9879  -3.9706  -3.9379
    -3.9200  -3.8993  -2.3824  -2.1134   3.4048   3.8894   4.6669   6.4140
     6.6156   7.1248  14.7699  16.1734  16.6990  17.0851

     occupation numbers 
     1.0000   1.0000   1.0000   1.0000   1.0000   1.0000   1.0000   1.0000
     1.0000   1.0000   1.0000   1.0000   1.0000   1.0000   1.0000   1.0000
     1.0000   1.0000   0.0000   0.0000   0.0000   0.0000

          k = 0.3750 0.6495-0.3067 (  3152 PWs)   bands (ev):

    -5.5303  -5.5303  -4.0896  -4.0896  -4.0595  -4.0595  -3.9458  -3.9458
    -3.9087  -3.9087  -2.2503  -2.2503   3.1648   3.1648   5.4895   5.4895
     7.7895   7.7895  15.1310  15.1310  16.8372  16.8372

     occupation numbers 
     1.0000   1.0000   1.0000   1.0000   1.0000   1.0000   1.0000   1.0000
     1.0000   1.0000   1.0000   1.0000   1.0000   1.0000   1.0000   1.0000
     1.0000   1.0000   0.0000   0.0000   0.0000   0.0000

          k = 0.3750-0.2165 0.1022 (  3159 PWs)   bands (ev):

    -5.7332  -5.5443  -4.1442  -4.1117  -4.0530  -4.0055  -3.9867  -3.9411
    -3.9029  -3.8604  -3.2352  -2.1830   3.1923   4.4026   5.3146   6.9115
     7.8914   8.2996  13.7418  14.6705  16.1036  17.2562

     occupation numbers 
     1.0000   1.0000   1.0000   1.0000   1.0000   1.0000   1.0000   1.0000
     1.0000   1.0000   1.0000   1.0000   1.0000   1.0000   1.0000   1.0000
     1.0000   1.0000   0.0000   0.0000   0.0000   0.0000

          k = 0.3750-0.2165-0.3067 (  3146 PWs)   bands (ev):

    -5.5952  -5.5952  -4.1344  -4.1344  -4.0459  -4.0459  -3.9507  -3.9507
    -3.8870  -3.8870  -2.8223  -2.8223   3.4656   3.4656   7.2882   7.2882
     7.5583   7.5583  13.8329  13.8329  16.8583  16.8583

     occupation numbers 
     1.0000   1.0000   1.0000   1.0000   1.0000   1.0000   1.0000   1.0000
     1.0000   1.0000   1.0000   1.0000   1.0000   1.0000   1.0000   1.0000
     1.0000   1.0000   0.0000   0.0000   0.0000   0.0000

     highest occupied, lowest unoccupied level (ev):     9.0283   12.4174

!    total energy              =    -612.43184855 Ry
     total all-electron energy =     -7995.358767 Ry
     estimated scf accuracy    <          4.1E-09 Ry

     The total energy is the sum of the following terms:
     one-electron contribution =    -184.74395249 Ry
     hartree contribution      =     131.26129165 Ry
     xc contribution           =     -88.36359149 Ry
     ewald contribution        =    -230.82466193 Ry
     one-center paw contrib.   =    -239.76093429 Ry
      -> PAW hartree energy AE =     145.66499323 Ry
      -> PAW hartree energy PS =    -144.61834490 Ry
      -> PAW xc energy AE      =    -151.16798439 Ry
      -> PAW xc energy PS      =      38.21775364 Ry
      -> total E_H with PAW    =     132.30793998 Ry
      -> total E_XC with PAW   =    -201.31382225 Ry

     convergence has been achieved in  14 iterations

     Forces acting on atoms (cartesian axes, Ry/au):

     atom    1 type  1   force =     0.00000000    0.00000000   -0.00052397
     atom    2 type  1   force =     0.00000000    0.00000000   -0.00052397
     atom    3 type  2   force =     0.00000000    0.00000000    0.00052397
     atom    4 type  2   force =     0.00000000    0.00000000    0.00052397
     The non-local contrib.  to forces
     atom    1 type  1   force =     0.00000000    0.00000000    0.00729934
     atom    2 type  1   force =     0.00000000   -0.00000000    0.00729934
     atom    3 type  2   force =     0.00000000    0.00000000    0.01281262
     atom    4 type  2   force =     0.00000000    0.00000000    0.01281262
     The ionic contribution  to forces
     atom    1 type  1   force =    -0.00000002    0.00000001    0.15748047
     atom    2 type  1   force =     0.00000002   -0.00000001    0.15748047
     atom    3 type  2   force =    -0.00000001    0.00000001   -0.15748047
     atom    4 type  2   force =     0.00000001   -0.00000001   -0.15748047
     The local contribution  to forces
     atom    1 type  1   force =     0.00000000    0.00000032   -0.16543897
     atom    2 type  1   force =     0.00000056    0.00000000   -0.16543899
     atom    3 type  2   force =     0.00000000    0.00000003    0.14537714
     atom    4 type  2   force =     0.00000004    0.00000000    0.14537718
     The core correction contribution to forces
     atom    1 type  1   force =     0.00000000    0.00000002    0.00014235
     atom    2 type  1   force =     0.00000004    0.00000000    0.00014235
     atom    3 type  2   force =     0.00000000   -0.00000000   -0.00019708
     atom    4 type  2   force =    -0.00000000    0.00000000   -0.00019708
     The Hubbard contrib.    to forces
     atom    1 type  1   force =     0.00000000    0.00000000    0.00000000
     atom    2 type  1   force =     0.00000000    0.00000000    0.00000000
     atom    3 type  2   force =     0.00000000    0.00000000    0.00000000
     atom    4 type  2   force =     0.00000000    0.00000000    0.00000000
     The SCF correction term to forces
     atom    1 type  1   force =     0.00000000    0.00000000    0.00000000
     atom    2 type  1   force =     0.00000000    0.00000000    0.00000000
     atom    3 type  2   force =     0.00000000    0.00000000   -0.00000004
     atom    4 type  2   force =     0.00000000    0.00000000   -0.00000004

     Total force =     0.000741     Total SCF correction =     0.000000


     Computing stress (Cartesian axis) and pressure

          total   stress  (Ry/bohr**3)                   (kbar)     P=       -6.54
  -0.00004578  -0.00000000   0.00000000           -6.73       -0.00        0.00
  -0.00000000  -0.00004578   0.00000000           -0.00       -6.73        0.00
   0.00000000   0.00000000  -0.00004179            0.00        0.00       -6.15

     kinetic stress (kbar)  19805.94      0.00      0.00
                                0.00  19805.94      0.00
                                0.00      0.00  19800.18

     local   stress (kbar)   6190.65      0.00     -0.00
                                0.00   6190.65     -0.00
                               -0.00     -0.00   4428.70

     nonloc. stress (kbar)  -1205.02      0.00      0.00
                                0.00  -1205.02      0.00
                                0.00     -0.00  -1191.84

     hartree stress (kbar)  19967.16      0.00      0.00
                                0.00  19967.16     -0.00
                                0.00     -0.00  20762.51

     exc-cor stress (kbar)   5145.66     -0.00      0.00
                               -0.00   5145.66      0.00
                                0.00      0.00   5146.10

     corecor stress (kbar) -14012.77      0.00     -0.00
                                0.00 -14012.77     -0.00
                               -0.00     -0.00 -14012.34

     ewald   stress (kbar) -35898.35     -0.00     -0.00
                               -0.00 -35898.35     -0.00
                               -0.00     -0.00 -34939.46

     hubbard stress (kbar)      0.00      0.00      0.00
                                0.00      0.00      0.00
                                0.00      0.00      0.00

     DFT-D   stress (kbar)      0.00      0.00      0.00
                                0.00      0.00      0.00
                                0.00      0.00      0.00

     XDM     stress (kbar)      0.00      0.00      0.00
                                0.00      0.00      0.00
                                0.00      0.00      0.00

     dft-nl  stress (kbar)      0.00      0.00      0.00
                                0.00      0.00      0.00
                                0.00      0.00      0.00

     TS-vdW  stress (kbar)      0.00      0.00      0.00
                                0.00      0.00      0.00
                                0.00      0.00      0.00

     MDB     stress (kbar)      0.00      0.00      0.00
                                0.00      0.00      0.00
                                0.00      0.00      0.00

     3D-RISM stress (kbar)      0.00      0.00      0.00
                                0.00      0.00      0.00
                                0.00      0.00      0.00


     Writing all to output data dir ./tmp/GaN.save/ :
     XML data file, charge density, pseudopotentials, collected wavefunctions
 
     init_run     :      0.43s CPU      0.47s WALL (       1 calls)
     electrons    :      6.74s CPU      7.67s WALL (       1 calls)
     forces       :      0.10s CPU      0.13s WALL (       1 calls)
     stress       :      0.49s CPU      0.56s WALL (       1 calls)

     Called by init_run:
     wfcinit      :      0.08s CPU      0.09s WALL (       1 calls)
     wfcinit:atom :      0.00s CPU      0.00s WALL (      12 calls)
     wfcinit:wfcr :      0.07s CPU      0.08s WALL (      12 calls)
     potinit      :      0.10s CPU      0.11s WALL (       1 calls)
     hinit0       :      0.07s CPU      0.08s WALL (       1 calls)

     Called by electrons:
     c_bands      :      3.48s CPU      3.62s WALL (      14 calls)
     sum_band     :      1.15s CPU      1.52s WALL (      14 calls)
     v_of_rho     :      0.21s CPU      0.21s WALL (      15 calls)
     v_h          :      0.01s CPU      0.01s WALL (      15 calls)
     v_xc         :      0.22s CPU      0.23s WALL (      17 calls)
     newd         :      0.74s CPU      1.09s WALL (      15 calls)
     PAW_pot      :      1.25s CPU      1.30s WALL (      15 calls)
     mix_rho      :      0.02s CPU      0.03s WALL (      14 calls)

     Called by c_bands:
     init_us_2    :      0.06s CPU      0.06s WALL (     372 calls)
     cegterg      :      3.34s CPU      3.48s WALL (     168 calls)

     Called by sum_band:
     sum_band:wei :      0.00s CPU      0.00s WALL (      14 calls)
     sum_band:loo :      0.47s CPU      0.48s WALL (      14 calls)
     sum_band:buf :      0.00s CPU      0.00s WALL (     168 calls)
     sum_band:ini :      0.02s CPU      0.02s WALL (     168 calls)
     sum_band:cal :      0.03s CPU      0.03s WALL (     168 calls)
     sum_band:bec :      0.00s CPU      0.00s WALL (     168 calls)
     addusdens    :      0.62s CPU      0.98s WALL (      14 calls)
                                        0.00s GPU  (      14 calls)
     addusd:skk   :      0.00s CPU      0.00s WALL (      28 calls)
                                        0.00s GPU  (      28 calls)

     Called by *egterg:
     cdiaghg      :      0.45s CPU      0.47s WALL (     952 calls)
     cegterg:over :      0.13s CPU      0.13s WALL (     784 calls)
     cegterg:upda :      0.05s CPU      0.06s WALL (     784 calls)
     cegterg:last :      0.12s CPU      0.12s WALL (     493 calls)
     h_psi        :      2.43s CPU      2.54s WALL (     964 calls)
     s_psi        :      0.07s CPU      0.07s WALL (     964 calls)
     g_psi        :      0.01s CPU      0.01s WALL (     784 calls)

     Called by h_psi:
     h_psi:calbec :      0.12s CPU      0.12s WALL (     964 calls)
     vloc_psi     :      2.22s CPU      2.33s WALL (     964 calls)
     add_vuspsi   :      0.07s CPU      0.08s WALL (     964 calls)

     General routines
     calbec       :      0.17s CPU      0.18s WALL (    1192 calls)
     fft          :      0.11s CPU      0.11s WALL (     218 calls)
     ffts         :      0.01s CPU      0.01s WALL (      29 calls)
     fftw         :      2.09s CPU      2.19s WALL (   27838 calls)
     interpolate  :      0.01s CPU      0.02s WALL (      15 calls)
 
     Parallel routines

     PAW routines
     PAW_pot      :      1.25s CPU      1.30s WALL (      15 calls)
     PAW_symme    :      0.00s CPU      0.00s WALL (      29 calls)
 
     PWSCF        :      7.93s CPU      9.46s WALL

 
   This run was terminated on:  22:10:24   4Aug2026            

=------------------------------------------------------------------------------=
   JOB DONE.
=------------------------------------------------------------------------------=
