
     Program PWSCF v.7.3.1 starts on  4Aug2026 at 22:12:57 

     This program is part of the open-source Quantum ESPRESSO suite
     for quantum simulation of materials; please cite
         "P. Giannozzi et al., J. Phys.:Condens. Matter 21 395502 (2009);
         "P. Giannozzi et al., J. Phys.:Condens. Matter 29 465901 (2017);
         "P. Giannozzi et al., J. Chem. Phys. 152 154105 (2020);
          URL http://www.quantum-espresso.org", 
     in publications or presentations arising from this work. More details at
     http://www.quantum-espresso.org/quote

     Parallel version (MPI & OpenMP), running on      12 processor cores
     Number of MPI processes:                12
     Threads/MPI process:                     1

     MPI processes distributed on     1 nodes
     40406 MiB available memory on the printing compute node when the environment starts
 
     Waiting for input...
     Reading input from standard input

     Current dimensions of program PWSCF are:
     Max number of different atomic species (ntypx) = 10
     Max number of k-points (npk) =  40000
     Max angular momentum in pseudopotentials (lmaxx) =  4
     file Ga.pbe-dn-kjpaw_psl.1.0.0.UPF: wavefunction(s)  4S renormalized
     file N.pbe-n-kjpaw_psl.1.0.0.UPF: wavefunction(s)  2S renormalized
     Found identity + (  0.3333  0.0000  0.0000) symmetry
     This is a supercell, fractional translations are disabled
     Message from routine setup:
     using ibrav=0 with symmetry is DISCOURAGED, use correct ibrav instead
 
     R & G space division:  proc/nbgrp/npool/nimage =      12
     Subspace diagonalization in iterative solution of the eigenvalue problem:
     one sub-group per band group will be used
     custom distributed-memory algorithm (size of sub-group:  3*  3 procs)

 
     Parallelization info
     --------------------
     sticks:   dense  smooth     PW     G-vecs:    dense   smooth      PW
     Min        1339     536    139               223822    56640    7606
     Max        1341     537    141               223825    56649    7611
     Sum       16081    6433   1675              2685887   679695   91287
 
     Using Slab Decomposition
 


     bravais-lattice index     =            0
     lattice parameter (alat)  =      18.2548  a.u.
     unit-cell volume          =    8589.3845 (a.u.)^3
     number of atoms/cell      =          108
     number of atomic types    =            2
     number of electrons       =       972.00
     number of Kohn-Sham states=          513
     kinetic-energy cutoff     =      70.0000  Ry
     charge density cutoff     =     700.0000  Ry
     scf convergence threshold =      1.0E-08
     mixing beta               =       0.7000
     number of iterations used =            8  plain     mixing
     Exchange-correlation= SLA  PW   PBX  PBC
                           (   1   4   3   4   0   0   0)

     celldm(1)=  18.254754  celldm(2)=   0.000000  celldm(3)=   0.000000
     celldm(4)=   0.000000  celldm(5)=   0.000000  celldm(6)=   0.000000

     crystal axes: (cart. coord. in units of alat)
               a(1) = (   1.000000   0.000000   0.000000 )  
               a(2) = (  -0.500000   0.866025   0.000000 )  
               a(3) = (   0.000000   0.000000   1.630435 )  

     reciprocal axes: (cart. coord. in units 2 pi/alat)
               b(1) = (  1.000000  0.577350  0.000000 )  
               b(2) = (  0.000000  1.154701  0.000000 )  
               b(3) = (  0.000000  0.000000  0.613333 )  


     PseudoPot. # 1 for Ga read from file:
     /data-fast/greenano/Students/cohort2/rojassan/Project_GaN/PSEUDO/Ga.pbe-dn-kjpaw_psl.1.0.0.UPF
     MD5 check sum: 93aceff68ec27daa0acc11ebb2e245f0
     Pseudo is Projector augmented-wave + core cor, Zval = 13.0
     Generated using 'atomic' code by A. Dal Corso  v.7.3.1
     Shape of augmentation charge: PSQ
     Using radial grid of 1205 points,  6 beta functions with: 
                l(1) =   0
                l(2) =   0
                l(3) =   1
                l(4) =   1
                l(5) =   2
                l(6) =   2
     Q(r) pseudized with 0 coefficients 


     PseudoPot. # 2 for N  read from file:
     /data-fast/greenano/Students/cohort2/rojassan/Project_GaN/PSEUDO/N.pbe-n-kjpaw_psl.1.0.0.UPF
     MD5 check sum: 86f48117b7e7b472c01f85d0863ba463
     Pseudo is Projector augmented-wave + core cor, Zval =  5.0
     Generated using 'atomic' code by A. Dal Corso  v.7.3.1
     Shape of augmentation charge: PSQ
     Using radial grid of 1085 points,  4 beta functions with: 
                l(1) =   0
                l(2) =   0
                l(3) =   1
                l(4) =   1
     Q(r) pseudized with 0 coefficients 


     atomic species   valence    mass     pseudopotential
     Ga               13.00    69.72300     Ga( 1.00)
     N                 5.00    14.00700     N ( 1.00)

      6 Sym. Ops. (no inversion) found


                                    s                        frac. trans.

      isym =  1     identity                                     

 cryst.   s( 1) = (     1          0          0      )
                  (     0          1          0      )
                  (     0          0          1      )

 cart.    s( 1) = (  1.0000000  0.0000000  0.0000000 )
                  (  0.0000000  1.0000000  0.0000000 )
                  (  0.0000000  0.0000000  1.0000000 )


      isym =  2     120 deg rotation - cryst. axis [0,0,1]       

 cryst.   s( 2) = (     0          1          0      )
                  (    -1         -1          0      )
                  (     0          0          1      )

 cart.    s( 2) = ( -0.5000000 -0.8660254  0.0000000 )
                  (  0.8660254 -0.5000000  0.0000000 )
                  (  0.0000000  0.0000000  1.0000000 )


      isym =  3     120 deg rotation - cryst. axis [0,0,-1]      

 cryst.   s( 3) = (    -1         -1          0      )
                  (     1          0          0      )
                  (     0          0          1      )

 cart.    s( 3) = ( -0.5000000  0.8660254  0.0000000 )
                  ( -0.8660254 -0.5000000  0.0000000 )
                  (  0.0000000  0.0000000  1.0000000 )


      isym =  4     inv. 180 deg rotation - cart. axis [1,0,0]   

 cryst.   s( 4) = (    -1          0          0      )
                  (     1          1          0      )
                  (     0          0          1      )

 cart.    s( 4) = ( -1.0000000  0.0000000  0.0000000 )
                  (  0.0000000  1.0000000  0.0000000 )
                  (  0.0000000  0.0000000  1.0000000 )


      isym =  5     inv. 180 deg rotation - cryst. axis [0,1,0]  

 cryst.   s( 5) = (     1          1          0      )
                  (     0         -1          0      )
                  (     0          0          1      )

 cart.    s( 5) = (  0.5000000  0.8660254  0.0000000 )
                  (  0.8660254 -0.5000000  0.0000000 )
                  (  0.0000000  0.0000000  1.0000000 )


      isym =  6     inv. 180 deg rotation - cryst. axis [1,1,0]  

 cryst.   s( 6) = (     0         -1          0      )
                  (    -1          0          0      )
                  (     0          0          1      )

 cart.    s( 6) = (  0.5000000 -0.8660254  0.0000000 )
                  ( -0.8660254 -0.5000000  0.0000000 )
                  (  0.0000000  0.0000000  1.0000000 )


   Cartesian axes

     site n.     atom                  positions (alat units)
         1        Ga     tau(   1) = (   0.0000000   0.1924501   0.0000000  )
         2        Ga     tau(   2) = (   0.1666667   0.0962250   0.2717391  )
         3        N      tau(   3) = (   0.0000000   0.1924501   0.2045554  )
         4        N      tau(   4) = (   0.1666667   0.0962250   0.4762946  )
         5        Ga     tau(   5) = (   0.3333333   0.1924501   0.0000000  )
         6        Ga     tau(   6) = (   0.5000000   0.0962250   0.2717391  )
         7        N      tau(   7) = (   0.3333333   0.1924501   0.2045554  )
         8        N      tau(   8) = (   0.5000000   0.0962250   0.4762946  )
         9        Ga     tau(   9) = (   0.6666667   0.1924501   0.0000000  )
        10        Ga     tau(  10) = (   0.8333333   0.0962250   0.2717391  )
        11        N      tau(  11) = (   0.6666667   0.1924501   0.2045554  )
        12        N      tau(  12) = (   0.8333333   0.0962250   0.4762946  )
        13        Ga     tau(  13) = (  -0.1666667   0.4811252   0.0000000  )
        14        Ga     tau(  14) = (   0.0000000   0.3849002   0.2717391  )
        15        N      tau(  15) = (  -0.1666667   0.4811252   0.2045554  )
        16        N      tau(  16) = (   0.0000000   0.3849002   0.4762946  )
        17        Ga     tau(  17) = (   0.1666667   0.4811252   0.0000000  )
        18        Ga     tau(  18) = (   0.3333333   0.3849002   0.2717391  )
        19        N      tau(  19) = (   0.1666667   0.4811252   0.2045554  )
        20        N      tau(  20) = (   0.3333333   0.3849002   0.4762946  )
        21        Ga     tau(  21) = (   0.5000000   0.4811252   0.0000000  )
        22        Ga     tau(  22) = (   0.6666667   0.3849002   0.2717391  )
        23        N      tau(  23) = (   0.5000000   0.4811252   0.2045554  )
        24        N      tau(  24) = (   0.6666667   0.3849002   0.4762946  )
        25        Ga     tau(  25) = (  -0.3333333   0.7698004   0.0000000  )
        26        Ga     tau(  26) = (  -0.1666667   0.6735753   0.2717391  )
        27        N      tau(  27) = (  -0.3333333   0.7698004   0.2045554  )
        28        N      tau(  28) = (  -0.1666667   0.6735753   0.4762946  )
        29        Ga     tau(  29) = (   0.0000000   0.7698004   0.0000000  )
        30        Ga     tau(  30) = (   0.1666667   0.6735753   0.2717391  )
        31        N      tau(  31) = (   0.0000000   0.7698004   0.2045554  )
        32        N      tau(  32) = (   0.1666667   0.6735753   0.4762946  )
        33        Ga     tau(  33) = (   0.3333333   0.7698004   0.0000000  )
        34        Ga     tau(  34) = (   0.5000000   0.6735753   0.2717391  )
        35        N      tau(  35) = (   0.3333333   0.7698004   0.2045554  )
        36        N      tau(  36) = (   0.5000000   0.6735753   0.4762946  )
        37        Ga     tau(  37) = (   0.0000000   0.1924501   0.5434783  )
        38        Ga     tau(  38) = (   0.1666667   0.0962250   0.8152174  )
        39        N      tau(  39) = (   0.0000000   0.1924501   0.7480337  )
        40        N      tau(  40) = (   0.1666667   0.0962250   1.0197728  )
        41        Ga     tau(  41) = (   0.3333333   0.1924501   0.5434783  )
        42        Ga     tau(  42) = (   0.5000000   0.0962250   0.8152174  )
        43        N      tau(  43) = (   0.3333333   0.1924501   0.7480337  )
        44        N      tau(  44) = (   0.5000000   0.0962250   1.0197728  )
        45        Ga     tau(  45) = (   0.6666667   0.1924501   0.5434783  )
        46        Ga     tau(  46) = (   0.8333333   0.0962250   0.8152174  )
        47        N      tau(  47) = (   0.6666667   0.1924501   0.7480337  )
        48        N      tau(  48) = (   0.8333333   0.0962250   1.0197728  )
        49        Ga     tau(  49) = (  -0.1666667   0.4811252   0.5434783  )
        50        Ga     tau(  50) = (   0.0000000   0.3849002   0.8152174  )
        51        N      tau(  51) = (  -0.1666667   0.4811252   0.7480337  )
        52        N      tau(  52) = (   0.0000000   0.3849002   1.0197728  )
        53        Ga     tau(  53) = (   0.1666667   0.4811252   0.5434783  )
        54        Ga     tau(  54) = (   0.3333333   0.3849002   0.8152174  )
        55        N      tau(  55) = (   0.1666667   0.4811252   0.7480337  )
        56        N      tau(  56) = (   0.3333333   0.3849002   1.0197728  )
        57        Ga     tau(  57) = (   0.5000000   0.4811252   0.5434783  )
        58        Ga     tau(  58) = (   0.6666667   0.3849002   0.8152174  )
        59        N      tau(  59) = (   0.5000000   0.4811252   0.7480337  )
        60        N      tau(  60) = (   0.6666667   0.3849002   1.0197728  )
        61        Ga     tau(  61) = (  -0.3333333   0.7698004   0.5434783  )
        62        Ga     tau(  62) = (  -0.1666667   0.6735753   0.8152174  )
        63        N      tau(  63) = (  -0.3333333   0.7698004   0.7480337  )
        64        N      tau(  64) = (  -0.1666667   0.6735753   1.0197728  )
        65        Ga     tau(  65) = (   0.0000000   0.7698004   0.5434783  )
        66        Ga     tau(  66) = (   0.1666667   0.6735753   0.8152174  )
        67        N      tau(  67) = (   0.0000000   0.7698004   0.7480337  )
        68        N      tau(  68) = (   0.1666667   0.6735753   1.0197728  )
        69        Ga     tau(  69) = (   0.3333333   0.7698004   0.5434783  )
        70        Ga     tau(  70) = (   0.5000000   0.6735753   0.8152174  )
        71        N      tau(  71) = (   0.3333333   0.7698004   0.7480337  )
        72        N      tau(  72) = (   0.5000000   0.6735753   1.0197728  )
        73        Ga     tau(  73) = (   0.0000000   0.1924501   1.0869565  )
        74        Ga     tau(  74) = (   0.1666667   0.0962250   1.3586957  )
        75        N      tau(  75) = (   0.0000000   0.1924501   1.2915120  )
        76        N      tau(  76) = (   0.1666667   0.0962250   1.5632511  )
        77        Ga     tau(  77) = (   0.3333333   0.1924501   1.0869565  )
        78        Ga     tau(  78) = (   0.5000000   0.0962250   1.3586957  )
        79        N      tau(  79) = (   0.3333333   0.1924501   1.2915120  )
        80        N      tau(  80) = (   0.5000000   0.0962250   1.5632511  )
        81        Ga     tau(  81) = (   0.6666667   0.1924501   1.0869565  )
        82        Ga     tau(  82) = (   0.8333333   0.0962250   1.3586957  )
        83        N      tau(  83) = (   0.6666667   0.1924501   1.2915120  )
        84        N      tau(  84) = (   0.8333333   0.0962250   1.5632511  )
        85        Ga     tau(  85) = (  -0.1666667   0.4811252   1.0869565  )
        86        Ga     tau(  86) = (   0.0000000   0.3849002   1.3586957  )
        87        N      tau(  87) = (  -0.1666667   0.4811252   1.2915120  )
        88        N      tau(  88) = (   0.0000000   0.3849002   1.5632511  )
        89        Ga     tau(  89) = (   0.1666667   0.4811252   1.0869565  )
        90        Ga     tau(  90) = (   0.3333333   0.3849002   1.3586957  )
        91        N      tau(  91) = (   0.1666667   0.4811252   1.2915120  )
        92        N      tau(  92) = (   0.3333333   0.3849002   1.5632511  )
        93        Ga     tau(  93) = (   0.5000000   0.4811252   1.0869565  )
        94        Ga     tau(  94) = (   0.6666667   0.3849002   1.3586957  )
        95        N      tau(  95) = (   0.5000000   0.4811252   1.2915120  )
        96        N      tau(  96) = (   0.6666667   0.3849002   1.5632511  )
        97        Ga     tau(  97) = (  -0.3333333   0.7698004   1.0869565  )
        98        Ga     tau(  98) = (  -0.1666667   0.6735753   1.3586957  )
        99        N      tau(  99) = (  -0.3333333   0.7698004   1.2915120  )
       100        N      tau( 100) = (  -0.1666667   0.6735753   1.5632511  )
       101        Ga     tau( 101) = (   0.0000000   0.7698004   1.0869565  )
       102        Ga     tau( 102) = (   0.1666667   0.6735753   1.3586957  )
       103        N      tau( 103) = (   0.0000000   0.7698004   1.2915120  )
       104        N      tau( 104) = (   0.1666667   0.6735753   1.5632511  )
       105        Ga     tau( 105) = (   0.3333333   0.7698004   1.0869565  )
       106        Ga     tau( 106) = (   0.5000000   0.6735753   1.3586957  )
       107        N      tau( 107) = (   0.3333333   0.7698004   1.2915120  )
       108        N      tau( 108) = (   0.5000000   0.6735753   1.5632511  )

   Crystallographic axes

     site n.     atom                  positions (cryst. coord.)
         1        Ga     tau(   1) = (  0.1111111  0.2222222  0.0000000  )
         2        Ga     tau(   2) = (  0.2222222  0.1111111  0.1666667  )
         3        N      tau(   3) = (  0.1111111  0.2222222  0.1254607  )
         4        N      tau(   4) = (  0.2222222  0.1111111  0.2921273  )
         5        Ga     tau(   5) = (  0.4444444  0.2222222  0.0000000  )
         6        Ga     tau(   6) = (  0.5555556  0.1111111  0.1666667  )
         7        N      tau(   7) = (  0.4444444  0.2222222  0.1254607  )
         8        N      tau(   8) = (  0.5555556  0.1111111  0.2921273  )
         9        Ga     tau(   9) = (  0.7777778  0.2222222  0.0000000  )
        10        Ga     tau(  10) = (  0.8888889  0.1111111  0.1666667  )
        11        N      tau(  11) = (  0.7777778  0.2222222  0.1254607  )
        12        N      tau(  12) = (  0.8888889  0.1111111  0.2921273  )
        13        Ga     tau(  13) = (  0.1111111  0.5555556  0.0000000  )
        14        Ga     tau(  14) = (  0.2222222  0.4444444  0.1666667  )
        15        N      tau(  15) = (  0.1111111  0.5555556  0.1254607  )
        16        N      tau(  16) = (  0.2222222  0.4444444  0.2921273  )
        17        Ga     tau(  17) = (  0.4444444  0.5555556  0.0000000  )
        18        Ga     tau(  18) = (  0.5555556  0.4444444  0.1666667  )
        19        N      tau(  19) = (  0.4444444  0.5555556  0.1254607  )
        20        N      tau(  20) = (  0.5555556  0.4444444  0.2921273  )
        21        Ga     tau(  21) = (  0.7777778  0.5555556  0.0000000  )
        22        Ga     tau(  22) = (  0.8888889  0.4444444  0.1666667  )
        23        N      tau(  23) = (  0.7777778  0.5555556  0.1254607  )
        24        N      tau(  24) = (  0.8888889  0.4444444  0.2921273  )
        25        Ga     tau(  25) = (  0.1111111  0.8888889  0.0000000  )
        26        Ga     tau(  26) = (  0.2222222  0.7777778  0.1666667  )
        27        N      tau(  27) = (  0.1111111  0.8888889  0.1254607  )
        28        N      tau(  28) = (  0.2222222  0.7777778  0.2921273  )
        29        Ga     tau(  29) = (  0.4444444  0.8888889  0.0000000  )
        30        Ga     tau(  30) = (  0.5555556  0.7777778  0.1666667  )
        31        N      tau(  31) = (  0.4444444  0.8888889  0.1254607  )
        32        N      tau(  32) = (  0.5555556  0.7777778  0.2921273  )
        33        Ga     tau(  33) = (  0.7777778  0.8888889  0.0000000  )
        34        Ga     tau(  34) = (  0.8888889  0.7777778  0.1666667  )
        35        N      tau(  35) = (  0.7777778  0.8888889  0.1254607  )
        36        N      tau(  36) = (  0.8888889  0.7777778  0.2921273  )
        37        Ga     tau(  37) = (  0.1111111  0.2222222  0.3333333  )
        38        Ga     tau(  38) = (  0.2222222  0.1111111  0.5000000  )
        39        N      tau(  39) = (  0.1111111  0.2222222  0.4587940  )
        40        N      tau(  40) = (  0.2222222  0.1111111  0.6254607  )
        41        Ga     tau(  41) = (  0.4444444  0.2222222  0.3333333  )
        42        Ga     tau(  42) = (  0.5555556  0.1111111  0.5000000  )
        43        N      tau(  43) = (  0.4444444  0.2222222  0.4587940  )
        44        N      tau(  44) = (  0.5555556  0.1111111  0.6254607  )
        45        Ga     tau(  45) = (  0.7777778  0.2222222  0.3333333  )
        46        Ga     tau(  46) = (  0.8888889  0.1111111  0.5000000  )
        47        N      tau(  47) = (  0.7777778  0.2222222  0.4587940  )
        48        N      tau(  48) = (  0.8888889  0.1111111  0.6254607  )
        49        Ga     tau(  49) = (  0.1111111  0.5555556  0.3333333  )
        50        Ga     tau(  50) = (  0.2222222  0.4444444  0.5000000  )
        51        N      tau(  51) = (  0.1111111  0.5555556  0.4587940  )
        52        N      tau(  52) = (  0.2222222  0.4444444  0.6254607  )
        53        Ga     tau(  53) = (  0.4444444  0.5555556  0.3333333  )
        54        Ga     tau(  54) = (  0.5555556  0.4444444  0.5000000  )
        55        N      tau(  55) = (  0.4444444  0.5555556  0.4587940  )
        56        N      tau(  56) = (  0.5555556  0.4444444  0.6254607  )
        57        Ga     tau(  57) = (  0.7777778  0.5555556  0.3333333  )
        58        Ga     tau(  58) = (  0.8888889  0.4444444  0.5000000  )
        59        N      tau(  59) = (  0.7777778  0.5555556  0.4587940  )
        60        N      tau(  60) = (  0.8888889  0.4444444  0.6254607  )
        61        Ga     tau(  61) = (  0.1111111  0.8888889  0.3333333  )
        62        Ga     tau(  62) = (  0.2222222  0.7777778  0.5000000  )
        63        N      tau(  63) = (  0.1111111  0.8888889  0.4587940  )
        64        N      tau(  64) = (  0.2222222  0.7777778  0.6254607  )
        65        Ga     tau(  65) = (  0.4444444  0.8888889  0.3333333  )
        66        Ga     tau(  66) = (  0.5555556  0.7777778  0.5000000  )
        67        N      tau(  67) = (  0.4444444  0.8888889  0.4587940  )
        68        N      tau(  68) = (  0.5555556  0.7777778  0.6254607  )
        69        Ga     tau(  69) = (  0.7777778  0.8888889  0.3333333  )
        70        Ga     tau(  70) = (  0.8888889  0.7777778  0.5000000  )
        71        N      tau(  71) = (  0.7777778  0.8888889  0.4587940  )
        72        N      tau(  72) = (  0.8888889  0.7777778  0.6254607  )
        73        Ga     tau(  73) = (  0.1111111  0.2222222  0.6666667  )
        74        Ga     tau(  74) = (  0.2222222  0.1111111  0.8333333  )
        75        N      tau(  75) = (  0.1111111  0.2222222  0.7921273  )
        76        N      tau(  76) = (  0.2222222  0.1111111  0.9587940  )
        77        Ga     tau(  77) = (  0.4444444  0.2222222  0.6666667  )
        78        Ga     tau(  78) = (  0.5555556  0.1111111  0.8333333  )
        79        N      tau(  79) = (  0.4444444  0.2222222  0.7921273  )
        80        N      tau(  80) = (  0.5555556  0.1111111  0.9587940  )
        81        Ga     tau(  81) = (  0.7777778  0.2222222  0.6666667  )
        82        Ga     tau(  82) = (  0.8888889  0.1111111  0.8333333  )
        83        N      tau(  83) = (  0.7777778  0.2222222  0.7921273  )
        84        N      tau(  84) = (  0.8888889  0.1111111  0.9587940  )
        85        Ga     tau(  85) = (  0.1111111  0.5555556  0.6666667  )
        86        Ga     tau(  86) = (  0.2222222  0.4444444  0.8333333  )
        87        N      tau(  87) = (  0.1111111  0.5555556  0.7921273  )
        88        N      tau(  88) = (  0.2222222  0.4444444  0.9587940  )
        89        Ga     tau(  89) = (  0.4444444  0.5555556  0.6666667  )
        90        Ga     tau(  90) = (  0.5555556  0.4444444  0.8333333  )
        91        N      tau(  91) = (  0.4444444  0.5555556  0.7921273  )
        92        N      tau(  92) = (  0.5555556  0.4444444  0.9587940  )
        93        Ga     tau(  93) = (  0.7777778  0.5555556  0.6666667  )
        94        Ga     tau(  94) = (  0.8888889  0.4444444  0.8333333  )
        95        N      tau(  95) = (  0.7777778  0.5555556  0.7921273  )
        96        N      tau(  96) = (  0.8888889  0.4444444  0.9587940  )
        97        Ga     tau(  97) = (  0.1111111  0.8888889  0.6666667  )
        98        Ga     tau(  98) = (  0.2222222  0.7777778  0.8333333  )
        99        N      tau(  99) = (  0.1111111  0.8888889  0.7921273  )
       100        N      tau( 100) = (  0.2222222  0.7777778  0.9587940  )
       101        Ga     tau( 101) = (  0.4444444  0.8888889  0.6666667  )
       102        Ga     tau( 102) = (  0.5555556  0.7777778  0.8333333  )
       103        N      tau( 103) = (  0.4444444  0.8888889  0.7921273  )
       104        N      tau( 104) = (  0.5555556  0.7777778  0.9587940  )
       105        Ga     tau( 105) = (  0.7777778  0.8888889  0.6666667  )
       106        Ga     tau( 106) = (  0.8888889  0.7777778  0.8333333  )
       107        N      tau( 107) = (  0.7777778  0.8888889  0.7921273  )
       108        N      tau( 108) = (  0.8888889  0.7777778  0.9587940  )

     number of k points=     2
                       cart. coord. in units 2pi/alat
        k(    1) = (   0.2500000   0.4330127  -0.3066667), wk =   1.0000000
        k(    2) = (   0.2500000  -0.1443376  -0.3066667), wk =   1.0000000

                       cryst. coord.
        k(    1) = (   0.2500000   0.2500000  -0.5000000), wk =   1.0000000
        k(    2) = (   0.2500000  -0.2500000  -0.5000000), wk =   1.0000000

     Dense  grid:  2685887 G-vectors     FFT dimensions: ( 160, 160, 256)

     Smooth grid:   679695 G-vectors     FFT dimensions: ( 100, 100, 160)

     Dynamical RAM for                 wfc:      55.41 MB

     Dynamical RAM for     wfc (w. buffer):     166.24 MB

     Dynamical RAM for           str. fact:       6.83 MB

     Dynamical RAM for           local pot:       0.00 MB

     Dynamical RAM for          nlocal pot:     151.66 MB

     Dynamical RAM for                qrad:       4.24 MB

     Dynamical RAM for          rho,v,vnew:      23.14 MB

     Dynamical RAM for               rhoin:       7.71 MB

     Dynamical RAM for            rho*nmix:      54.64 MB

     Dynamical RAM for           G-vectors:      13.24 MB

     Dynamical RAM for          h,s,v(r/c):       5.35 MB

     Dynamical RAM for          <psi|beta>:      10.99 MB

     Dynamical RAM for                 psi:     110.83 MB

     Dynamical RAM for                hpsi:     110.83 MB

     Dynamical RAM for                spsi:     110.83 MB

     Dynamical RAM for      wfcinit/wfcrot:     162.94 MB

     Dynamical RAM for           addusdens:     819.67 MB

     Dynamical RAM for          addusforce:    1183.61 MB

     Dynamical RAM for         addusstress:     686.47 MB

     Estimated static dynamical RAM per process >     404.79 MB

     Estimated max dynamical RAM per process >       1.60 GB

     Estimated total dynamical RAM >      19.25 GB

     Initial potential from superposition of free atoms

     starting charge     971.8401, renormalised to     972.0000
     Starting wfcs are  702 randomized atomic wfcs
     Checking if some PAW data can be deallocated... 

     total cpu time spent up to now is       27.8 secs

     Self-consistent Calculation

     iteration #  1     ecut=    70.00 Ry     beta= 0.70
     Davidson diagonalization with overlap

---- Real-time Memory Report at c_bands before calling an iterative solver
          1039 MiB given to the printing process from OS
             0 MiB allocation reported by mallinfo(arena+hblkhd)
         34468 MiB available memory on the node where the printing process lives
------------------
     ethr =  1.00E-02,  avg # of iterations =  2.0

     total cpu time spent up to now is       81.3 secs

     total energy              =  -16514.90042804 Ry
     estimated scf accuracy    <      30.34193337 Ry

     iteration #  2     ecut=    70.00 Ry     beta= 0.70
     Davidson diagonalization with overlap

---- Real-time Memory Report at c_bands before calling an iterative solver
          1501 MiB given to the printing process from OS
             0 MiB allocation reported by mallinfo(arena+hblkhd)
         33825 MiB available memory on the node where the printing process lives
------------------
     ethr =  3.12E-03,  avg # of iterations =  6.0

     total cpu time spent up to now is      168.9 secs

     total energy              =  -16527.25225943 Ry
     estimated scf accuracy    <      38.87369018 Ry

     iteration #  3     ecut=    70.00 Ry     beta= 0.70
     Davidson diagonalization with overlap

---- Real-time Memory Report at c_bands before calling an iterative solver
          1577 MiB given to the printing process from OS
             0 MiB allocation reported by mallinfo(arena+hblkhd)
         33323 MiB available memory on the node where the printing process lives
------------------
     ethr =  3.12E-03,  avg # of iterations =  3.0

     total cpu time spent up to now is      229.8 secs

     total energy              =  -16534.32781841 Ry
     estimated scf accuracy    <       0.86719854 Ry

     iteration #  4     ecut=    70.00 Ry     beta= 0.70
     Davidson diagonalization with overlap

---- Real-time Memory Report at c_bands before calling an iterative solver
          1587 MiB given to the printing process from OS
             0 MiB allocation reported by mallinfo(arena+hblkhd)
         33200 MiB available memory on the node where the printing process lives
------------------
     ethr =  8.92E-05,  avg # of iterations =  9.0

     total cpu time spent up to now is      350.9 secs

     total energy              =  -16535.54487520 Ry
     estimated scf accuracy    <       0.33300366 Ry

     iteration #  5     ecut=    70.00 Ry     beta= 0.70
     Davidson diagonalization with overlap

---- Real-time Memory Report at c_bands before calling an iterative solver
          1603 MiB given to the printing process from OS
             0 MiB allocation reported by mallinfo(arena+hblkhd)
         33090 MiB available memory on the node where the printing process lives
------------------
     c_bands:  1 eigenvalues not converged
     ethr =  3.43E-05,  avg # of iterations = 27.0

     total cpu time spent up to now is      493.4 secs

     total energy              =  -16535.92791145 Ry
     estimated scf accuracy    <       1.68402964 Ry

     iteration #  6     ecut=    70.00 Ry     beta= 0.70
     Davidson diagonalization with overlap

---- Real-time Memory Report at c_bands before calling an iterative solver
          1665 MiB given to the printing process from OS
             0 MiB allocation reported by mallinfo(arena+hblkhd)
         32627 MiB available memory on the node where the printing process lives
------------------
     c_bands:  3 eigenvalues not converged
     ethr =  3.43E-05,  avg # of iterations = 19.0

     total cpu time spent up to now is      581.6 secs

     total energy              =  -16535.68814384 Ry
     estimated scf accuracy    <       1.29612391 Ry

     iteration #  7     ecut=    70.00 Ry     beta= 0.70
     Davidson diagonalization with overlap

---- Real-time Memory Report at c_bands before calling an iterative solver
          1669 MiB given to the printing process from OS
             0 MiB allocation reported by mallinfo(arena+hblkhd)
         32606 MiB available memory on the node where the printing process lives
------------------
     ethr =  3.43E-05,  avg # of iterations =  4.0

     total cpu time spent up to now is      643.5 secs

     total energy              =  -16535.64720163 Ry
     estimated scf accuracy    <       0.47693382 Ry

     iteration #  8     ecut=    70.00 Ry     beta= 0.70
     Davidson diagonalization with overlap

---- Real-time Memory Report at c_bands before calling an iterative solver
          1687 MiB given to the printing process from OS
             0 MiB allocation reported by mallinfo(arena+hblkhd)
         32455 MiB available memory on the node where the printing process lives
------------------
     ethr =  3.43E-05,  avg # of iterations =  2.0

     total cpu time spent up to now is      698.8 secs

     total energy              =  -16535.57713539 Ry
     estimated scf accuracy    <       0.21666471 Ry

     iteration #  9     ecut=    70.00 Ry     beta= 0.70
     Davidson diagonalization with overlap

---- Real-time Memory Report at c_bands before calling an iterative solver
          1688 MiB given to the printing process from OS
             0 MiB allocation reported by mallinfo(arena+hblkhd)
         32413 MiB available memory on the node where the printing process lives
------------------
     ethr =  2.23E-05,  avg # of iterations =  4.0

     total cpu time spent up to now is      761.4 secs

     total energy              =  -16535.61153153 Ry
     estimated scf accuracy    <       0.00899622 Ry

     iteration # 10     ecut=    70.00 Ry     beta= 0.70
     Davidson diagonalization with overlap

---- Real-time Memory Report at c_bands before calling an iterative solver
          1691 MiB given to the printing process from OS
             0 MiB allocation reported by mallinfo(arena+hblkhd)
         32467 MiB available memory on the node where the printing process lives
------------------
     c_bands:  5 eigenvalues not converged
     ethr =  9.26E-07,  avg # of iterations = 16.0

     total cpu time spent up to now is      940.2 secs

     total energy              =  -16535.62406934 Ry
     estimated scf accuracy    <       0.00951533 Ry

     iteration # 11     ecut=    70.00 Ry     beta= 0.70
     Davidson diagonalization with overlap

---- Real-time Memory Report at c_bands before calling an iterative solver
          1696 MiB given to the printing process from OS
             0 MiB allocation reported by mallinfo(arena+hblkhd)
         32256 MiB available memory on the node where the printing process lives
------------------
     ethr =  9.26E-07,  avg # of iterations =  9.5

     total cpu time spent up to now is      996.4 secs

     total energy              =  -16535.62425644 Ry
     estimated scf accuracy    <       0.00944758 Ry

     iteration # 12     ecut=    70.00 Ry     beta= 0.70
     Davidson diagonalization with overlap

---- Real-time Memory Report at c_bands before calling an iterative solver
          1718 MiB given to the printing process from OS
             0 MiB allocation reported by mallinfo(arena+hblkhd)
         32242 MiB available memory on the node where the printing process lives
------------------
     ethr =  9.26E-07,  avg # of iterations =  1.0

     total cpu time spent up to now is     1044.4 secs

     total energy              =  -16535.62403108 Ry
     estimated scf accuracy    <       0.00793746 Ry

     iteration # 13     ecut=    70.00 Ry     beta= 0.70
     Davidson diagonalization with overlap

---- Real-time Memory Report at c_bands before calling an iterative solver
          1722 MiB given to the printing process from OS
             0 MiB allocation reported by mallinfo(arena+hblkhd)
         32197 MiB available memory on the node where the printing process lives
------------------
     ethr =  8.17E-07,  avg # of iterations =  2.0

     total cpu time spent up to now is     1100.2 secs

     total energy              =  -16535.62428977 Ry
     estimated scf accuracy    <       0.00438431 Ry

     iteration # 14     ecut=    70.00 Ry     beta= 0.70
     Davidson diagonalization with overlap

---- Real-time Memory Report at c_bands before calling an iterative solver
          1722 MiB given to the printing process from OS
             0 MiB allocation reported by mallinfo(arena+hblkhd)
         32133 MiB available memory on the node where the printing process lives
------------------
     ethr =  4.51E-07,  avg # of iterations =  1.0

     total cpu time spent up to now is     1146.7 secs

     total energy              =  -16535.62371264 Ry
     estimated scf accuracy    <       0.00403028 Ry

     iteration # 15     ecut=    70.00 Ry     beta= 0.70
     Davidson diagonalization with overlap

---- Real-time Memory Report at c_bands before calling an iterative solver
          1722 MiB given to the printing process from OS
             0 MiB allocation reported by mallinfo(arena+hblkhd)
         32060 MiB available memory on the node where the printing process lives
------------------
     ethr =  4.15E-07,  avg # of iterations =  1.5

     total cpu time spent up to now is     1196.0 secs

     total energy              =  -16535.62366520 Ry
     estimated scf accuracy    <       0.00168106 Ry

     iteration # 16     ecut=    70.00 Ry     beta= 0.70
     Davidson diagonalization with overlap

---- Real-time Memory Report at c_bands before calling an iterative solver
          1722 MiB given to the printing process from OS
             0 MiB allocation reported by mallinfo(arena+hblkhd)
         32113 MiB available memory on the node where the printing process lives
------------------
     ethr =  1.73E-07,  avg # of iterations =  2.0

     total cpu time spent up to now is     1249.2 secs

     total energy              =  -16535.62347018 Ry
     estimated scf accuracy    <       0.00102379 Ry

     iteration # 17     ecut=    70.00 Ry     beta= 0.70
     Davidson diagonalization with overlap

---- Real-time Memory Report at c_bands before calling an iterative solver
          1722 MiB given to the printing process from OS
             0 MiB allocation reported by mallinfo(arena+hblkhd)
         32116 MiB available memory on the node where the printing process lives
------------------
     ethr =  1.05E-07,  avg # of iterations =  7.5

     total cpu time spent up to now is     1321.3 secs

     total energy              =  -16535.62369546 Ry
     estimated scf accuracy    <       0.00004126 Ry

     iteration # 18     ecut=    70.00 Ry     beta= 0.70
     Davidson diagonalization with overlap

---- Real-time Memory Report at c_bands before calling an iterative solver
          1730 MiB given to the printing process from OS
             0 MiB allocation reported by mallinfo(arena+hblkhd)
         31991 MiB available memory on the node where the printing process lives
------------------
     ethr =  4.24E-09,  avg # of iterations = 19.5

     total cpu time spent up to now is     1620.5 secs

     total energy              =  -16535.62388812 Ry
     estimated scf accuracy    <       0.00016609 Ry

     iteration # 19     ecut=    70.00 Ry     beta= 0.70
     Davidson diagonalization with overlap

---- Real-time Memory Report at c_bands before calling an iterative solver
          1733 MiB given to the printing process from OS
             0 MiB allocation reported by mallinfo(arena+hblkhd)
         32022 MiB available memory on the node where the printing process lives
------------------
     ethr =  4.24E-09,  avg # of iterations =  1.5

     total cpu time spent up to now is     1670.1 secs

     total energy              =  -16535.62384504 Ry
     estimated scf accuracy    <       0.00011165 Ry

     iteration # 20     ecut=    70.00 Ry     beta= 0.70
     Davidson diagonalization with overlap

---- Real-time Memory Report at c_bands before calling an iterative solver
          1733 MiB given to the printing process from OS
             0 MiB allocation reported by mallinfo(arena+hblkhd)
         32044 MiB available memory on the node where the printing process lives
------------------
     ethr =  4.24E-09,  avg # of iterations =  5.5

     total cpu time spent up to now is     1773.9 secs

     total energy              =  -16535.62387167 Ry
     estimated scf accuracy    <       0.00001017 Ry

     iteration # 21     ecut=    70.00 Ry     beta= 0.70
     Davidson diagonalization with overlap

---- Real-time Memory Report at c_bands before calling an iterative solver
          1736 MiB given to the printing process from OS
             0 MiB allocation reported by mallinfo(arena+hblkhd)
         31922 MiB available memory on the node where the printing process lives
------------------
     ethr =  1.05E-09,  avg # of iterations =  7.0

     total cpu time spent up to now is     1861.7 secs

     total energy              =  -16535.62386831 Ry
     estimated scf accuracy    <       0.00002177 Ry

     iteration # 22     ecut=    70.00 Ry     beta= 0.70
     Davidson diagonalization with overlap

---- Real-time Memory Report at c_bands before calling an iterative solver
          1746 MiB given to the printing process from OS
             0 MiB allocation reported by mallinfo(arena+hblkhd)
         31875 MiB available memory on the node where the printing process lives
------------------
     ethr =  1.05E-09,  avg # of iterations =  3.5

     total cpu time spent up to now is     1936.3 secs

     total energy              =  -16535.62387039 Ry
     estimated scf accuracy    <       0.00000040 Ry

     iteration # 23     ecut=    70.00 Ry     beta= 0.70
     Davidson diagonalization with overlap

---- Real-time Memory Report at c_bands before calling an iterative solver
          1750 MiB given to the printing process from OS
             0 MiB allocation reported by mallinfo(arena+hblkhd)
         31804 MiB available memory on the node where the printing process lives
------------------
     ethr =  4.12E-11,  avg # of iterations = 10.5

     total cpu time spent up to now is     2123.7 secs

     total energy              =  -16535.62387128 Ry
     estimated scf accuracy    <       0.00000013 Ry

     iteration # 24     ecut=    70.00 Ry     beta= 0.70
     Davidson diagonalization with overlap

---- Real-time Memory Report at c_bands before calling an iterative solver
          1750 MiB given to the printing process from OS
             0 MiB allocation reported by mallinfo(arena+hblkhd)
         32028 MiB available memory on the node where the printing process lives
------------------
     ethr =  1.30E-11,  avg # of iterations =  5.0

     total cpu time spent up to now is     2196.3 secs

     total energy              =  -16535.62387130 Ry
     estimated scf accuracy    <       0.00000002 Ry

     iteration # 25     ecut=    70.00 Ry     beta= 0.70
     Davidson diagonalization with overlap

---- Real-time Memory Report at c_bands before calling an iterative solver
          1750 MiB given to the printing process from OS
             0 MiB allocation reported by mallinfo(arena+hblkhd)
         31913 MiB available memory on the node where the printing process lives
------------------
     ethr =  1.67E-12,  avg # of iterations =  8.5

     total cpu time spent up to now is     2333.4 secs

     total energy              =  -16535.62387132 Ry
     estimated scf accuracy    <       0.00000002 Ry

     iteration # 26     ecut=    70.00 Ry     beta= 0.70
     Davidson diagonalization with overlap

---- Real-time Memory Report at c_bands before calling an iterative solver
          1750 MiB given to the printing process from OS
             0 MiB allocation reported by mallinfo(arena+hblkhd)
         31720 MiB available memory on the node where the printing process lives
------------------
     ethr =  1.67E-12,  avg # of iterations =  2.0

     total cpu time spent up to now is     2387.5 secs

     End of self-consistent calculation

          k = 0.2500 0.4330-0.3067 ( 84950 PWs)   bands (ev):

    -6.2227  -6.2227  -6.0382  -6.0382  -6.0382  -6.0382  -5.8542  -5.8542
    -5.7485  -5.7485  -5.7485  -5.7485  -5.7307  -5.7307  -5.7307  -5.7307
    -5.6519  -5.6518  -5.6518  -5.6518  -5.6463  -5.6463  -5.6402  -5.6402
    -5.6156  -5.6156  -5.6019  -5.6019  -5.6019  -5.6019  -5.5916  -5.5916
    -5.5916  -5.5916  -5.5554  -5.5554  -5.5553  -5.5553  -5.5500  -5.5500
    -5.5430  -5.5430  -5.5429  -5.5429  -5.5394  -5.5394  -5.5331  -5.5331
    -5.5298  -5.5298  -5.5298  -5.5298  -5.5297  -5.5297  -4.1759  -4.1759
    -4.1613  -4.1613  -4.1573  -4.1572  -4.1539  -4.1539  -4.1539  -4.1539
    -4.1532  -4.1532  -4.1501  -4.1501  -4.1430  -4.1430  -4.1430  -4.1430
    -4.1421  -4.1421  -4.1421  -4.1421  -4.1405  -4.1405  -4.1404  -4.1404
    -4.1374  -4.1374  -4.1335  -4.1335  -4.1335  -4.1335  -4.1294  -4.1294
    -4.1294  -4.1294  -4.1190  -4.1189  -4.1156  -4.1156  -4.1153  -4.1153
    -4.1153  -4.1153  -4.1133  -4.1133  -4.1072  -4.1072  -4.1072  -4.1072
    -4.1069  -4.1069  -4.1068  -4.1068  -4.1063  -4.1063  -4.1063  -4.1063
    -4.0966  -4.0965  -4.0964  -4.0964  -4.0954  -4.0954  -4.0953  -4.0953
    -4.0830  -4.0830  -4.0771  -4.0771  -4.0755  -4.0755  -4.0755  -4.0755
    -4.0634  -4.0634  -4.0634  -4.0634  -4.0574  -4.0574  -4.0495  -4.0495
    -4.0464  -4.0464  -4.0464  -4.0464  -4.0396  -4.0396  -4.0396  -4.0396
    -4.0391  -4.0391  -4.0391  -4.0391  -4.0299  -4.0299  -4.0277  -4.0276
    -4.0210  -4.0210  -4.0209  -4.0209  -4.0102  -4.0102  -4.0061  -4.0061
    -4.0060  -4.0060  -4.0008  -4.0008  -4.0008  -4.0008  -3.9894  -3.9893
    -3.9874  -3.9874  -3.9874  -3.9874  -3.9810  -3.9810  -3.9810  -3.9810
    -3.9788  -3.9788  -3.9788  -3.9788  -3.9777  -3.9777  -3.9733  -3.9733
    -3.9709  -3.9709  -3.9707  -3.9707  -3.9707  -3.9707  -3.9665  -3.9665
    -3.9659  -3.9659  -3.9631  -3.9630  -3.9630  -3.9630  -3.9578  -3.9578
    -3.9577  -3.9577  -3.9573  -3.9573  -3.9560  -3.9559  -3.9409  -3.9409
    -3.9386  -3.9386  -3.9386  -3.9386  -3.9373  -3.9373  -3.9372  -3.9372
    -3.9294  -3.9294  -3.9268  -3.9268  -3.9268  -3.9268  -3.9098  -3.9098
    -3.9071  -3.9071  -3.9071  -3.9071  -3.9065  -3.9065  -3.9045  -3.9045
    -3.9045  -3.9045  -3.9042  -3.9042  -3.9042  -3.9042  -3.9012  -3.9012
    -3.8986  -3.8986  -3.8958  -3.8958  -3.8938  -3.8938  -3.8917  -3.8917
    -3.8905  -3.8905  -3.8905  -3.8905  -3.8875  -3.8875  -3.8875  -3.8875
    -3.8873  -3.8873  -3.8873  -3.8873  -3.8812  -3.8811  -3.8805  -3.8805
    -3.8805  -3.8805  -3.8729  -3.8729  -3.8634  -3.8634  -3.8633  -3.8633
    -3.8496  -3.8496  -3.8496  -3.8496  -3.6578  -3.6578  -3.4561  -3.4561
    -3.4561  -3.4561  -3.2793  -3.2793  -3.2792  -3.2792  -2.8579  -2.8578
    -2.8421  -2.8421  -2.8421  -2.8421  -2.7492  -2.7492  -2.7492  -2.7492
    -2.7319  -2.7319  -2.5479  -2.5479  -2.5478  -2.5478  -2.5450  -2.5450
    -2.5095  -2.5095  -2.4977  -2.4977  -2.4977  -2.4976  -2.3589  -2.3589
    -2.1679  -2.1679  -2.1679  -2.1679  -2.1514  -2.1514  -2.1514  -2.1514
    -2.1396  -2.1395  -2.0391  -2.0391   2.9127   2.9127   2.9127   2.9127
     2.9456   2.9456   2.9456   2.9456   3.0078   3.0078   3.0756   3.0757
     3.0955   3.0955   3.3531   3.3531   3.3531   3.3531   3.4348   3.4348
     3.4579   3.4580   3.5004   3.5004   3.5004   3.5004   3.8294   3.8294
     3.8294   3.8294   3.8761   3.8761   3.8865   3.8865   3.8866   3.8866
     4.1225   4.1225   4.6510   4.6510   4.6511   4.6511   5.0142   5.0142
     5.0142   5.0142   5.3131   5.3131   5.3541   5.3541   5.3722   5.3722
     5.4715   5.4715   5.4715   5.4715   5.5715   5.5715   5.5715   5.5715
     5.8247   5.8247   5.9940   5.9940   6.0803   6.0803   6.0803   6.0803
     6.1700   6.1700   6.2065   6.2065   6.2066   6.2066   6.2290   6.2290
     6.4573   6.4573   6.4573   6.4573   6.4742   6.4742   6.4743   6.4743
     6.7114   6.7114   6.7114   6.7114   6.9288   6.9288   6.9288   6.9288
     7.0442   7.0443   7.1324   7.1324   7.1438   7.1438   7.3461   7.3461
     7.3855   7.3855   7.3855   7.3855   7.3952   7.3952   7.4576   7.4576
     7.4576   7.4576   7.5096   7.5096   7.5097   7.5097   7.5162   7.5162
     7.5162   7.5162   7.6002   7.6002   7.6002   7.6002   7.6529   7.6529
     7.6529   7.6529   7.6658   7.6658   7.6667   7.6667   7.7188   7.7188
     7.8776   7.8776   7.9084   7.9084   7.9084   7.9084   7.9838   7.9839
     8.0132   8.0132   8.0132   8.0132   8.0664   8.0665   8.0665   8.0665
     8.4066   8.4066   8.6039   8.6039   8.6039   8.6039   8.6757   8.6757
     8.6757   8.6757   8.8566   8.8566   8.9338   8.9338  12.6094  12.6095
    13.2939  13.2940  13.2940  13.2940  13.8780  13.8780  13.8780  13.8780
    14.0568  14.0568  14.0568  14.0568  14.1163  14.1163  14.4549  14.4550
    14.4860  14.4860  14.5265  14.5265  14.5303  14.5442  14.5503  14.5510
    14.5511

     occupation numbers 
     1.0000   1.0000   1.0000   1.0000   1.0000   1.0000   1.0000   1.0000
     1.0000   1.0000   1.0000   1.0000   1.0000   1.0000   1.0000   1.0000
     1.0000   1.0000   1.0000   1.0000   1.0000   1.0000   1.0000   1.0000
     1.0000   1.0000   1.0000   1.0000   1.0000   1.0000   1.0000   1.0000
     1.0000   1.0000   1.0000   1.0000   1.0000   1.0000   1.0000   1.0000
     1.0000   1.0000   1.0000   1.0000   1.0000   1.0000   1.0000   1.0000
     1.0000   1.0000   1.0000   1.0000   1.0000   1.0000   1.0000   1.0000
     1.0000   1.0000   1.0000   1.0000   1.0000   1.0000   1.0000   1.0000
     1.0000   1.0000   1.0000   1.0000   1.0000   1.0000   1.0000   1.0000
     1.0000   1.0000   1.0000   1.0000   1.0000   1.0000   1.0000   1.0000
     1.0000   1.0000   1.0000   1.0000   1.0000   1.0000   1.0000   1.0000
     1.0000   1.0000   1.0000   1.0000   1.0000   1.0000   1.0000   1.0000
     1.0000   1.0000   1.0000   1.0000   1.0000   1.0000   1.0000   1.0000
     1.0000   1.0000   1.0000   1.0000   1.0000   1.0000   1.0000   1.0000
     1.0000   1.0000   1.0000   1.0000   1.0000   1.0000   1.0000   1.0000
     1.0000   1.0000   1.0000   1.0000   1.0000   1.0000   1.0000   1.0000
     1.0000   1.0000   1.0000   1.0000   1.0000   1.0000   1.0000   1.0000
     1.0000   1.0000   1.0000   1.0000   1.0000   1.0000   1.0000   1.0000
     1.0000   1.0000   1.0000   1.0000   1.0000   1.0000   1.0000   1.0000
     1.0000   1.0000   1.0000   1.0000   1.0000   1.0000   1.0000   1.0000
     1.0000   1.0000   1.0000   1.0000   1.0000   1.0000   1.0000   1.0000
     1.0000   1.0000   1.0000   1.0000   1.0000   1.0000   1.0000   1.0000
     1.0000   1.0000   1.0000   1.0000   1.0000   1.0000   1.0000   1.0000
     1.0000   1.0000   1.0000   1.0000   1.0000   1.0000   1.0000   1.0000
     1.0000   1.0000   1.0000   1.0000   1.0000   1.0000   1.0000   1.0000
     1.0000   1.0000   1.0000   1.0000   1.0000   1.0000   1.0000   1.0000
     1.0000   1.0000   1.0000   1.0000   1.0000   1.0000   1.0000   1.0000
     1.0000   1.0000   1.0000   1.0000   1.0000   1.0000   1.0000   1.0000
     1.0000   1.0000   1.0000   1.0000   1.0000   1.0000   1.0000   1.0000
     1.0000   1.0000   1.0000   1.0000   1.0000   1.0000   1.0000   1.0000
     1.0000   1.0000   1.0000   1.0000   1.0000   1.0000   1.0000   1.0000
     1.0000   1.0000   1.0000   1.0000   1.0000   1.0000   1.0000   1.0000
     1.0000   1.0000   1.0000   1.0000   1.0000   1.0000   1.0000   1.0000
     1.0000   1.0000   1.0000   1.0000   1.0000   1.0000   1.0000   1.0000
     1.0000   1.0000   1.0000   1.0000   1.0000   1.0000   1.0000   1.0000
     1.0000   1.0000   1.0000   1.0000   1.0000   1.0000   1.0000   1.0000
     1.0000   1.0000   1.0000   1.0000   1.0000   1.0000   1.0000   1.0000
     1.0000   1.0000   1.0000   1.0000   1.0000   1.0000   1.0000   1.0000
     1.0000   1.0000   1.0000   1.0000   1.0000   1.0000   1.0000   1.0000
     1.0000   1.0000   1.0000   1.0000   1.0000   1.0000   1.0000   1.0000
     1.0000   1.0000   1.0000   1.0000   1.0000   1.0000   1.0000   1.0000
     1.0000   1.0000   1.0000   1.0000   1.0000   1.0000   1.0000   1.0000
     1.0000   1.0000   1.0000   1.0000   1.0000   1.0000   1.0000   1.0000
     1.0000   1.0000   1.0000   1.0000   1.0000   1.0000   1.0000   1.0000
     1.0000   1.0000   1.0000   1.0000   1.0000   1.0000   1.0000   1.0000
     1.0000   1.0000   1.0000   1.0000   1.0000   1.0000   1.0000   1.0000
     1.0000   1.0000   1.0000   1.0000   1.0000   1.0000   1.0000   1.0000
     1.0000   1.0000   1.0000   1.0000   1.0000   1.0000   1.0000   1.0000
     1.0000   1.0000   1.0000   1.0000   1.0000   1.0000   1.0000   1.0000
     1.0000   1.0000   1.0000   1.0000   1.0000   1.0000   1.0000   1.0000
     1.0000   1.0000   1.0000   1.0000   1.0000   1.0000   1.0000   1.0000
     1.0000   1.0000   1.0000   1.0000   1.0000   1.0000   1.0000   1.0000
     1.0000   1.0000   1.0000   1.0000   1.0000   1.0000   1.0000   1.0000
     1.0000   1.0000   1.0000   1.0000   1.0000   1.0000   1.0000   1.0000
     1.0000   1.0000   1.0000   1.0000   1.0000   1.0000   1.0000   1.0000
     1.0000   1.0000   1.0000   1.0000   1.0000   1.0000   1.0000   1.0000
     1.0000   1.0000   1.0000   1.0000   1.0000   1.0000   1.0000   1.0000
     1.0000   1.0000   1.0000   1.0000   1.0000   1.0000   1.0000   1.0000
     1.0000   1.0000   1.0000   1.0000   1.0000   1.0000   1.0000   1.0000
     1.0000   1.0000   1.0000   1.0000   1.0000   1.0000   1.0000   1.0000
     1.0000   1.0000   1.0000   1.0000   1.0000   1.0000   0.0000   0.0000
     0.0000   0.0000   0.0000   0.0000   0.0000   0.0000   0.0000   0.0000
     0.0000   0.0000   0.0000   0.0000   0.0000   0.0000   0.0000   0.0000
     0.0000   0.0000   0.0000   0.0000   0.0000   0.0000   0.0000   0.0000
     0.0000

          k = 0.2500-0.1443-0.3067 ( 84970 PWs)   bands (ev):

    -6.3345  -6.3345  -5.9657  -5.9657  -5.9230  -5.9230  -5.8494  -5.8494
    -5.8493  -5.8493  -5.7154  -5.7154  -5.7153  -5.7153  -5.7097  -5.7097
    -5.6874  -5.6874  -5.6766  -5.6766  -5.6498  -5.6498  -5.6498  -5.6498
    -5.5888  -5.5888  -5.5888  -5.5888  -5.5864  -5.5863  -5.5848  -5.5848
    -5.5848  -5.5848  -5.5720  -5.5720  -5.5631  -5.5631  -5.5631  -5.5631
    -5.5395  -5.5395  -5.5394  -5.5394  -5.5348  -5.5348  -5.5347  -5.5347
    -5.5342  -5.5341  -5.5295  -5.5295  -5.5295  -5.5295  -4.1877  -4.1877
    -4.1772  -4.1772  -4.1664  -4.1664  -4.1663  -4.1663  -4.1628  -4.1628
    -4.1581  -4.1581  -4.1521  -4.1521  -4.1488  -4.1488  -4.1462  -4.1462
    -4.1387  -4.1387  -4.1378  -4.1378  -4.1378  -4.1378  -4.1376  -4.1376
    -4.1376  -4.1376  -4.1310  -4.1309  -4.1289  -4.1288  -4.1287  -4.1287
    -4.1271  -4.1271  -4.1271  -4.1271  -4.1268  -4.1268  -4.1267  -4.1267
    -4.1266  -4.1266  -4.1208  -4.1208  -4.1208  -4.1208  -4.1187  -4.1187
    -4.1187  -4.1187  -4.1105  -4.1104  -4.0906  -4.0906  -4.0906  -4.0906
    -4.0894  -4.0894  -4.0859  -4.0859  -4.0735  -4.0735  -4.0735  -4.0735
    -4.0681  -4.0681  -4.0681  -4.0681  -4.0613  -4.0613  -4.0613  -4.0613
    -4.0589  -4.0589  -4.0589  -4.0589  -4.0493  -4.0493  -4.0493  -4.0493
    -4.0482  -4.0482  -4.0482  -4.0482  -4.0473  -4.0472  -4.0468  -4.0468
    -4.0387  -4.0387  -4.0301  -4.0301  -4.0301  -4.0301  -4.0230  -4.0230
    -4.0230  -4.0230  -4.0112  -4.0112  -3.9996  -3.9996  -3.9996  -3.9996
    -3.9930  -3.9930  -3.9914  -3.9914  -3.9914  -3.9914  -3.9900  -3.9900
    -3.9900  -3.9900  -3.9875  -3.9875  -3.9875  -3.9875  -3.9832  -3.9832
    -3.9802  -3.9802  -3.9802  -3.9802  -3.9744  -3.9743  -3.9698  -3.9698
    -3.9698  -3.9698  -3.9646  -3.9646  -3.9625  -3.9625  -3.9625  -3.9625
    -3.9572  -3.9572  -3.9572  -3.9572  -3.9565  -3.9564  -3.9546  -3.9546
    -3.9517  -3.9517  -3.9517  -3.9517  -3.9463  -3.9463  -3.9463  -3.9463
    -3.9462  -3.9462  -3.9462  -3.9462  -3.9443  -3.9443  -3.9418  -3.9418
    -3.9409  -3.9409  -3.9311  -3.9311  -3.9241  -3.9241  -3.9240  -3.9240
    -3.9130  -3.9130  -3.9130  -3.9130  -3.9098  -3.9098  -3.9056  -3.9056
    -3.9047  -3.9047  -3.9047  -3.9047  -3.9014  -3.9014  -3.9013  -3.9013
    -3.8991  -3.8991  -3.8991  -3.8991  -3.8989  -3.8989  -3.8989  -3.8988
    -3.8908  -3.8907  -3.8886  -3.8886  -3.8875  -3.8875  -3.8875  -3.8875
    -3.8802  -3.8802  -3.8764  -3.8764  -3.8764  -3.8764  -3.8760  -3.8759
    -3.8692  -3.8692  -3.8686  -3.8686  -3.8686  -3.8686  -3.8577  -3.8577
    -3.8048  -3.8048  -3.7641  -3.7641  -3.6102  -3.6102  -3.6101  -3.6101
    -3.3567  -3.3567  -3.1865  -3.1865  -3.1864  -3.1864  -3.1477  -3.1477
    -3.1477  -3.1477  -2.9969  -2.9969  -2.8321  -2.8320  -2.7774  -2.7774
    -2.7774  -2.7774  -2.6535  -2.6535  -2.4680  -2.4680  -2.4657  -2.4657
    -2.4657  -2.4657  -2.3221  -2.3221  -2.3221  -2.3221  -2.2801  -2.2801
    -2.2801  -2.2801  -2.1614  -2.1613  -2.1537  -2.1537  -2.1537  -2.1537
    -2.0743  -2.0743  -2.0743  -2.0743   2.9416   2.9416   2.9844   2.9844
     3.1256   3.1256   3.1998   3.1998   3.1998   3.1998   3.2431   3.2431
     3.2431   3.2431   3.4236   3.4236   3.4236   3.4236   3.4361   3.4362
     3.4881   3.4881   3.4881   3.4881   3.5181   3.5181   3.5181   3.5181
     3.8931   3.8931   3.8932   3.8932   4.0893   4.0893   4.3010   4.3010
     4.3010   4.3010   4.4005   4.4005   4.4005   4.4005   4.7436   4.7436
     4.7719   4.7719   4.7719   4.7719   5.1048   5.1048   5.1049   5.1049
     5.3683   5.3683   5.3683   5.3683   5.4274   5.4275   5.4343   5.4343
     5.5375   5.5375   5.5525   5.5525   5.5525   5.5525   5.6398   5.6398
     5.6399   5.6399   6.1809   6.1809   6.2962   6.2962   6.2963   6.2963
     6.6141   6.6141   6.6142   6.6142   6.6806   6.6806   6.6806   6.6806
     6.8084   6.8084   6.9920   6.9920   6.9920   6.9920   7.0622   7.0622
     7.0622   7.0622   7.1930   7.1930   7.1930   7.1930   7.2313   7.2313
     7.2313   7.2313   7.2447   7.2447   7.3549   7.3549   7.4346   7.4346
     7.4680   7.4680   7.5418   7.5418   7.5418   7.5418   7.6500   7.6500
     7.6500   7.6500   7.6694   7.6694   7.7789   7.7789   7.7789   7.7789
     7.8174   7.8175   7.8650   7.8650   7.8650   7.8650   8.0148   8.0148
     8.0706   8.0706   8.0710   8.0710   8.0710   8.0710   8.1877   8.1877
     8.2270   8.2271   8.2578   8.2578   8.2578   8.2578   8.3750   8.3750
     8.3803   8.3803   8.3803   8.3803   8.5119   8.5119   8.6381   8.6381
     8.6658   8.6658   8.9986   8.9986   9.1166   9.1166  12.0653  12.0653
    13.3900  13.3901  13.6481  13.6481  13.6873  13.6873  13.7762  13.7762
    13.8091  13.8091  13.8175  13.8175  13.8175  13.8176  14.0281  14.0281
    14.0281  14.0281  14.1003  14.1003  14.1003  14.1003  14.3498  14.3498
    14.4778

     occupation numbers 
     1.0000   1.0000   1.0000   1.0000   1.0000   1.0000   1.0000   1.0000
     1.0000   1.0000   1.0000   1.0000   1.0000   1.0000   1.0000   1.0000
     1.0000   1.0000   1.0000   1.0000   1.0000   1.0000   1.0000   1.0000
     1.0000   1.0000   1.0000   1.0000   1.0000   1.0000   1.0000   1.0000
     1.0000   1.0000   1.0000   1.0000   1.0000   1.0000   1.0000   1.0000
     1.0000   1.0000   1.0000   1.0000   1.0000   1.0000   1.0000   1.0000
     1.0000   1.0000   1.0000   1.0000   1.0000   1.0000   1.0000   1.0000
     1.0000   1.0000   1.0000   1.0000   1.0000   1.0000   1.0000   1.0000
     1.0000   1.0000   1.0000   1.0000   1.0000   1.0000   1.0000   1.0000
     1.0000   1.0000   1.0000   1.0000   1.0000   1.0000   1.0000   1.0000
     1.0000   1.0000   1.0000   1.0000   1.0000   1.0000   1.0000   1.0000
     1.0000   1.0000   1.0000   1.0000   1.0000   1.0000   1.0000   1.0000
     1.0000   1.0000   1.0000   1.0000   1.0000   1.0000   1.0000   1.0000
     1.0000   1.0000   1.0000   1.0000   1.0000   1.0000   1.0000   1.0000
     1.0000   1.0000   1.0000   1.0000   1.0000   1.0000   1.0000   1.0000
     1.0000   1.0000   1.0000   1.0000   1.0000   1.0000   1.0000   1.0000
     1.0000   1.0000   1.0000   1.0000   1.0000   1.0000   1.0000   1.0000
     1.0000   1.0000   1.0000   1.0000   1.0000   1.0000   1.0000   1.0000
     1.0000   1.0000   1.0000   1.0000   1.0000   1.0000   1.0000   1.0000
     1.0000   1.0000   1.0000   1.0000   1.0000   1.0000   1.0000   1.0000
     1.0000   1.0000   1.0000   1.0000   1.0000   1.0000   1.0000   1.0000
     1.0000   1.0000   1.0000   1.0000   1.0000   1.0000   1.0000   1.0000
     1.0000   1.0000   1.0000   1.0000   1.0000   1.0000   1.0000   1.0000
     1.0000   1.0000   1.0000   1.0000   1.0000   1.0000   1.0000   1.0000
     1.0000   1.0000   1.0000   1.0000   1.0000   1.0000   1.0000   1.0000
     1.0000   1.0000   1.0000   1.0000   1.0000   1.0000   1.0000   1.0000
     1.0000   1.0000   1.0000   1.0000   1.0000   1.0000   1.0000   1.0000
     1.0000   1.0000   1.0000   1.0000   1.0000   1.0000   1.0000   1.0000
     1.0000   1.0000   1.0000   1.0000   1.0000   1.0000   1.0000   1.0000
     1.0000   1.0000   1.0000   1.0000   1.0000   1.0000   1.0000   1.0000
     1.0000   1.0000   1.0000   1.0000   1.0000   1.0000   1.0000   1.0000
     1.0000   1.0000   1.0000   1.0000   1.0000   1.0000   1.0000   1.0000
     1.0000   1.0000   1.0000   1.0000   1.0000   1.0000   1.0000   1.0000
     1.0000   1.0000   1.0000   1.0000   1.0000   1.0000   1.0000   1.0000
     1.0000   1.0000   1.0000   1.0000   1.0000   1.0000   1.0000   1.0000
     1.0000   1.0000   1.0000   1.0000   1.0000   1.0000   1.0000   1.0000
     1.0000   1.0000   1.0000   1.0000   1.0000   1.0000   1.0000   1.0000
     1.0000   1.0000   1.0000   1.0000   1.0000   1.0000   1.0000   1.0000
     1.0000   1.0000   1.0000   1.0000   1.0000   1.0000   1.0000   1.0000
     1.0000   1.0000   1.0000   1.0000   1.0000   1.0000   1.0000   1.0000
     1.0000   1.0000   1.0000   1.0000   1.0000   1.0000   1.0000   1.0000
     1.0000   1.0000   1.0000   1.0000   1.0000   1.0000   1.0000   1.0000
     1.0000   1.0000   1.0000   1.0000   1.0000   1.0000   1.0000   1.0000
     1.0000   1.0000   1.0000   1.0000   1.0000   1.0000   1.0000   1.0000
     1.0000   1.0000   1.0000   1.0000   1.0000   1.0000   1.0000   1.0000
     1.0000   1.0000   1.0000   1.0000   1.0000   1.0000   1.0000   1.0000
     1.0000   1.0000   1.0000   1.0000   1.0000   1.0000   1.0000   1.0000
     1.0000   1.0000   1.0000   1.0000   1.0000   1.0000   1.0000   1.0000
     1.0000   1.0000   1.0000   1.0000   1.0000   1.0000   1.0000   1.0000
     1.0000   1.0000   1.0000   1.0000   1.0000   1.0000   1.0000   1.0000
     1.0000   1.0000   1.0000   1.0000   1.0000   1.0000   1.0000   1.0000
     1.0000   1.0000   1.0000   1.0000   1.0000   1.0000   1.0000   1.0000
     1.0000   1.0000   1.0000   1.0000   1.0000   1.0000   1.0000   1.0000
     1.0000   1.0000   1.0000   1.0000   1.0000   1.0000   1.0000   1.0000
     1.0000   1.0000   1.0000   1.0000   1.0000   1.0000   1.0000   1.0000
     1.0000   1.0000   1.0000   1.0000   1.0000   1.0000   1.0000   1.0000
     1.0000   1.0000   1.0000   1.0000   1.0000   1.0000   1.0000   1.0000
     1.0000   1.0000   1.0000   1.0000   1.0000   1.0000   1.0000   1.0000
     1.0000   1.0000   1.0000   1.0000   1.0000   1.0000   1.0000   1.0000
     1.0000   1.0000   1.0000   1.0000   1.0000   1.0000   1.0000   1.0000
     1.0000   1.0000   1.0000   1.0000   1.0000   1.0000   0.0000   0.0000
     0.0000   0.0000   0.0000   0.0000   0.0000   0.0000   0.0000   0.0000
     0.0000   0.0000   0.0000   0.0000   0.0000   0.0000   0.0000   0.0000
     0.0000   0.0000   0.0000   0.0000   0.0000   0.0000   0.0000   0.0000
     0.0000

     highest occupied, lowest unoccupied level (ev):     9.1166   12.0653

!    total energy              =  -16535.62387131 Ry
     total all-electron energy =   -215874.650672 Ry
     estimated scf accuracy    <          7.8E-09 Ry

     The total energy is the sum of the following terms:
     one-electron contribution =   -4988.16003469 Ry
     hartree contribution      =    3544.27436032 Ry
     xc contribution           =   -2385.87485511 Ry
     ewald contribution        =   -6232.26587237 Ry
     one-center paw contrib.   =   -6473.59746946 Ry
      -> PAW hartree energy AE =     789.37040924 Ry
      -> PAW hartree energy PS =    -784.06075922 Ry
      -> PAW xc energy AE      =    -808.91208775 Ry
      -> PAW xc energy PS      =     212.17201353 Ry
      -> total E_H with PAW    =    3549.58401034 Ry
      -> total E_XC with PAW   =   -2982.61492934 Ry

     convergence has been achieved in  26 iterations

     Forces acting on atoms (cartesian axes, Ry/au):

     atom    1 type  1   force =     0.00000000   -0.00000394   -0.00046870
     atom    2 type  1   force =    -0.00000102   -0.00000059   -0.00048618
     atom    3 type  2   force =     0.00000000    0.00000010    0.00048652
     atom    4 type  2   force =    -0.00000003   -0.00000002    0.00048686
     atom    5 type  1   force =     0.00000038    0.00000022   -0.00047000
     atom    6 type  1   force =     0.00000000    0.00000123   -0.00048604
     atom    7 type  2   force =    -0.00000004   -0.00000002    0.00048665
     atom    8 type  2   force =     0.00000000   -0.00000032    0.00048731
     atom    9 type  1   force =    -0.00000038    0.00000022   -0.00047000
     atom   10 type  1   force =     0.00000102   -0.00000059   -0.00048618
     atom   11 type  2   force =     0.00000004   -0.00000002    0.00048665
     atom   12 type  2   force =     0.00000003   -0.00000002    0.00048686
     atom   13 type  1   force =    -0.00000396   -0.00000229   -0.00046292
     atom   14 type  1   force =    -0.00000000   -0.00000245   -0.00048575
     atom   15 type  2   force =     0.00000011    0.00000006    0.00048637
     atom   16 type  2   force =    -0.00000000    0.00000024    0.00048709
     atom   17 type  1   force =     0.00000396   -0.00000229   -0.00046292
     atom   18 type  1   force =     0.00000107   -0.00000062   -0.00048604
     atom   19 type  2   force =    -0.00000011    0.00000006    0.00048637
     atom   20 type  2   force =    -0.00000028    0.00000016    0.00048731
     atom   21 type  1   force =     0.00000000   -0.00000044   -0.00047000
     atom   22 type  1   force =    -0.00000107   -0.00000062   -0.00048604
     atom   23 type  2   force =     0.00000000    0.00000004    0.00048665
     atom   24 type  2   force =     0.00000028    0.00000016    0.00048731
     atom   25 type  1   force =    -0.00000341    0.00000197   -0.00046870
     atom   26 type  1   force =    -0.00000212    0.00000123   -0.00048575
     atom   27 type  2   force =     0.00000009   -0.00000005    0.00048652
     atom   28 type  2   force =     0.00000021   -0.00000012    0.00048709
     atom   29 type  1   force =     0.00000000    0.00000458   -0.00046292
     atom   30 type  1   force =     0.00000212    0.00000123   -0.00048575
     atom   31 type  2   force =     0.00000000   -0.00000013    0.00048637
     atom   32 type  2   force =    -0.00000021   -0.00000012    0.00048709
     atom   33 type  1   force =     0.00000341    0.00000197   -0.00046870
     atom   34 type  1   force =     0.00000000    0.00000118   -0.00048618
     atom   35 type  2   force =    -0.00000009   -0.00000005    0.00048652
     atom   36 type  2   force =     0.00000000    0.00000004    0.00048686
     atom   37 type  1   force =     0.00000000   -0.00000270   -0.00050140
     atom   38 type  1   force =     0.00000081    0.00000047   -0.00049179
     atom   39 type  2   force =     0.00000000    0.00000026    0.00048705
     atom   40 type  2   force =     0.00000015    0.00000009    0.00048676
     atom   41 type  1   force =     0.00000219    0.00000126   -0.00050007
     atom   42 type  1   force =     0.00000000    0.00000364   -0.00049674
     atom   43 type  2   force =     0.00000003    0.00000002    0.00048708
     atom   44 type  2   force =     0.00000000    0.00000004    0.00048645
     atom   45 type  1   force =    -0.00000219    0.00000126   -0.00050007
     atom   46 type  1   force =    -0.00000081    0.00000047   -0.00049179
     atom   47 type  2   force =    -0.00000003    0.00000002    0.00048708
     atom   48 type  2   force =    -0.00000015    0.00000009    0.00048676
     atom   49 type  1   force =    -0.00000529   -0.00000305   -0.00050105
     atom   50 type  1   force =    -0.00000000   -0.00000434   -0.00049359
     atom   51 type  2   force =     0.00000012    0.00000007    0.00048684
     atom   52 type  2   force =     0.00000000    0.00000019    0.00048657
     atom   53 type  1   force =     0.00000529   -0.00000305   -0.00050105
     atom   54 type  1   force =     0.00000316   -0.00000182   -0.00049674
     atom   55 type  2   force =    -0.00000012    0.00000007    0.00048684
     atom   56 type  2   force =     0.00000003   -0.00000002    0.00048645
     atom   57 type  1   force =     0.00000000   -0.00000253   -0.00050007
     atom   58 type  1   force =    -0.00000316   -0.00000182   -0.00049674
     atom   59 type  2   force =     0.00000000   -0.00000003    0.00048708
     atom   60 type  2   force =    -0.00000003   -0.00000002    0.00048645
     atom   61 type  1   force =    -0.00000234    0.00000135   -0.00050140
     atom   62 type  1   force =    -0.00000376    0.00000217   -0.00049359
     atom   63 type  2   force =     0.00000022   -0.00000013    0.00048705
     atom   64 type  2   force =     0.00000016   -0.00000009    0.00048657
     atom   65 type  1   force =     0.00000000    0.00000610   -0.00050105
     atom   66 type  1   force =     0.00000376    0.00000217   -0.00049359
     atom   67 type  2   force =     0.00000000   -0.00000014    0.00048684
     atom   68 type  2   force =    -0.00000016   -0.00000009    0.00048657
     atom   69 type  1   force =     0.00000234    0.00000135   -0.00050140
     atom   70 type  1   force =     0.00000000   -0.00000093   -0.00049179
     atom   71 type  2   force =    -0.00000022   -0.00000013    0.00048705
     atom   72 type  2   force =     0.00000000   -0.00000018    0.00048676
     atom   73 type  1   force =     0.00000000   -0.00000569   -0.00049210
     atom   74 type  1   force =    -0.00000361   -0.00000208   -0.00047890
     atom   75 type  2   force =     0.00000000    0.00000016    0.00048650
     atom   76 type  2   force =     0.00000004    0.00000002    0.00048617
     atom   77 type  1   force =     0.00000043    0.00000025   -0.00049371
     atom   78 type  1   force =     0.00000000    0.00000393   -0.00047963
     atom   79 type  2   force =     0.00000005    0.00000003    0.00048650
     atom   80 type  2   force =     0.00000000   -0.00000036    0.00048566
     atom   81 type  1   force =    -0.00000043    0.00000025   -0.00049371
     atom   82 type  1   force =     0.00000361   -0.00000208   -0.00047890
     atom   83 type  2   force =    -0.00000005    0.00000003    0.00048650
     atom   84 type  2   force =    -0.00000004    0.00000002    0.00048617
     atom   85 type  1   force =    -0.00000508   -0.00000293   -0.00049143
     atom   86 type  1   force =     0.00000000   -0.00000881   -0.00047880
     atom   87 type  2   force =     0.00000017    0.00000010    0.00048645
     atom   88 type  2   force =     0.00000000    0.00000028    0.00048596
     atom   89 type  1   force =     0.00000508   -0.00000293   -0.00049143
     atom   90 type  1   force =     0.00000341   -0.00000197   -0.00047963
     atom   91 type  2   force =    -0.00000017    0.00000010    0.00048645
     atom   92 type  2   force =    -0.00000031    0.00000018    0.00048566
     atom   93 type  1   force =     0.00000000   -0.00000050   -0.00049371
     atom   94 type  1   force =    -0.00000341   -0.00000197   -0.00047963
     atom   95 type  2   force =     0.00000000   -0.00000006    0.00048650
     atom   96 type  2   force =     0.00000031    0.00000018    0.00048566
     atom   97 type  1   force =    -0.00000493    0.00000284   -0.00049210
     atom   98 type  1   force =    -0.00000763    0.00000441   -0.00047880
     atom   99 type  2   force =     0.00000014   -0.00000008    0.00048650
     atom  100 type  2   force =     0.00000024   -0.00000014    0.00048596
     atom  101 type  1   force =     0.00000000    0.00000586   -0.00049143
     atom  102 type  1   force =     0.00000763    0.00000441   -0.00047880
     atom  103 type  2   force =     0.00000000   -0.00000020    0.00048645
     atom  104 type  2   force =    -0.00000024   -0.00000014    0.00048596
     atom  105 type  1   force =     0.00000493    0.00000284   -0.00049210
     atom  106 type  1   force =     0.00000000    0.00000417   -0.00047890
     atom  107 type  2   force =    -0.00000014   -0.00000008    0.00048650
     atom  108 type  2   force =    -0.00000000   -0.00000005    0.00048617
     The non-local contrib.  to forces
     atom    1 type  1   force =     0.00000000   -0.00000245    0.00377865
     atom    2 type  1   force =    -0.00000049   -0.00000028    0.00376873
     atom    3 type  2   force =     0.00000000    0.00000063    0.01423002
     atom    4 type  2   force =    -0.00000030   -0.00000017    0.01423487
     atom    5 type  1   force =     0.00000085    0.00000049    0.00377851
     atom    6 type  1   force =     0.00000000    0.00000077    0.00376927
     atom    7 type  2   force =     0.00000013    0.00000007    0.01422968
     atom    8 type  2   force =     0.00000000   -0.00000164    0.01423526
     atom    9 type  1   force =    -0.00000085    0.00000049    0.00377851
     atom   10 type  1   force =     0.00000049   -0.00000028    0.00376873
     atom   11 type  2   force =    -0.00000013    0.00000007    0.01422968
     atom   12 type  2   force =     0.00000030   -0.00000017    0.01423487
     atom   13 type  1   force =    -0.00000231   -0.00000134    0.00378241
     atom   14 type  1   force =     0.00000000   -0.00000076    0.00376893
     atom   15 type  2   force =     0.00000039    0.00000022    0.01422883
     atom   16 type  2   force =     0.00000000    0.00000140    0.01423573
     atom   17 type  1   force =     0.00000231   -0.00000134    0.00378241
     atom   18 type  1   force =     0.00000066   -0.00000038    0.00376927
     atom   19 type  2   force =    -0.00000039    0.00000022    0.01422883
     atom   20 type  2   force =    -0.00000142    0.00000082    0.01423526
     atom   21 type  1   force =     0.00000000   -0.00000098    0.00377851
     atom   22 type  1   force =    -0.00000066   -0.00000038    0.00376927
     atom   23 type  2   force =     0.00000000   -0.00000015    0.01422968
     atom   24 type  2   force =     0.00000142    0.00000082    0.01423526
     atom   25 type  1   force =    -0.00000212    0.00000122    0.00377865
     atom   26 type  1   force =    -0.00000066    0.00000038    0.00376893
     atom   27 type  2   force =     0.00000054   -0.00000031    0.01423002
     atom   28 type  2   force =     0.00000121   -0.00000070    0.01423573
     atom   29 type  1   force =     0.00000000    0.00000267    0.00378241
     atom   30 type  1   force =     0.00000066    0.00000038    0.00376893
     atom   31 type  2   force =     0.00000000   -0.00000045    0.01422883
     atom   32 type  2   force =    -0.00000121   -0.00000070    0.01423573
     atom   33 type  1   force =     0.00000212    0.00000122    0.00377865
     atom   34 type  1   force =     0.00000000    0.00000056    0.00376873
     atom   35 type  2   force =    -0.00000054   -0.00000031    0.01423002
     atom   36 type  2   force =     0.00000000    0.00000035    0.01423487
     atom   37 type  1   force =     0.00000000   -0.00000163    0.00375856
     atom   38 type  1   force =    -0.00000120   -0.00000069    0.00376202
     atom   39 type  2   force =     0.00000000    0.00000117    0.01423438
     atom   40 type  2   force =     0.00000037    0.00000021    0.01423242
     atom   41 type  1   force =     0.00000139    0.00000080    0.00375920
     atom   42 type  1   force =     0.00000000    0.00000182    0.00376068
     atom   43 type  2   force =    -0.00000034   -0.00000019    0.01423481
     atom   44 type  2   force =     0.00000000   -0.00000125    0.01423288
     atom   45 type  1   force =    -0.00000139    0.00000080    0.00375920
     atom   46 type  1   force =     0.00000120   -0.00000069    0.00376202
     atom   47 type  2   force =     0.00000034   -0.00000019    0.01423481
     atom   48 type  2   force =    -0.00000037    0.00000021    0.01423242
     atom   49 type  1   force =    -0.00000294   -0.00000170    0.00375915
     atom   50 type  1   force =     0.00000000   -0.00000299    0.00376237
     atom   51 type  2   force =     0.00000122    0.00000070    0.01423406
     atom   52 type  2   force =     0.00000000    0.00000165    0.01423271
     atom   53 type  1   force =     0.00000294   -0.00000170    0.00375915
     atom   54 type  1   force =     0.00000158   -0.00000091    0.00376068
     atom   55 type  2   force =    -0.00000122    0.00000070    0.01423406
     atom   56 type  2   force =    -0.00000108    0.00000062    0.01423288
     atom   57 type  1   force =     0.00000000   -0.00000160    0.00375920
     atom   58 type  1   force =    -0.00000158   -0.00000091    0.00376068
     atom   59 type  2   force =     0.00000000    0.00000039    0.01423481
     atom   60 type  2   force =     0.00000108    0.00000062    0.01423288
     atom   61 type  1   force =    -0.00000141    0.00000082    0.00375856
     atom   62 type  1   force =    -0.00000259    0.00000150    0.00376237
     atom   63 type  2   force =     0.00000101   -0.00000058    0.01423438
     atom   64 type  2   force =     0.00000143   -0.00000082    0.01423271
     atom   65 type  1   force =     0.00000000    0.00000339    0.00375915
     atom   66 type  1   force =     0.00000259    0.00000150    0.00376237
     atom   67 type  2   force =     0.00000000   -0.00000141    0.01423406
     atom   68 type  2   force =    -0.00000143   -0.00000082    0.01423271
     atom   69 type  1   force =     0.00000141    0.00000082    0.00375856
     atom   70 type  1   force =     0.00000000    0.00000139    0.00376202
     atom   71 type  2   force =    -0.00000101   -0.00000058    0.01423438
     atom   72 type  2   force =     0.00000000   -0.00000042    0.01423242
     atom   73 type  1   force =     0.00000000   -0.00000321    0.00376473
     atom   74 type  1   force =    -0.00000239   -0.00000138    0.00377231
     atom   75 type  2   force =     0.00000000    0.00000219    0.01422960
     atom   76 type  2   force =     0.00000041    0.00000024    0.01422569
     atom   77 type  1   force =     0.00000055    0.00000032    0.00376499
     atom   78 type  1   force =     0.00000000    0.00000174    0.00377163
     atom   79 type  2   force =     0.00000011    0.00000006    0.01422949
     atom   80 type  2   force =     0.00000000   -0.00000147    0.01422543
     atom   81 type  1   force =    -0.00000055    0.00000032    0.00376499
     atom   82 type  1   force =     0.00000239   -0.00000138    0.00377231
     atom   83 type  2   force =    -0.00000011    0.00000006    0.01422949
     atom   84 type  2   force =    -0.00000041    0.00000024    0.01422569
     atom   85 type  1   force =    -0.00000290   -0.00000167    0.00376511
     atom   86 type  1   force =     0.00000000   -0.00000400    0.00377207
     atom   87 type  2   force =     0.00000165    0.00000095    0.01422955
     atom   88 type  2   force =     0.00000000    0.00000190    0.01422454
     atom   89 type  1   force =     0.00000290   -0.00000167    0.00376511
     atom   90 type  1   force =     0.00000151   -0.00000087    0.00377163
     atom   91 type  2   force =    -0.00000165    0.00000095    0.01422955
     atom   92 type  2   force =    -0.00000127    0.00000074    0.01422543
     atom   93 type  1   force =     0.00000000   -0.00000064    0.00376499
     atom   94 type  1   force =    -0.00000151   -0.00000087    0.00377163
     atom   95 type  2   force =     0.00000000   -0.00000012    0.01422949
     atom   96 type  2   force =     0.00000127    0.00000074    0.01422543
     atom   97 type  1   force =    -0.00000278    0.00000160    0.00376473
     atom   98 type  1   force =    -0.00000347    0.00000200    0.00377207
     atom   99 type  2   force =     0.00000190   -0.00000109    0.01422960
     atom  100 type  2   force =     0.00000164   -0.00000095    0.01422454
     atom  101 type  1   force =     0.00000000    0.00000335    0.00376511
     atom  102 type  1   force =     0.00000347    0.00000200    0.00377207
     atom  103 type  2   force =     0.00000000   -0.00000190    0.01422955
     atom  104 type  2   force =    -0.00000164   -0.00000095    0.01422454
     atom  105 type  1   force =     0.00000278    0.00000160    0.00376473
     atom  106 type  1   force =     0.00000000    0.00000276    0.00377231
     atom  107 type  2   force =    -0.00000190   -0.00000109    0.01422960
     atom  108 type  2   force =     0.00000000   -0.00000047    0.01422569
     The ionic contribution  to forces
     atom    1 type  1   force =     0.00000000   -0.00000020    0.15748047
     atom    2 type  1   force =    -0.00000000   -0.00000003    0.15748042
     atom    3 type  2   force =     0.00000000   -0.00000010   -0.15748047
     atom    4 type  2   force =     0.00000000   -0.00000003   -0.15748042
     atom    5 type  1   force =    -0.00000000   -0.00000020    0.15748047
     atom    6 type  1   force =     0.00000000   -0.00000003    0.15748042
     atom    7 type  2   force =     0.00000000   -0.00000010   -0.15748047
     atom    8 type  2   force =     0.00000000   -0.00000003   -0.15748042
     atom    9 type  1   force =     0.00000000   -0.00000020    0.15748047
     atom   10 type  1   force =     0.00000000   -0.00000003    0.15748042
     atom   11 type  2   force =     0.00000000   -0.00000010   -0.15748047
     atom   12 type  2   force =     0.00000000   -0.00000003   -0.15748042
     atom   13 type  1   force =     0.00000000   -0.00000020    0.15748046
     atom   14 type  1   force =    -0.00000000   -0.00000004    0.15748047
     atom   15 type  2   force =     0.00000000   -0.00000010   -0.15748046
     atom   16 type  2   force =    -0.00000000    0.00000001   -0.15748047
     atom   17 type  1   force =    -0.00000000   -0.00000020    0.15748046
     atom   18 type  1   force =    -0.00000000   -0.00000004    0.15748047
     atom   19 type  2   force =     0.00000000   -0.00000010   -0.15748046
     atom   20 type  2   force =    -0.00000000    0.00000001   -0.15748047
     atom   21 type  1   force =     0.00000000   -0.00000020    0.15748046
     atom   22 type  1   force =    -0.00000000   -0.00000004    0.15748047
     atom   23 type  2   force =     0.00000000   -0.00000010   -0.15748046
     atom   24 type  2   force =    -0.00000000    0.00000001   -0.15748047
     atom   25 type  1   force =     0.00000000    0.00000029    0.15748047
     atom   26 type  1   force =     0.00000000    0.00000017    0.15748051
     atom   27 type  2   force =     0.00000000    0.00000011   -0.15748047
     atom   28 type  2   force =     0.00000000    0.00000010   -0.15748051
     atom   29 type  1   force =     0.00000000    0.00000029    0.15748047
     atom   30 type  1   force =     0.00000000    0.00000017    0.15748051
     atom   31 type  2   force =     0.00000000    0.00000011   -0.15748047
     atom   32 type  2   force =     0.00000000    0.00000010   -0.15748051
     atom   33 type  1   force =    -0.00000000    0.00000029    0.15748047
     atom   34 type  1   force =     0.00000000    0.00000017    0.15748051
     atom   35 type  2   force =    -0.00000000    0.00000011   -0.15748047
     atom   36 type  2   force =     0.00000000    0.00000010   -0.15748051
     atom   37 type  1   force =     0.00000000   -0.00000020    0.15748047
     atom   38 type  1   force =    -0.00000000   -0.00000003    0.15748042
     atom   39 type  2   force =     0.00000000   -0.00000010   -0.15748047
     atom   40 type  2   force =    -0.00000000   -0.00000003   -0.15748042
     atom   41 type  1   force =     0.00000000   -0.00000020    0.15748047
     atom   42 type  1   force =     0.00000000   -0.00000003    0.15748042
     atom   43 type  2   force =     0.00000000   -0.00000010   -0.15748047
     atom   44 type  2   force =     0.00000000   -0.00000003   -0.15748042
     atom   45 type  1   force =     0.00000000   -0.00000020    0.15748047
     atom   46 type  1   force =     0.00000000   -0.00000003    0.15748042
     atom   47 type  2   force =     0.00000000   -0.00000010   -0.15748047
     atom   48 type  2   force =     0.00000000   -0.00000003   -0.15748042
     atom   49 type  1   force =     0.00000000   -0.00000020    0.15748046
     atom   50 type  1   force =    -0.00000000   -0.00000004    0.15748047
     atom   51 type  2   force =     0.00000000   -0.00000010   -0.15748046
     atom   52 type  2   force =    -0.00000000    0.00000001   -0.15748047
     atom   53 type  1   force =    -0.00000000   -0.00000020    0.15748046
     atom   54 type  1   force =    -0.00000000   -0.00000004    0.15748047
     atom   55 type  2   force =     0.00000000   -0.00000010   -0.15748046
     atom   56 type  2   force =    -0.00000000    0.00000001   -0.15748047
     atom   57 type  1   force =     0.00000000   -0.00000020    0.15748046
     atom   58 type  1   force =    -0.00000000   -0.00000004    0.15748047
     atom   59 type  2   force =     0.00000000   -0.00000010   -0.15748046
     atom   60 type  2   force =    -0.00000000    0.00000001   -0.15748047
     atom   61 type  1   force =     0.00000000    0.00000029    0.15748047
     atom   62 type  1   force =     0.00000000    0.00000017    0.15748051
     atom   63 type  2   force =     0.00000000    0.00000011   -0.15748047
     atom   64 type  2   force =     0.00000000    0.00000010   -0.15748051
     atom   65 type  1   force =     0.00000000    0.00000029    0.15748047
     atom   66 type  1   force =     0.00000000    0.00000017    0.15748051
     atom   67 type  2   force =     0.00000000    0.00000011   -0.15748047
     atom   68 type  2   force =     0.00000000    0.00000010   -0.15748051
     atom   69 type  1   force =    -0.00000000    0.00000029    0.15748047
     atom   70 type  1   force =     0.00000000    0.00000017    0.15748051
     atom   71 type  2   force =    -0.00000000    0.00000011   -0.15748047
     atom   72 type  2   force =     0.00000000    0.00000010   -0.15748051
     atom   73 type  1   force =     0.00000000   -0.00000020    0.15748047
     atom   74 type  1   force =    -0.00000000   -0.00000003    0.15748042
     atom   75 type  2   force =     0.00000000   -0.00000010   -0.15748047
     atom   76 type  2   force =    -0.00000000   -0.00000003   -0.15748042
     atom   77 type  1   force =     0.00000000   -0.00000020    0.15748047
     atom   78 type  1   force =     0.00000000   -0.00000003    0.15748042
     atom   79 type  2   force =    -0.00000000   -0.00000010   -0.15748047
     atom   80 type  2   force =    -0.00000000   -0.00000003   -0.15748042
     atom   81 type  1   force =     0.00000000   -0.00000020    0.15748047
     atom   82 type  1   force =     0.00000000   -0.00000003    0.15748042
     atom   83 type  2   force =     0.00000000   -0.00000010   -0.15748047
     atom   84 type  2   force =     0.00000000   -0.00000003   -0.15748042
     atom   85 type  1   force =     0.00000000   -0.00000020    0.15748046
     atom   86 type  1   force =    -0.00000000   -0.00000004    0.15748047
     atom   87 type  2   force =     0.00000000   -0.00000010   -0.15748046
     atom   88 type  2   force =    -0.00000000    0.00000001   -0.15748047
     atom   89 type  1   force =    -0.00000000   -0.00000020    0.15748046
     atom   90 type  1   force =    -0.00000000   -0.00000004    0.15748047
     atom   91 type  2   force =    -0.00000000   -0.00000010   -0.15748046
     atom   92 type  2   force =    -0.00000000    0.00000001   -0.15748047
     atom   93 type  1   force =     0.00000000   -0.00000020    0.15748046
     atom   94 type  1   force =    -0.00000000   -0.00000004    0.15748047
     atom   95 type  2   force =     0.00000000   -0.00000010   -0.15748046
     atom   96 type  2   force =    -0.00000000    0.00000001   -0.15748047
     atom   97 type  1   force =     0.00000000    0.00000029    0.15748047
     atom   98 type  1   force =     0.00000000    0.00000017    0.15748051
     atom   99 type  2   force =     0.00000000    0.00000011   -0.15748047
     atom  100 type  2   force =     0.00000000    0.00000010   -0.15748051
     atom  101 type  1   force =     0.00000000    0.00000029    0.15748047
     atom  102 type  1   force =     0.00000000    0.00000017    0.15748051
     atom  103 type  2   force =     0.00000000    0.00000011   -0.15748047
     atom  104 type  2   force =     0.00000000    0.00000010   -0.15748051
     atom  105 type  1   force =    -0.00000000    0.00000029    0.15748047
     atom  106 type  1   force =     0.00000000    0.00000017    0.15748051
     atom  107 type  2   force =    -0.00000000    0.00000011   -0.15748047
     atom  108 type  2   force =     0.00000000    0.00000010   -0.15748051
     The local contribution  to forces
     atom    1 type  1   force =    -0.00000000    0.00000816   -0.16198651
     atom    2 type  1   force =     0.00000108    0.00000177   -0.16196285
     atom    3 type  2   force =     0.00000000    0.00000105    0.14396063
     atom    4 type  2   force =     0.00000031    0.00000027    0.14396792
     atom    5 type  1   force =     0.00000048   -0.00000088   -0.16198688
     atom    6 type  1   force =     0.00000000    0.00000066   -0.16196409
     atom    7 type  2   force =    -0.00000043   -0.00000034    0.14396012
     atom    8 type  2   force =    -0.00000000   -0.00000234    0.14396799
     atom    9 type  1   force =    -0.00000048   -0.00000088   -0.16198688
     atom   10 type  1   force =    -0.00000108    0.00000177   -0.16196285
     atom   11 type  2   force =     0.00000043   -0.00000034    0.14396012
     atom   12 type  2   force =    -0.00000031    0.00000027    0.14396792
     atom   13 type  1   force =     0.00000656    0.00000264   -0.16199582
     atom   14 type  1   force =     0.00000000    0.00000254   -0.16196104
     atom   15 type  2   force =     0.00000127    0.00000064    0.14396016
     atom   16 type  2   force =    -0.00000000    0.00000293    0.14396951
     atom   17 type  1   force =    -0.00000656    0.00000264   -0.16199582
     atom   18 type  1   force =    -0.00000043    0.00000140   -0.16196409
     atom   19 type  2   force =    -0.00000127    0.00000064    0.14396016
     atom   20 type  2   force =    -0.00000211    0.00000131    0.14396799
     atom   21 type  1   force =    -0.00000000   -0.00000170   -0.16198688
     atom   22 type  1   force =     0.00000043    0.00000140   -0.16196409
     atom   23 type  2   force =     0.00000000    0.00000041    0.14396012
     atom   24 type  2   force =     0.00000211    0.00000131    0.14396799
     atom   25 type  1   force =     0.00000807   -0.00000235   -0.16198651
     atom   26 type  1   force =     0.00000120    0.00000046   -0.16196104
     atom   27 type  2   force =     0.00000099   -0.00000039    0.14396063
     atom   28 type  2   force =     0.00000245   -0.00000133    0.14396951
     atom   29 type  1   force =    -0.00000000   -0.00000527   -0.16199582
     atom   30 type  1   force =    -0.00000120    0.00000046   -0.16196104
     atom   31 type  2   force =     0.00000000   -0.00000128    0.14396016
     atom   32 type  2   force =    -0.00000245   -0.00000133    0.14396951
     atom   33 type  1   force =    -0.00000807   -0.00000235   -0.16198651
     atom   34 type  1   force =     0.00000000   -0.00000010   -0.16196285
     atom   35 type  2   force =    -0.00000099   -0.00000039    0.14396063
     atom   36 type  2   force =    -0.00000000   -0.00000026    0.14396792
     atom   37 type  1   force =    -0.00000000    0.00000503   -0.16194010
     atom   38 type  1   force =     0.00000146    0.00000199   -0.16195147
     atom   39 type  2   force =     0.00000000    0.00000135    0.14396416
     atom   40 type  2   force =     0.00000169    0.00000107    0.14396202
     atom   41 type  1   force =    -0.00000291   -0.00000283   -0.16194148
     atom   42 type  1   force =     0.00000000   -0.00000411   -0.16194749
     atom   43 type  2   force =    -0.00000119   -0.00000078    0.14396468
     atom   44 type  2   force =    -0.00000000   -0.00000125    0.14396202
     atom   45 type  1   force =     0.00000291   -0.00000283   -0.16194148
     atom   46 type  1   force =    -0.00000146    0.00000199   -0.16195147
     atom   47 type  2   force =     0.00000119   -0.00000078    0.14396468
     atom   48 type  2   force =    -0.00000170    0.00000107    0.14396202
     atom   49 type  1   force =     0.00000850    0.00000376   -0.16194074
     atom   50 type  1   force =     0.00000000    0.00000797   -0.16195059
     atom   51 type  2   force =     0.00000271    0.00000147    0.14396388
     atom   52 type  2   force =    -0.00000000    0.00000296    0.14396282
     atom   53 type  1   force =    -0.00000850    0.00000376   -0.16194074
     atom   54 type  1   force =    -0.00000456    0.00000378   -0.16194749
     atom   55 type  2   force =    -0.00000271    0.00000147    0.14396388
     atom   56 type  2   force =    -0.00000116    0.00000076    0.14396202
     atom   57 type  1   force =    -0.00000000    0.00000221   -0.16194148
     atom   58 type  1   force =     0.00000456    0.00000378   -0.16194749
     atom   59 type  2   force =     0.00000000    0.00000128    0.14396468
     atom   60 type  2   force =     0.00000116    0.00000076    0.14396202
     atom   61 type  1   force =     0.00000535   -0.00000079   -0.16194010
     atom   62 type  1   force =     0.00000590   -0.00000226   -0.16195059
     atom   63 type  2   force =     0.00000125   -0.00000054    0.14396416
     atom   64 type  2   force =     0.00000248   -0.00000134    0.14396282
     atom   65 type  1   force =    -0.00000000   -0.00000751   -0.16194074
     atom   66 type  1   force =    -0.00000590   -0.00000226   -0.16195059
     atom   67 type  2   force =     0.00000000   -0.00000294    0.14396388
     atom   68 type  2   force =    -0.00000248   -0.00000134    0.14396282
     atom   69 type  1   force =    -0.00000535   -0.00000079   -0.16194010
     atom   70 type  1   force =     0.00000000   -0.00000053   -0.16195147
     atom   71 type  2   force =    -0.00000125   -0.00000054    0.14396416
     atom   72 type  2   force =    -0.00000000   -0.00000187    0.14396202
     atom   73 type  1   force =    -0.00000000    0.00000892   -0.16195557
     atom   74 type  1   force =     0.00000514    0.00000412   -0.16197626
     atom   75 type  2   force =     0.00000000    0.00000341    0.14395661
     atom   76 type  2   force =     0.00000166    0.00000105    0.14394980
     atom   77 type  1   force =    -0.00000009   -0.00000120   -0.16195573
     atom   78 type  1   force =     0.00000000   -0.00000449   -0.16197401
     atom   79 type  2   force =    -0.00000092   -0.00000062    0.14395628
     atom   80 type  2   force =    -0.00000000   -0.00000236    0.14394954
     atom   81 type  1   force =     0.00000009   -0.00000120   -0.16195573
     atom   82 type  1   force =    -0.00000514    0.00000412   -0.16197626
     atom   83 type  2   force =     0.00000092   -0.00000062    0.14395628
     atom   84 type  2   force =    -0.00000166    0.00000105    0.14394980
     atom   85 type  1   force =     0.00000808    0.00000352   -0.16195530
     atom   86 type  1   force =     0.00000000    0.00001138   -0.16197432
     atom   87 type  2   force =     0.00000347    0.00000191    0.14395724
     atom   88 type  2   force =    -0.00000000    0.00000369    0.14394850
     atom   89 type  1   force =    -0.00000808    0.00000352   -0.16195530
     atom   90 type  1   force =    -0.00000489    0.00000397   -0.16197401
     atom   91 type  2   force =    -0.00000347    0.00000191    0.14395724
     atom   92 type  2   force =    -0.00000212    0.00000132    0.14394954
     atom   93 type  1   force =    -0.00000000   -0.00000105   -0.16195573
     atom   94 type  1   force =     0.00000489    0.00000397   -0.16197401
     atom   95 type  2   force =     0.00000000    0.00000097    0.14395628
     atom   96 type  2   force =     0.00000212    0.00000132    0.14394954
     atom   97 type  1   force =     0.00000872   -0.00000273   -0.16195557
     atom   98 type  1   force =     0.00000886   -0.00000397   -0.16197432
     atom   99 type  2   force =     0.00000303   -0.00000156    0.14395661
     atom  100 type  2   force =     0.00000312   -0.00000171    0.14394850
     atom  101 type  1   force =    -0.00000000   -0.00000703   -0.16195530
     atom  102 type  1   force =    -0.00000886   -0.00000397   -0.16197432
     atom  103 type  2   force =     0.00000000   -0.00000383    0.14395724
     atom  104 type  2   force =    -0.00000312   -0.00000171    0.14394850
     atom  105 type  1   force =    -0.00000872   -0.00000273   -0.16195557
     atom  106 type  1   force =     0.00000000   -0.00000478   -0.16197626
     atom  107 type  2   force =    -0.00000303   -0.00000156    0.14395661
     atom  108 type  2   force =    -0.00000000   -0.00000183    0.14394980
     The core correction contribution to forces
     atom    1 type  1   force =    -0.00000000   -0.00000007    0.00022776
     atom    2 type  1   force =     0.00000003    0.00000010    0.00022779
     atom    3 type  2   force =    -0.00000000   -0.00000000   -0.00022466
     atom    4 type  2   force =     0.00000001    0.00000001   -0.00022468
     atom    5 type  1   force =    -0.00000005   -0.00000011    0.00022780
     atom    6 type  1   force =     0.00000000    0.00000009    0.00022776
     atom    7 type  2   force =    -0.00000000   -0.00000000   -0.00022465
     atom    8 type  2   force =    -0.00000000    0.00000004   -0.00022469
     atom    9 type  1   force =     0.00000005   -0.00000011    0.00022780
     atom   10 type  1   force =    -0.00000003    0.00000010    0.00022779
     atom   11 type  2   force =     0.00000000   -0.00000000   -0.00022465
     atom   12 type  2   force =    -0.00000001    0.00000001   -0.00022468
     atom   13 type  1   force =     0.00000005   -0.00000006    0.00022780
     atom   14 type  1   force =     0.00000000    0.00000011    0.00022773
     atom   15 type  2   force =    -0.00000000    0.00000000   -0.00022464
     atom   16 type  2   force =    -0.00000000   -0.00000003   -0.00022469
     atom   17 type  1   force =    -0.00000005   -0.00000006    0.00022780
     atom   18 type  1   force =     0.00000000    0.00000008    0.00022776
     atom   19 type  2   force =     0.00000000    0.00000000   -0.00022464
     atom   20 type  2   force =     0.00000003   -0.00000002   -0.00022469
     atom   21 type  1   force =    -0.00000000   -0.00000003    0.00022780
     atom   22 type  1   force =    -0.00000000    0.00000008    0.00022776
     atom   23 type  2   force =    -0.00000000    0.00000000   -0.00022465
     atom   24 type  2   force =    -0.00000003   -0.00000002   -0.00022469
     atom   25 type  1   force =     0.00000001    0.00000016    0.00022776
     atom   26 type  1   force =     0.00000002    0.00000007    0.00022773
     atom   27 type  2   force =    -0.00000000   -0.00000000   -0.00022466
     atom   28 type  2   force =    -0.00000002    0.00000001   -0.00022469
     atom   29 type  1   force =    -0.00000000    0.00000011    0.00022780
     atom   30 type  1   force =    -0.00000002    0.00000007    0.00022773
     atom   31 type  2   force =    -0.00000000   -0.00000000   -0.00022464
     atom   32 type  2   force =     0.00000002    0.00000001   -0.00022469
     atom   33 type  1   force =    -0.00000001    0.00000016    0.00022776
     atom   34 type  1   force =     0.00000000    0.00000005    0.00022779
     atom   35 type  2   force =     0.00000000   -0.00000000   -0.00022466
     atom   36 type  2   force =    -0.00000000   -0.00000002   -0.00022468
     atom   37 type  1   force =    -0.00000000   -0.00000004    0.00022781
     atom   38 type  1   force =     0.00000000    0.00000009    0.00022781
     atom   39 type  2   force =    -0.00000000   -0.00000002   -0.00022473
     atom   40 type  2   force =     0.00000000    0.00000000   -0.00022471
     atom   41 type  1   force =    -0.00000002   -0.00000010    0.00022778
     atom   42 type  1   force =     0.00000000    0.00000012    0.00022783
     atom   43 type  2   force =     0.00000000    0.00000000   -0.00022473
     atom   44 type  2   force =    -0.00000000    0.00000003   -0.00022472
     atom   45 type  1   force =     0.00000002   -0.00000010    0.00022778
     atom   46 type  1   force =    -0.00000000    0.00000009    0.00022781
     atom   47 type  2   force =    -0.00000000    0.00000000   -0.00022473
     atom   48 type  2   force =    -0.00000000    0.00000000   -0.00022471
     atom   49 type  1   force =     0.00000006   -0.00000005    0.00022775
     atom   50 type  1   force =     0.00000000    0.00000005    0.00022780
     atom   51 type  2   force =    -0.00000001   -0.00000001   -0.00022472
     atom   52 type  2   force =    -0.00000000   -0.00000003   -0.00022472
     atom   53 type  1   force =    -0.00000006   -0.00000005    0.00022775
     atom   54 type  1   force =     0.00000003    0.00000007    0.00022783
     atom   55 type  2   force =     0.00000001   -0.00000001   -0.00022472
     atom   56 type  2   force =     0.00000003   -0.00000002   -0.00022472
     atom   57 type  1   force =    -0.00000000   -0.00000006    0.00022778
     atom   58 type  1   force =    -0.00000003    0.00000007    0.00022783
     atom   59 type  2   force =    -0.00000000   -0.00000000   -0.00022473
     atom   60 type  2   force =    -0.00000003   -0.00000002   -0.00022472
     atom   61 type  1   force =     0.00000004    0.00000015    0.00022781
     atom   62 type  1   force =    -0.00000003    0.00000010    0.00022780
     atom   63 type  2   force =    -0.00000001    0.00000001   -0.00022473
     atom   64 type  2   force =    -0.00000003    0.00000001   -0.00022472
     atom   65 type  1   force =    -0.00000000    0.00000010    0.00022775
     atom   66 type  1   force =     0.00000003    0.00000010    0.00022780
     atom   67 type  2   force =    -0.00000000    0.00000001   -0.00022472
     atom   68 type  2   force =     0.00000003    0.00000001   -0.00022472
     atom   69 type  1   force =    -0.00000004    0.00000015    0.00022781
     atom   70 type  1   force =     0.00000000    0.00000008    0.00022781
     atom   71 type  2   force =     0.00000001    0.00000001   -0.00022473
     atom   72 type  2   force =    -0.00000000   -0.00000001   -0.00022471
     atom   73 type  1   force =    -0.00000000   -0.00000002    0.00022783
     atom   74 type  1   force =     0.00000003    0.00000010    0.00022796
     atom   75 type  2   force =    -0.00000000   -0.00000003   -0.00022459
     atom   76 type  2   force =     0.00000000    0.00000000   -0.00022458
     atom   77 type  1   force =    -0.00000003   -0.00000010    0.00022783
     atom   78 type  1   force =     0.00000000    0.00000012    0.00022792
     atom   79 type  2   force =    -0.00000001   -0.00000000   -0.00022459
     atom   80 type  2   force =    -0.00000000    0.00000003   -0.00022457
     atom   81 type  1   force =     0.00000003   -0.00000010    0.00022783
     atom   82 type  1   force =    -0.00000003    0.00000010    0.00022796
     atom   83 type  2   force =     0.00000001   -0.00000000   -0.00022459
     atom   84 type  2   force =    -0.00000000    0.00000000   -0.00022458
     atom   85 type  1   force =     0.00000008   -0.00000004    0.00022781
     atom   86 type  1   force =     0.00000000    0.00000007    0.00022789
     atom   87 type  2   force =    -0.00000002   -0.00000001   -0.00022459
     atom   88 type  2   force =    -0.00000000   -0.00000003   -0.00022456
     atom   89 type  1   force =    -0.00000008   -0.00000004    0.00022781
     atom   90 type  1   force =     0.00000003    0.00000007    0.00022792
     atom   91 type  2   force =     0.00000002   -0.00000001   -0.00022459
     atom   92 type  2   force =     0.00000003   -0.00000002   -0.00022457
     atom   93 type  1   force =    -0.00000000   -0.00000005    0.00022783
     atom   94 type  1   force =    -0.00000003    0.00000007    0.00022792
     atom   95 type  2   force =    -0.00000000    0.00000001   -0.00022459
     atom   96 type  2   force =    -0.00000003   -0.00000002   -0.00022457
     atom   97 type  1   force =     0.00000006    0.00000014    0.00022783
     atom   98 type  1   force =    -0.00000001    0.00000009    0.00022789
     atom   99 type  2   force =    -0.00000003    0.00000001   -0.00022459
     atom  100 type  2   force =    -0.00000003    0.00000001   -0.00022456
     atom  101 type  1   force =    -0.00000000    0.00000007    0.00022781
     atom  102 type  1   force =     0.00000001    0.00000009    0.00022789
     atom  103 type  2   force =    -0.00000000    0.00000002   -0.00022459
     atom  104 type  2   force =     0.00000003    0.00000001   -0.00022456
     atom  105 type  1   force =    -0.00000006    0.00000014    0.00022783
     atom  106 type  1   force =     0.00000000    0.00000005    0.00022796
     atom  107 type  2   force =     0.00000003    0.00000001   -0.00022459
     atom  108 type  2   force =    -0.00000000   -0.00000001   -0.00022458
     The Hubbard contrib.    to forces
     atom    1 type  1   force =     0.00000000    0.00000000    0.00000000
     atom    2 type  1   force =     0.00000000    0.00000000    0.00000000
     atom    3 type  2   force =     0.00000000    0.00000000    0.00000000
     atom    4 type  2   force =     0.00000000    0.00000000    0.00000000
     atom    5 type  1   force =     0.00000000    0.00000000    0.00000000
     atom    6 type  1   force =     0.00000000    0.00000000    0.00000000
     atom    7 type  2   force =     0.00000000    0.00000000    0.00000000
     atom    8 type  2   force =     0.00000000    0.00000000    0.00000000
     atom    9 type  1   force =     0.00000000    0.00000000    0.00000000
     atom   10 type  1   force =     0.00000000    0.00000000    0.00000000
     atom   11 type  2   force =     0.00000000    0.00000000    0.00000000
     atom   12 type  2   force =     0.00000000    0.00000000    0.00000000
     atom   13 type  1   force =     0.00000000    0.00000000    0.00000000
     atom   14 type  1   force =     0.00000000    0.00000000    0.00000000
     atom   15 type  2   force =     0.00000000    0.00000000    0.00000000
     atom   16 type  2   force =     0.00000000    0.00000000    0.00000000
     atom   17 type  1   force =     0.00000000    0.00000000    0.00000000
     atom   18 type  1   force =     0.00000000    0.00000000    0.00000000
     atom   19 type  2   force =     0.00000000    0.00000000    0.00000000
     atom   20 type  2   force =     0.00000000    0.00000000    0.00000000
     atom   21 type  1   force =     0.00000000    0.00000000    0.00000000
     atom   22 type  1   force =     0.00000000    0.00000000    0.00000000
     atom   23 type  2   force =     0.00000000    0.00000000    0.00000000
     atom   24 type  2   force =     0.00000000    0.00000000    0.00000000
     atom   25 type  1   force =     0.00000000    0.00000000    0.00000000
     atom   26 type  1   force =     0.00000000    0.00000000    0.00000000
     atom   27 type  2   force =     0.00000000    0.00000000    0.00000000
     atom   28 type  2   force =     0.00000000    0.00000000    0.00000000
     atom   29 type  1   force =     0.00000000    0.00000000    0.00000000
     atom   30 type  1   force =     0.00000000    0.00000000    0.00000000
     atom   31 type  2   force =     0.00000000    0.00000000    0.00000000
     atom   32 type  2   force =     0.00000000    0.00000000    0.00000000
     atom   33 type  1   force =     0.00000000    0.00000000    0.00000000
     atom   34 type  1   force =     0.00000000    0.00000000    0.00000000
     atom   35 type  2   force =     0.00000000    0.00000000    0.00000000
     atom   36 type  2   force =     0.00000000    0.00000000    0.00000000
     atom   37 type  1   force =     0.00000000    0.00000000    0.00000000
     atom   38 type  1   force =     0.00000000    0.00000000    0.00000000
     atom   39 type  2   force =     0.00000000    0.00000000    0.00000000
     atom   40 type  2   force =     0.00000000    0.00000000    0.00000000
     atom   41 type  1   force =     0.00000000    0.00000000    0.00000000
     atom   42 type  1   force =     0.00000000    0.00000000    0.00000000
     atom   43 type  2   force =     0.00000000    0.00000000    0.00000000
     atom   44 type  2   force =     0.00000000    0.00000000    0.00000000
     atom   45 type  1   force =     0.00000000    0.00000000    0.00000000
     atom   46 type  1   force =     0.00000000    0.00000000    0.00000000
     atom   47 type  2   force =     0.00000000    0.00000000    0.00000000
     atom   48 type  2   force =     0.00000000    0.00000000    0.00000000
     atom   49 type  1   force =     0.00000000    0.00000000    0.00000000
     atom   50 type  1   force =     0.00000000    0.00000000    0.00000000
     atom   51 type  2   force =     0.00000000    0.00000000    0.00000000
     atom   52 type  2   force =     0.00000000    0.00000000    0.00000000
     atom   53 type  1   force =     0.00000000    0.00000000    0.00000000
     atom   54 type  1   force =     0.00000000    0.00000000    0.00000000
     atom   55 type  2   force =     0.00000000    0.00000000    0.00000000
     atom   56 type  2   force =     0.00000000    0.00000000    0.00000000
     atom   57 type  1   force =     0.00000000    0.00000000    0.00000000
     atom   58 type  1   force =     0.00000000    0.00000000    0.00000000
     atom   59 type  2   force =     0.00000000    0.00000000    0.00000000
     atom   60 type  2   force =     0.00000000    0.00000000    0.00000000
     atom   61 type  1   force =     0.00000000    0.00000000    0.00000000
     atom   62 type  1   force =     0.00000000    0.00000000    0.00000000
     atom   63 type  2   force =     0.00000000    0.00000000    0.00000000
     atom   64 type  2   force =     0.00000000    0.00000000    0.00000000
     atom   65 type  1   force =     0.00000000    0.00000000    0.00000000
     atom   66 type  1   force =     0.00000000    0.00000000    0.00000000
     atom   67 type  2   force =     0.00000000    0.00000000    0.00000000
     atom   68 type  2   force =     0.00000000    0.00000000    0.00000000
     atom   69 type  1   force =     0.00000000    0.00000000    0.00000000
     atom   70 type  1   force =     0.00000000    0.00000000    0.00000000
     atom   71 type  2   force =     0.00000000    0.00000000    0.00000000
     atom   72 type  2   force =     0.00000000    0.00000000    0.00000000
     atom   73 type  1   force =     0.00000000    0.00000000    0.00000000
     atom   74 type  1   force =     0.00000000    0.00000000    0.00000000
     atom   75 type  2   force =     0.00000000    0.00000000    0.00000000
     atom   76 type  2   force =     0.00000000    0.00000000    0.00000000
     atom   77 type  1   force =     0.00000000    0.00000000    0.00000000
     atom   78 type  1   force =     0.00000000    0.00000000    0.00000000
     atom   79 type  2   force =     0.00000000    0.00000000    0.00000000
     atom   80 type  2   force =     0.00000000    0.00000000    0.00000000
     atom   81 type  1   force =     0.00000000    0.00000000    0.00000000
     atom   82 type  1   force =     0.00000000    0.00000000    0.00000000
     atom   83 type  2   force =     0.00000000    0.00000000    0.00000000
     atom   84 type  2   force =     0.00000000    0.00000000    0.00000000
     atom   85 type  1   force =     0.00000000    0.00000000    0.00000000
     atom   86 type  1   force =     0.00000000    0.00000000    0.00000000
     atom   87 type  2   force =     0.00000000    0.00000000    0.00000000
     atom   88 type  2   force =     0.00000000    0.00000000    0.00000000
     atom   89 type  1   force =     0.00000000    0.00000000    0.00000000
     atom   90 type  1   force =     0.00000000    0.00000000    0.00000000
     atom   91 type  2   force =     0.00000000    0.00000000    0.00000000
     atom   92 type  2   force =     0.00000000    0.00000000    0.00000000
     atom   93 type  1   force =     0.00000000    0.00000000    0.00000000
     atom   94 type  1   force =     0.00000000    0.00000000    0.00000000
     atom   95 type  2   force =     0.00000000    0.00000000    0.00000000
     atom   96 type  2   force =     0.00000000    0.00000000    0.00000000
     atom   97 type  1   force =     0.00000000    0.00000000    0.00000000
     atom   98 type  1   force =     0.00000000    0.00000000    0.00000000
     atom   99 type  2   force =     0.00000000    0.00000000    0.00000000
     atom  100 type  2   force =     0.00000000    0.00000000    0.00000000
     atom  101 type  1   force =     0.00000000    0.00000000    0.00000000
     atom  102 type  1   force =     0.00000000    0.00000000    0.00000000
     atom  103 type  2   force =     0.00000000    0.00000000    0.00000000
     atom  104 type  2   force =     0.00000000    0.00000000    0.00000000
     atom  105 type  1   force =     0.00000000    0.00000000    0.00000000
     atom  106 type  1   force =     0.00000000    0.00000000    0.00000000
     atom  107 type  2   force =     0.00000000    0.00000000    0.00000000
     atom  108 type  2   force =     0.00000000    0.00000000    0.00000000
     The SCF correction term to forces
     atom    1 type  1   force =     0.00000000   -0.00000942    0.00003050
     atom    2 type  1   force =    -0.00000158   -0.00000091   -0.00000074
     atom    3 type  2   force =     0.00000000   -0.00000150    0.00000058
     atom    4 type  2   force =    -0.00000001   -0.00000001   -0.00001123
     atom    5 type  1   force =    -0.00000090   -0.00000052    0.00002967
     atom    6 type  1   force =    -0.00000000    0.00000095    0.00000014
     atom    7 type  2   force =     0.00000027    0.00000016    0.00000155
     atom    8 type  2   force =    -0.00000000    0.00000373   -0.00001123
     atom    9 type  1   force =     0.00000090   -0.00000052    0.00002967
     atom   10 type  1   force =     0.00000158   -0.00000091   -0.00000074
     atom   11 type  2   force =    -0.00000027    0.00000016    0.00000155
     atom   12 type  2   force =     0.00000001   -0.00000001   -0.00001123
     atom   13 type  1   force =    -0.00000705   -0.00000407    0.00004181
     atom   14 type  1   force =    -0.00000000   -0.00000303   -0.00000230
     atom   15 type  2   force =    -0.00000140   -0.00000081    0.00000204
     atom   16 type  2   force =    -0.00000000   -0.00000393   -0.00001339
     atom   17 type  1   force =     0.00000705   -0.00000407    0.00004181
     atom   18 type  1   force =     0.00000083   -0.00000048    0.00000014
     atom   19 type  2   force =     0.00000140   -0.00000081    0.00000204
     atom   20 type  2   force =     0.00000323   -0.00000187   -0.00001123
     atom   21 type  1   force =    -0.00000000    0.00000104    0.00002967
     atom   22 type  1   force =    -0.00000083   -0.00000048    0.00000014
     atom   23 type  2   force =     0.00000000   -0.00000031    0.00000155
     atom   24 type  2   force =    -0.00000323   -0.00000187   -0.00001123
     atom   25 type  1   force =    -0.00000816    0.00000471    0.00003050
     atom   26 type  1   force =    -0.00000263    0.00000152   -0.00000230
     atom   27 type  2   force =    -0.00000130    0.00000075    0.00000058
     atom   28 type  2   force =    -0.00000341    0.00000197   -0.00001339
     atom   29 type  1   force =    -0.00000000    0.00000814    0.00004181
     atom   30 type  1   force =     0.00000263    0.00000152   -0.00000230
     atom   31 type  2   force =    -0.00000000    0.00000162    0.00000204
     atom   32 type  2   force =     0.00000341    0.00000197   -0.00001339
     atom   33 type  1   force =     0.00000816    0.00000471    0.00003050
     atom   34 type  1   force =     0.00000000    0.00000183   -0.00000074
     atom   35 type  2   force =     0.00000130    0.00000075    0.00000058
     atom   36 type  2   force =    -0.00000000    0.00000002   -0.00001123
     atom   37 type  1   force =    -0.00000000   -0.00000590   -0.00002856
     atom   38 type  1   force =     0.00000061    0.00000035   -0.00001102
     atom   39 type  2   force =    -0.00000000   -0.00000218   -0.00000673
     atom   40 type  2   force =    -0.00000188   -0.00000108   -0.00000294
     atom   41 type  1   force =     0.00000374    0.00000216   -0.00002647
     atom   42 type  1   force =     0.00000000    0.00000705   -0.00001864
     atom   43 type  2   force =     0.00000155    0.00000089   -0.00000763
     atom   44 type  2   force =    -0.00000000    0.00000261   -0.00000369
     atom   45 type  1   force =    -0.00000374    0.00000216   -0.00002647
     atom   46 type  1   force =    -0.00000061    0.00000035   -0.00001102
     atom   47 type  2   force =    -0.00000155    0.00000089   -0.00000763
     atom   48 type  2   force =     0.00000188   -0.00000108   -0.00000294
     atom   49 type  1   force =    -0.00000971   -0.00000560   -0.00002811
     atom   50 type  1   force =     0.00000000   -0.00000805   -0.00001409
     atom   51 type  2   force =    -0.00000366   -0.00000211   -0.00000634
     atom   52 type  2   force =     0.00000000   -0.00000427   -0.00000417
     atom   53 type  1   force =     0.00000971   -0.00000560   -0.00002811
     atom   54 type  1   force =     0.00000610   -0.00000352   -0.00001864
     atom   55 type  2   force =     0.00000366   -0.00000211   -0.00000634
     atom   56 type  2   force =     0.00000226   -0.00000130   -0.00000369
     atom   57 type  1   force =    -0.00000000   -0.00000431   -0.00002647
     atom   58 type  1   force =    -0.00000610   -0.00000352   -0.00001864
     atom   59 type  2   force =    -0.00000000   -0.00000179   -0.00000763
     atom   60 type  2   force =    -0.00000226   -0.00000130   -0.00000369
     atom   61 type  1   force =    -0.00000511    0.00000295   -0.00002856
     atom   62 type  1   force =    -0.00000698    0.00000403   -0.00001409
     atom   63 type  2   force =    -0.00000189    0.00000109   -0.00000673
     atom   64 type  2   force =    -0.00000370    0.00000213   -0.00000417
     atom   65 type  1   force =    -0.00000000    0.00001121   -0.00002811
     atom   66 type  1   force =     0.00000698    0.00000403   -0.00001409
     atom   67 type  2   force =    -0.00000000    0.00000422   -0.00000634
     atom   68 type  2   force =     0.00000370    0.00000213   -0.00000417
     atom   69 type  1   force =     0.00000511    0.00000295   -0.00002856
     atom   70 type  1   force =    -0.00000000   -0.00000070   -0.00001102
     atom   71 type  2   force =     0.00000189    0.00000109   -0.00000673
     atom   72 type  2   force =     0.00000000    0.00000217   -0.00000294
     atom   73 type  1   force =    -0.00000000   -0.00001122   -0.00000998
     atom   74 type  1   force =    -0.00000633   -0.00000365    0.00001622
     atom   75 type  2   force =    -0.00000000   -0.00000534    0.00000492
     atom   76 type  2   force =    -0.00000200   -0.00000115    0.00001529
     atom   77 type  1   force =     0.00000000    0.00000000   -0.00001170
     atom   78 type  1   force =    -0.00000000    0.00000779    0.00001395
     atom   79 type  2   force =     0.00000087    0.00000050    0.00000536
     atom   80 type  2   force =     0.00000000    0.00000354    0.00001529
     atom   81 type  1   force =    -0.00000000    0.00000000   -0.00001170
     atom   82 type  1   force =     0.00000633   -0.00000365    0.00001622
     atom   83 type  2   force =    -0.00000087    0.00000050    0.00000536
     atom   84 type  2   force =     0.00000200   -0.00000115    0.00001529
     atom   85 type  1   force =    -0.00000913   -0.00000527   -0.00000994
     atom   86 type  1   force =     0.00000000   -0.00001496    0.00001464
     atom   87 type  2   force =    -0.00000480   -0.00000277    0.00000427
     atom   88 type  2   force =     0.00000000   -0.00000516    0.00001755
     atom   89 type  1   force =     0.00000913   -0.00000527   -0.00000994
     atom   90 type  1   force =     0.00000675   -0.00000390    0.00001395
     atom   91 type  2   force =     0.00000480   -0.00000277    0.00000427
     atom   92 type  2   force =     0.00000306   -0.00000177    0.00001529
     atom   93 type  1   force =     0.00000000   -0.00000000   -0.00001170
     atom   94 type  1   force =    -0.00000675   -0.00000390    0.00001395
     atom   95 type  2   force =    -0.00000000   -0.00000100    0.00000536
     atom   96 type  2   force =    -0.00000306   -0.00000177    0.00001529
     atom   97 type  1   force =    -0.00000972    0.00000561   -0.00000998
     atom   98 type  1   force =    -0.00001295    0.00000748    0.00001464
     atom   99 type  2   force =    -0.00000462    0.00000267    0.00000492
     atom  100 type  2   force =    -0.00000446    0.00000258    0.00001755
     atom  101 type  1   force =     0.00000000    0.00001055   -0.00000994
     atom  102 type  1   force =     0.00001295    0.00000748    0.00001464
     atom  103 type  2   force =     0.00000000    0.00000554    0.00000427
     atom  104 type  2   force =     0.00000446    0.00000258    0.00001755
     atom  105 type  1   force =     0.00000972    0.00000561   -0.00000998
     atom  106 type  1   force =    -0.00000000    0.00000731    0.00001622
     atom  107 type  2   force =     0.00000462    0.00000267    0.00000492
     atom  108 type  2   force =     0.00000000    0.00000230    0.00001529

     Total force =     0.005058     Total SCF correction =     0.000175


     Computing stress (Cartesian axis) and pressure

          total   stress  (Ry/bohr**3)                   (kbar)     P=       -6.37
  -0.00004105   0.00000000   0.00000000           -6.04        0.00        0.00
   0.00000000  -0.00004105   0.00000000            0.00       -6.04        0.00
   0.00000000   0.00000000  -0.00004784            0.00        0.00       -7.04

     kinetic stress (kbar)  19815.47      0.00      0.00
                                0.00  19815.47      0.00
                                0.00      0.00  19800.38

     local   stress (kbar)   6188.48      0.00      0.00
                                0.00   6188.48     -0.00
                                0.00     -0.00   4432.15

     nonloc. stress (kbar)  -1212.71      0.00      0.00
                                0.00  -1212.71      0.00
                                0.00      0.00  -1197.36

     hartree stress (kbar)  19968.48     -0.00      0.00
                               -0.00  19968.48     -0.00
                                0.00     -0.00  20763.63

     exc-cor stress (kbar)   5145.38     -0.00      0.00
                               -0.00   5145.38      0.00
                                0.00      0.00   5145.81

     corecor stress (kbar) -14012.78      0.00      0.00
                                0.00 -14012.78     -0.00
                                0.00     -0.00 -14012.19

     ewald   stress (kbar) -35898.35      0.00     -0.00
                                0.00 -35898.35     -0.00
                               -0.00     -0.00 -34939.46

     hubbard stress (kbar)      0.00      0.00      0.00
                                0.00      0.00      0.00
                                0.00      0.00      0.00

     DFT-D   stress (kbar)      0.00      0.00      0.00
                                0.00      0.00      0.00
                                0.00      0.00      0.00

     XDM     stress (kbar)      0.00      0.00      0.00
                                0.00      0.00      0.00
                                0.00      0.00      0.00

     dft-nl  stress (kbar)      0.00      0.00      0.00
                                0.00      0.00      0.00
                                0.00      0.00      0.00

     TS-vdW  stress (kbar)      0.00      0.00      0.00
                                0.00      0.00      0.00
                                0.00      0.00      0.00

     MDB     stress (kbar)      0.00      0.00      0.00
                                0.00      0.00      0.00
                                0.00      0.00      0.00

     3D-RISM stress (kbar)      0.00      0.00      0.00
                                0.00      0.00      0.00
                                0.00      0.00      0.00


     Writing all to output data dir ./tmp/GaN.save/ :
     XML data file, charge density, pseudopotentials, collected wavefunctions
 
     init_run     :     25.42s CPU     27.58s WALL (       1 calls)
     electrons    :   2268.37s CPU   2360.23s WALL (       1 calls)
     forces       :     13.44s CPU     15.01s WALL (       1 calls)
     stress       :    427.73s CPU    431.01s WALL (       1 calls)

     Called by init_run:
     wfcinit      :     20.81s CPU     21.72s WALL (       1 calls)
     wfcinit:atom :      0.06s CPU      0.13s WALL (       2 calls)
     wfcinit:wfcr :     20.25s CPU     20.89s WALL (       2 calls)
     potinit      :      1.58s CPU      1.76s WALL (       1 calls)
     hinit0       :      0.30s CPU      0.37s WALL (       1 calls)

     Called by electrons:
     c_bands      :   1988.52s CPU   2033.83s WALL (      26 calls)
     sum_band     :    209.95s CPU    235.70s WALL (      26 calls)
     v_of_rho     :     10.97s CPU     11.74s WALL (      27 calls)
     v_h          :      1.02s CPU      1.04s WALL (      27 calls)
     v_xc         :     10.64s CPU     11.45s WALL (      29 calls)
     newd         :     35.80s CPU     55.99s WALL (      27 calls)
     PAW_pot      :     22.33s CPU     22.58s WALL (      27 calls)
     mix_rho      :      2.28s CPU      2.41s WALL (      26 calls)

     Called by c_bands:
     init_us_2    :      8.89s CPU      9.07s WALL (     110 calls)
     cegterg      :   1968.63s CPU   2013.30s WALL (      53 calls)

     Called by sum_band:
     sum_band:wei :      0.00s CPU      0.00s WALL (      26 calls)
     sum_band:loo :    167.31s CPU    170.15s WALL (      26 calls)
     sum_band:buf :      1.13s CPU      1.14s WALL (      52 calls)
     sum_band:ini :      4.20s CPU      4.21s WALL (      52 calls)
     sum_band:cal :     55.68s CPU     56.03s WALL (      52 calls)
     sum_band:bec :      0.34s CPU      0.35s WALL (      52 calls)
     addusdens    :     40.03s CPU     62.35s WALL (      26 calls)
                                        0.00s GPU  (      26 calls)
     addusd:skk   :      3.35s CPU      8.02s WALL (      52 calls)
                                        0.00s GPU  (      52 calls)

     Called by *egterg:
     cdiaghg      :    176.88s CPU    181.80s WALL (     412 calls)
     cegterg:over :    195.68s CPU    198.85s WALL (     359 calls)
     cegterg:upda :    133.68s CPU    138.60s WALL (     359 calls)
     cegterg:last :    316.70s CPU    318.40s WALL (     168 calls)
     cdiaghg:chol :      5.00s CPU      6.40s WALL (     412 calls)
     cdiaghg:inve :      2.18s CPU      2.74s WALL (     412 calls)
     cdiaghg:para :     31.58s CPU     32.29s WALL (     824 calls)
     h_psi        :    911.37s CPU    929.62s WALL (     414 calls)
     s_psi        :    206.02s CPU    208.45s WALL (     414 calls)
     g_psi        :      1.91s CPU      1.93s WALL (     359 calls)

     Called by h_psi:
     h_psi:calbec :    205.89s CPU    206.77s WALL (     414 calls)
     vloc_psi     :    496.25s CPU    508.65s WALL (     414 calls)
     add_vuspsi   :    205.77s CPU    208.09s WALL (     414 calls)

     General routines
     calbec       :    273.69s CPU    275.01s WALL (     476 calls)
     fft          :      8.32s CPU      8.76s WALL (     374 calls)
     ffts         :      0.22s CPU      0.23s WALL (      53 calls)
     fftw         :    319.24s CPU    328.79s WALL (  216138 calls)
     interpolate  :      0.74s CPU      0.84s WALL (      27 calls)
 
     Parallel routines

     PAW routines
     PAW_pot      :     22.33s CPU     22.58s WALL (      27 calls)
     PAW_symme    :      0.04s CPU      0.04s WALL (      53 calls)
 
     PWSCF        :  45m36.70s CPU  47m18.84s WALL

 
   This run was terminated on:  23: 0:16   4Aug2026            

=------------------------------------------------------------------------------=
   JOB DONE.
=------------------------------------------------------------------------------=
