
     Program PWSCF v.7.3.1 starts on 26May2026 at 17: 2:52 

     This program is part of the open-source Quantum ESPRESSO suite
     for quantum simulation of materials; please cite
         "P. Giannozzi et al., J. Phys.:Condens. Matter 21 395502 (2009);
         "P. Giannozzi et al., J. Phys.:Condens. Matter 29 465901 (2017);
         "P. Giannozzi et al., J. Chem. Phys. 152 154105 (2020);
          URL http://www.quantum-espresso.org", 
     in publications or presentations arising from this work. More details at
     http://www.quantum-espresso.org/quote

     Parallel version (MPI & OpenMP), running on       1 processor cores
     Number of MPI processes:                 1
     Threads/MPI process:                     1

     MPI processes distributed on     1 nodes
     59607 MiB available memory on the printing compute node when the environment starts
 
     Waiting for input...
     Reading input from standard input

     Current dimensions of program PWSCF are:
     Max number of different atomic species (ntypx) = 10
     Max number of k-points (npk) =  40000
     Max angular momentum in pseudopotentials (lmaxx) =  4
     file Ga.pbe-dn-kjpaw_psl.1.0.0.UPF: wavefunction(s)  4S renormalized
     file N.pbe-n-kjpaw_psl.1.0.0.UPF: wavefunction(s)  2S renormalized
 
     Subspace diagonalization in iterative solution of the eigenvalue problem:
     a serial algorithm will be used

 
     G-vector sticks info
     --------------------
     sticks:   dense  smooth     PW     G-vecs:    dense   smooth      PW
     Sum         397     199     73                10431     3717     761
 
     Using Slab Decomposition
 


     bravais-lattice index     =            4
     lattice parameter (alat)  =       6.0093  a.u.
     unit-cell volume          =     306.1338 (a.u.)^3
     number of atoms/cell      =            4
     number of atomic types    =            2
     number of electrons       =        36.00
     number of Kohn-Sham states=           22
     kinetic-energy cutoff     =      20.0000  Ry
     charge density cutoff     =     160.0000  Ry
     scf convergence threshold =      1.0E-08
     mixing beta               =       0.7000
     number of iterations used =            8  plain     mixing
     Exchange-correlation= SLA  PW   PBX  PBC
                           (   1   4   3   4   0   0   0)

     celldm(1)=   6.009329  celldm(2)=   0.000000  celldm(3)=   1.628931
     celldm(4)=   0.000000  celldm(5)=   0.000000  celldm(6)=   0.000000

     crystal axes: (cart. coord. in units of alat)
               a(1) = (   1.000000   0.000000   0.000000 )  
               a(2) = (  -0.500000   0.866025   0.000000 )  
               a(3) = (   0.000000   0.000000   1.628931 )  

     reciprocal axes: (cart. coord. in units 2 pi/alat)
               b(1) = (  1.000000  0.577350  0.000000 )  
               b(2) = (  0.000000  1.154701  0.000000 )  
               b(3) = (  0.000000  0.000000  0.613900 )  


     PseudoPot. # 1 for Ga read from file:
     ../../PSEUDO/Ga.pbe-dn-kjpaw_psl.1.0.0.UPF
     MD5 check sum: 93aceff68ec27daa0acc11ebb2e245f0
     Pseudo is Projector augmented-wave + core cor, Zval = 13.0
     Generated using 'atomic' code by A. Dal Corso  v.7.3.1
     Shape of augmentation charge: PSQ
     Using radial grid of 1205 points,  6 beta functions with: 
                l(1) =   0
                l(2) =   0
                l(3) =   1
                l(4) =   1
                l(5) =   2
                l(6) =   2
     Q(r) pseudized with 0 coefficients 


     PseudoPot. # 2 for N  read from file:
     ../../PSEUDO/N.pbe-n-kjpaw_psl.1.0.0.UPF
     MD5 check sum: 86f48117b7e7b472c01f85d0863ba463
     Pseudo is Projector augmented-wave + core cor, Zval =  5.0
     Generated using 'atomic' code by A. Dal Corso  v.7.3.1
     Shape of augmentation charge: PSQ
     Using radial grid of 1085 points,  4 beta functions with: 
                l(1) =   0
                l(2) =   0
                l(3) =   1
                l(4) =   1
     Q(r) pseudized with 0 coefficients 


     atomic species   valence    mass     pseudopotential
     Ga               13.00    69.72300     Ga( 1.00)
     N                 5.00    14.00700     N ( 1.00)

      2 Sym. Ops. (no inversion) found ( 1 have fractional translation)


                                    s                        frac. trans.

      isym =  1     identity                                     

 cryst.   s( 1) = (     1          0          0      )
                  (     0          1          0      )
                  (     0          0          1      )

 cart.    s( 1) = (  1.0000000  0.0000000  0.0000000 )
                  (  0.0000000  1.0000000  0.0000000 )
                  (  0.0000000  0.0000000  1.0000000 )


      isym =  2     inv. 180 deg rotation - cryst. axis [1,-1,0] 

 cryst.   s( 2) = (     0          1          0      )    f =(  0.0000000 )
                  (     1          0          0      )       (  0.0000000 )
                  (     0          0          1      )       (  0.5000000 )

 cart.    s( 2) = ( -0.5000000  0.8660254  0.0000000 )    f =(  0.0000000 )
                  (  0.8660254  0.5000000  0.0000000 )       (  0.0000000 )
                  (  0.0000000  0.0000000  1.0000000 )       (  0.8144654 )


     point group C_s (m)    
     there are  2 classes
     the character table:

       E     s    
A'     1.00  1.00
A''    1.00 -1.00

     the symmetry operations in each class and the name of the first element:

     E        1
          identity                                               
     s        2
          inv. 180 deg rotation - cryst. axis [1,-1,0]           

   Cartesian axes

     site n.     atom                  positions (alat units)
         1        Ga     tau(   1) = (   0.4950000   0.2857884   1.4253145  )
         2        Ga     tau(   2) = (   0.0000000   0.5715768   0.6108491  )
         3        N      tau(   3) = (   0.0000000   0.5715768   0.0000000  )
         4        N      tau(   4) = (   0.4950000   0.2857884   0.8144654  )

   Crystallographic axes

     site n.     atom                  positions (cryst. coord.)
         1        Ga     tau(   1) = (  0.6600000  0.3300000  0.8750000  )
         2        Ga     tau(   2) = (  0.3300000  0.6600000  0.3750000  )
         3        N      tau(   3) = (  0.3300000  0.6600000  0.0000000  )
         4        N      tau(   4) = (  0.6600000  0.3300000  0.5000000  )

     number of k points=    52
                       cart. coord. in units 2pi/alat
        k(    1) = (   0.1250000   0.2165064   0.0767375), wk =   0.0208333
        k(    2) = (   0.1250000   0.2165064   0.2302124), wk =   0.0208333
        k(    3) = (   0.1250000   0.5051815   0.0767375), wk =   0.0416667
        k(    4) = (   0.1250000   0.5051815   0.2302124), wk =   0.0416667
        k(    5) = (   0.1250000  -0.3608439   0.0767375), wk =   0.0416667
        k(    6) = (   0.1250000  -0.3608439   0.2302124), wk =   0.0416667
        k(    7) = (   0.1250000  -0.0721688   0.0767375), wk =   0.0416667
        k(    8) = (   0.1250000  -0.0721688   0.2302124), wk =   0.0416667
        k(    9) = (   0.3750000   0.6495191   0.0767375), wk =   0.0208333
        k(   10) = (   0.3750000   0.6495191   0.2302124), wk =   0.0208333
        k(   11) = (   0.3750000  -0.2165064   0.0767375), wk =   0.0416667
        k(   12) = (   0.3750000  -0.2165064   0.2302124), wk =   0.0416667
        k(   13) = (  -0.1250000   0.2165064  -0.0767375), wk =   0.0416667
        k(   14) = (   0.1250000  -0.2165064  -0.0767375), wk =   0.0416667
        k(   15) = (   0.1250000   0.2165064  -0.0767375), wk =   0.0208333
        k(   16) = (  -0.1250000   0.2165064  -0.2302124), wk =   0.0416667
        k(   17) = (   0.1250000  -0.2165064  -0.2302124), wk =   0.0416667
        k(   18) = (   0.1250000   0.2165064  -0.2302124), wk =   0.0208333
        k(   19) = (  -0.1250000   0.5051815  -0.0767375), wk =   0.0416667
        k(   20) = (   0.1250000  -0.5051815  -0.0767375), wk =   0.0416667
        k(   21) = (  -0.3750000   0.3608439   0.0767375), wk =   0.0416667
        k(   22) = (   0.3750000  -0.3608439   0.0767375), wk =   0.0416667
        k(   23) = (   0.3750000   0.3608439  -0.0767375), wk =   0.0416667
        k(   24) = (  -0.1250000   0.5051815  -0.2302124), wk =   0.0416667
        k(   25) = (   0.1250000  -0.5051815  -0.2302124), wk =   0.0416667
        k(   26) = (  -0.3750000   0.3608439   0.2302124), wk =   0.0416667
        k(   27) = (   0.3750000  -0.3608439   0.2302124), wk =   0.0416667
        k(   28) = (   0.3750000   0.3608439  -0.2302124), wk =   0.0416667
        k(   29) = (  -0.1250000  -0.3608439  -0.0767375), wk =   0.0416667
        k(   30) = (   0.1250000   0.3608439  -0.0767375), wk =   0.0416667
        k(   31) = (   0.3750000  -0.0721688   0.0767375), wk =   0.0416667
        k(   32) = (  -0.3750000   0.0721688   0.0767375), wk =   0.0416667
        k(   33) = (  -0.3750000  -0.0721688  -0.0767375), wk =   0.0416667
        k(   34) = (  -0.1250000  -0.3608439  -0.2302124), wk =   0.0416667
        k(   35) = (   0.1250000   0.3608439  -0.2302124), wk =   0.0416667
        k(   36) = (   0.3750000  -0.0721688   0.2302124), wk =   0.0416667
        k(   37) = (  -0.3750000   0.0721688   0.2302124), wk =   0.0416667
        k(   38) = (  -0.3750000  -0.0721688  -0.2302124), wk =   0.0416667
        k(   39) = (  -0.1250000  -0.0721688  -0.0767375), wk =   0.0416667
        k(   40) = (   0.1250000   0.0721688  -0.0767375), wk =   0.0416667
        k(   41) = (  -0.1250000  -0.0721688  -0.2302124), wk =   0.0416667
        k(   42) = (   0.1250000   0.0721688  -0.2302124), wk =   0.0416667
        k(   43) = (  -0.3750000   0.6495191  -0.0767375), wk =   0.0416667
        k(   44) = (   0.3750000  -0.6495191  -0.0767375), wk =   0.0416667
        k(   45) = (   0.3750000   0.6495191  -0.0767375), wk =   0.0208333
        k(   46) = (  -0.3750000   0.6495191  -0.2302124), wk =   0.0416667
        k(   47) = (   0.3750000  -0.6495191  -0.2302124), wk =   0.0416667
        k(   48) = (   0.3750000   0.6495191  -0.2302124), wk =   0.0208333
        k(   49) = (  -0.3750000  -0.2165064  -0.0767375), wk =   0.0416667
        k(   50) = (   0.3750000   0.2165064  -0.0767375), wk =   0.0416667
        k(   51) = (  -0.3750000  -0.2165064  -0.2302124), wk =   0.0416667
        k(   52) = (   0.3750000   0.2165064  -0.2302124), wk =   0.0416667

                       cryst. coord.
        k(    1) = (   0.1250000   0.1250000   0.1250000), wk =   0.0208333
        k(    2) = (   0.1250000   0.1250000   0.3750000), wk =   0.0208333
        k(    3) = (   0.1250000   0.3750000   0.1250000), wk =   0.0416667
        k(    4) = (   0.1250000   0.3750000   0.3750000), wk =   0.0416667
        k(    5) = (   0.1250000  -0.3750000   0.1250000), wk =   0.0416667
        k(    6) = (   0.1250000  -0.3750000   0.3750000), wk =   0.0416667
        k(    7) = (   0.1250000  -0.1250000   0.1250000), wk =   0.0416667
        k(    8) = (   0.1250000  -0.1250000   0.3750000), wk =   0.0416667
        k(    9) = (   0.3750000   0.3750000   0.1250000), wk =   0.0208333
        k(   10) = (   0.3750000   0.3750000   0.3750000), wk =   0.0208333
        k(   11) = (   0.3750000  -0.3750000   0.1250000), wk =   0.0416667
        k(   12) = (   0.3750000  -0.3750000   0.3750000), wk =   0.0416667
        k(   13) = (  -0.1250000   0.2500000  -0.1250000), wk =   0.0416667
        k(   14) = (   0.1250000  -0.2500000  -0.1250000), wk =   0.0416667
        k(   15) = (   0.1250000   0.1250000  -0.1250000), wk =   0.0208333
        k(   16) = (  -0.1250000   0.2500000  -0.3750000), wk =   0.0416667
        k(   17) = (   0.1250000  -0.2500000  -0.3750000), wk =   0.0416667
        k(   18) = (   0.1250000   0.1250000  -0.3750000), wk =   0.0208333
        k(   19) = (  -0.1250000   0.5000000  -0.1250000), wk =   0.0416667
        k(   20) = (   0.1250000  -0.5000000  -0.1250000), wk =   0.0416667
        k(   21) = (  -0.3750000   0.5000000   0.1250000), wk =   0.0416667
        k(   22) = (   0.3750000  -0.5000000   0.1250000), wk =   0.0416667
        k(   23) = (   0.3750000   0.1250000  -0.1250000), wk =   0.0416667
        k(   24) = (  -0.1250000   0.5000000  -0.3750000), wk =   0.0416667
        k(   25) = (   0.1250000  -0.5000000  -0.3750000), wk =   0.0416667
        k(   26) = (  -0.3750000   0.5000000   0.3750000), wk =   0.0416667
        k(   27) = (   0.3750000  -0.5000000   0.3750000), wk =   0.0416667
        k(   28) = (   0.3750000   0.1250000  -0.3750000), wk =   0.0416667
        k(   29) = (  -0.1250000  -0.2500000  -0.1250000), wk =   0.0416667
        k(   30) = (   0.1250000   0.2500000  -0.1250000), wk =   0.0416667
        k(   31) = (   0.3750000  -0.2500000   0.1250000), wk =   0.0416667
        k(   32) = (  -0.3750000   0.2500000   0.1250000), wk =   0.0416667
        k(   33) = (  -0.3750000   0.1250000  -0.1250000), wk =   0.0416667
        k(   34) = (  -0.1250000  -0.2500000  -0.3750000), wk =   0.0416667
        k(   35) = (   0.1250000   0.2500000  -0.3750000), wk =   0.0416667
        k(   36) = (   0.3750000  -0.2500000   0.3750000), wk =   0.0416667
        k(   37) = (  -0.3750000   0.2500000   0.3750000), wk =   0.0416667
        k(   38) = (  -0.3750000   0.1250000  -0.3750000), wk =   0.0416667
        k(   39) = (  -0.1250000   0.0000000  -0.1250000), wk =   0.0416667
        k(   40) = (   0.1250000   0.0000000  -0.1250000), wk =   0.0416667
        k(   41) = (  -0.1250000   0.0000000  -0.3750000), wk =   0.0416667
        k(   42) = (   0.1250000   0.0000000  -0.3750000), wk =   0.0416667
        k(   43) = (  -0.3750000   0.7500000  -0.1250000), wk =   0.0416667
        k(   44) = (   0.3750000  -0.7500000  -0.1250000), wk =   0.0416667
        k(   45) = (   0.3750000   0.3750000  -0.1250000), wk =   0.0208333
        k(   46) = (  -0.3750000   0.7500000  -0.3750000), wk =   0.0416667
        k(   47) = (   0.3750000  -0.7500000  -0.3750000), wk =   0.0416667
        k(   48) = (   0.3750000   0.3750000  -0.3750000), wk =   0.0208333
        k(   49) = (  -0.3750000   0.0000000  -0.1250000), wk =   0.0416667
        k(   50) = (   0.3750000   0.0000000  -0.1250000), wk =   0.0416667
        k(   51) = (  -0.3750000   0.0000000  -0.3750000), wk =   0.0416667
        k(   52) = (   0.3750000   0.0000000  -0.3750000), wk =   0.0416667

     Dense  grid:    10431 G-vectors     FFT dimensions: (  25,  25,  40)

     Smooth grid:     3717 G-vectors     FFT dimensions: (  18,  18,  30)

     Dynamical RAM for                 wfc:       0.16 MB

     Dynamical RAM for     wfc (w. buffer):       8.22 MB

     Dynamical RAM for           str. fact:       0.32 MB

     Dynamical RAM for           local pot:       0.00 MB

     Dynamical RAM for          nlocal pot:       0.37 MB

     Dynamical RAM for                qrad:       2.03 MB

     Dynamical RAM for          rho,v,vnew:       1.05 MB

     Dynamical RAM for               rhoin:       0.35 MB

     Dynamical RAM for            rho*nmix:       2.55 MB

     Dynamical RAM for           G-vectors:       0.63 MB

     Dynamical RAM for          h,s,v(r/c):       0.09 MB

     Dynamical RAM for          <psi|beta>:       0.02 MB

     Dynamical RAM for                 psi:       0.31 MB

     Dynamical RAM for                hpsi:       0.31 MB

     Dynamical RAM for                spsi:       0.31 MB

     Dynamical RAM for      wfcinit/wfcrot:       0.38 MB

     Dynamical RAM for           addusdens:      29.92 MB

     Dynamical RAM for          addusforce:      30.33 MB

     Estimated static dynamical RAM per process >      14.39 MB

     Estimated max dynamical RAM per process >      47.27 MB

     Check: negative core charge=   -0.000017

     Initial potential from superposition of free atoms

     starting charge      35.9941, renormalised to      36.0000
     Starting wfcs are   26 randomized atomic wfcs
     Checking if some PAW data can be deallocated... 

     total cpu time spent up to now is        0.7 secs

     Self-consistent Calculation

     iteration #  1     ecut=    20.00 Ry     beta= 0.70
     Davidson diagonalization with overlap

---- Real-time Memory Report at c_bands before calling an iterative solver
           131 MiB given to the printing process from OS
             0 MiB allocation reported by mallinfo(arena+hblkhd)
         59571 MiB available memory on the node where the printing process lives
------------------
     ethr =  1.00E-02,  avg # of iterations =  2.1

     total cpu time spent up to now is        1.4 secs

     total energy              =    -611.20501600 Ry
     estimated scf accuracy    <       0.74544033 Ry

     iteration #  2     ecut=    20.00 Ry     beta= 0.70
     Davidson diagonalization with overlap

---- Real-time Memory Report at c_bands before calling an iterative solver
           152 MiB given to the printing process from OS
             0 MiB allocation reported by mallinfo(arena+hblkhd)
         59552 MiB available memory on the node where the printing process lives
------------------
     ethr =  2.07E-03,  avg # of iterations =  2.7

     total cpu time spent up to now is        2.1 secs

     total energy              =    -611.40361574 Ry
     estimated scf accuracy    <       0.56312448 Ry

     iteration #  3     ecut=    20.00 Ry     beta= 0.70
     Davidson diagonalization with overlap

---- Real-time Memory Report at c_bands before calling an iterative solver
           158 MiB given to the printing process from OS
             0 MiB allocation reported by mallinfo(arena+hblkhd)
         59551 MiB available memory on the node where the printing process lives
------------------
     ethr =  1.56E-03,  avg # of iterations =  2.0

     total cpu time spent up to now is        2.8 secs

     total energy              =    -611.51256265 Ry
     estimated scf accuracy    <       0.00319967 Ry

     iteration #  4     ecut=    20.00 Ry     beta= 0.70
     Davidson diagonalization with overlap

---- Real-time Memory Report at c_bands before calling an iterative solver
           159 MiB given to the printing process from OS
             0 MiB allocation reported by mallinfo(arena+hblkhd)
         59551 MiB available memory on the node where the printing process lives
------------------
     ethr =  8.89E-06,  avg # of iterations =  4.3

     total cpu time spent up to now is        3.5 secs

     total energy              =    -611.51311856 Ry
     estimated scf accuracy    <       0.00062822 Ry

     iteration #  5     ecut=    20.00 Ry     beta= 0.70
     Davidson diagonalization with overlap

---- Real-time Memory Report at c_bands before calling an iterative solver
           160 MiB given to the printing process from OS
             0 MiB allocation reported by mallinfo(arena+hblkhd)
         59551 MiB available memory on the node where the printing process lives
------------------
     ethr =  1.75E-06,  avg # of iterations =  2.7

     total cpu time spent up to now is        4.2 secs

     total energy              =    -611.51324985 Ry
     estimated scf accuracy    <       0.00000479 Ry

     iteration #  6     ecut=    20.00 Ry     beta= 0.70
     Davidson diagonalization with overlap

---- Real-time Memory Report at c_bands before calling an iterative solver
           160 MiB given to the printing process from OS
             0 MiB allocation reported by mallinfo(arena+hblkhd)
         59551 MiB available memory on the node where the printing process lives
------------------
     ethr =  1.33E-08,  avg # of iterations =  2.5

     total cpu time spent up to now is        4.9 secs

     total energy              =    -611.51325112 Ry
     estimated scf accuracy    <       0.00000029 Ry

     iteration #  7     ecut=    20.00 Ry     beta= 0.70
     Davidson diagonalization with overlap

---- Real-time Memory Report at c_bands before calling an iterative solver
           160 MiB given to the printing process from OS
             0 MiB allocation reported by mallinfo(arena+hblkhd)
         59522 MiB available memory on the node where the printing process lives
------------------
     ethr =  8.11E-10,  avg # of iterations =  2.7

     total cpu time spent up to now is        5.6 secs

     End of self-consistent calculation

          k = 0.1250 0.2165 0.0767 (   457 PWs)   bands (ev):

    -6.2703  -6.1301  -5.0421  -5.0416  -4.9740  -4.9740  -4.8791  -4.8525
    -4.8090  -4.7749  -4.6243  -2.6628   3.6621   7.0450   7.4735   8.4311
    10.0010  10.0553  14.0684  16.2575  18.3651  18.6360

     occupation numbers 
     1.0000   1.0000   1.0000   1.0000   1.0000   1.0000   1.0000   1.0000
     1.0000   1.0000   1.0000   1.0000   1.0000   1.0000   1.0000   1.0000
     1.0000   1.0000   0.0000   0.0000   0.0000   0.0000

          k = 0.1250 0.2165 0.2302 (   464 PWs)   bands (ev):

    -6.1669  -6.1259  -5.0512  -5.0340  -5.0064  -4.9993  -4.8734  -4.8609
    -4.8082  -4.7973  -4.2880  -3.5302   5.0789   6.5798   7.7879   8.6401
     9.2326   9.3361  14.8716  15.9902  17.9874  18.3578

     occupation numbers 
     1.0000   1.0000   1.0000   1.0000   1.0000   1.0000   1.0000   1.0000
     1.0000   1.0000   1.0000   1.0000   1.0000   1.0000   1.0000   1.0000
     1.0000   1.0000   0.0000   0.0000   0.0000   0.0000

          k = 0.1250 0.5052 0.0767 (   462 PWs)   bands (ev):

    -6.1536  -6.1153  -5.0413  -5.0110  -4.9294  -4.9063  -4.8881  -4.8581
    -4.8028  -4.7611  -3.1164  -2.2028   3.5910   4.7313   5.9643   6.8361
     8.3405   8.7686  15.6835  16.6565  17.2993  18.6840

     occupation numbers 
     1.0000   1.0000   1.0000   1.0000   1.0000   1.0000   1.0000   1.0000
     1.0000   1.0000   1.0000   1.0000   1.0000   1.0000   1.0000   1.0000
     1.0000   1.0000   0.0000   0.0000   0.0000   0.0000

          k = 0.1250 0.5052 0.2302 (   468 PWs)   bands (ev):

    -6.1160  -6.1006  -5.0355  -5.0055  -4.9887  -4.9272  -4.8768  -4.8464
    -4.8067  -4.7908  -2.9048  -2.5239   3.4572   3.9501   6.9362   7.8234
     7.9392   8.8361  15.0605  15.9993  18.2513  18.7098

     occupation numbers 
     1.0000   1.0000   1.0000   1.0000   1.0000   1.0000   1.0000   1.0000
     1.0000   1.0000   1.0000   1.0000   1.0000   1.0000   1.0000   1.0000
     1.0000   1.0000   0.0000   0.0000   0.0000   0.0000

          k = 0.1250-0.3608 0.0767 (   463 PWs)   bands (ev):

    -6.1738  -6.1211  -5.0442  -5.0160  -4.9442  -4.9190  -4.8933  -4.8612
    -4.8202  -4.7765  -3.9799  -2.3029   3.9879   5.5578   6.1555   7.3420
     9.1846   9.3031  15.1099  16.9512  17.4727  18.7396

     occupation numbers 
     1.0000   1.0000   1.0000   1.0000   1.0000   1.0000   1.0000   1.0000
     1.0000   1.0000   1.0000   1.0000   1.0000   1.0000   1.0000   1.0000
     1.0000   1.0000   0.0000   0.0000   0.0000   0.0000

          k = 0.1250-0.3608 0.2302 (   463 PWs)   bands (ev):

    -6.1210  -6.1040  -5.0308  -5.0048  -4.9868  -4.9473  -4.8764  -4.8682
    -4.7990  -4.7852  -3.6391  -2.9698   4.3743   5.1218   7.2943   7.7848
     8.5124   9.0279  15.1540  16.3139  17.9146  18.5503

     occupation numbers 
     1.0000   1.0000   1.0000   1.0000   1.0000   1.0000   1.0000   1.0000
     1.0000   1.0000   1.0000   1.0000   1.0000   1.0000   1.0000   1.0000
     1.0000   1.0000   0.0000   0.0000   0.0000   0.0000

          k = 0.1250-0.0722 0.0767 (   463 PWs)   bands (ev):

    -6.3953  -6.1500  -5.0705  -5.0680  -5.0172  -4.9862  -4.9570  -4.8574
    -4.8395  -4.7938  -4.7604  -2.9271   3.2991   8.1803   8.9796   9.1057
    10.3880  10.5253  13.0996  15.0968  19.0251  19.6524

     occupation numbers 
     1.0000   1.0000   1.0000   1.0000   1.0000   1.0000   1.0000   1.0000
     1.0000   1.0000   1.0000   1.0000   1.0000   1.0000   1.0000   1.0000
     1.0000   1.0000   0.0000   0.0000   0.0000   0.0000

          k = 0.1250-0.0722 0.2302 (   471 PWs)   bands (ev):

    -6.2394  -6.1571  -5.0740  -5.0543  -5.0530  -5.0218  -4.8797  -4.8322
    -4.8278  -4.7959  -4.6208  -3.8636   5.0625   7.2875   8.6991   9.4600
     9.5460  10.0480  14.2580  15.0176  18.5279  18.7081

     occupation numbers 
     1.0000   1.0000   1.0000   1.0000   1.0000   1.0000   1.0000   1.0000
     1.0000   1.0000   1.0000   1.0000   1.0000   1.0000   1.0000   1.0000
     1.0000   1.0000   0.0000   0.0000   0.0000   0.0000

          k = 0.3750 0.6495 0.0767 (   460 PWs)   bands (ev):

    -6.1309  -6.1129  -5.0499  -4.9449  -4.9213  -4.8989  -4.8812  -4.8549
    -4.8257  -4.8020  -2.5597  -2.2399   3.9573   4.4862   5.1914   7.0173
     7.5862   7.8555  16.3839  17.3448  18.0636  18.9657

     occupation numbers 
     1.0000   1.0000   1.0000   1.0000   1.0000   1.0000   1.0000   1.0000
     1.0000   1.0000   1.0000   1.0000   1.0000   1.0000   1.0000   1.0000
     1.0000   1.0000   0.0000   0.0000   0.0000   0.0000

          k = 0.3750 0.6495 0.2302 (   459 PWs)   bands (ev):

    -6.0983  -6.0895  -4.9977  -4.9786  -4.9648  -4.9273  -4.8475  -4.8454
    -4.8276  -4.8147  -2.4643  -2.3366   3.6344   3.8280   5.7396   6.7579
     8.3030   8.6858  16.2955  16.9471  18.0766  18.7524

     occupation numbers 
     1.0000   1.0000   1.0000   1.0000   1.0000   1.0000   1.0000   1.0000
     1.0000   1.0000   1.0000   1.0000   1.0000   1.0000   1.0000   1.0000
     1.0000   1.0000   0.0000   0.0000   0.0000   0.0000

          k = 0.3750-0.2165 0.0767 (   460 PWs)   bands (ev):

    -6.1666  -6.1142  -5.0294  -5.0069  -4.9405  -4.9096  -4.8822  -4.8587
    -4.8079  -4.7539  -3.6646  -2.2609   3.7053   5.0311   5.8590   7.6802
     8.8409   9.4848  14.8667  15.9652  17.6020  18.8050

     occupation numbers 
     1.0000   1.0000   1.0000   1.0000   1.0000   1.0000   1.0000   1.0000
     1.0000   1.0000   1.0000   1.0000   1.0000   1.0000   1.0000   1.0000
     1.0000   1.0000   0.0000   0.0000   0.0000   0.0000

          k = 0.3750-0.2165 0.2302 (   458 PWs)   bands (ev):

    -6.1159  -6.0960  -5.0338  -5.0035  -4.9702  -4.9070  -4.8721  -4.8338
    -4.7961  -4.7735  -3.3562  -2.7836   3.7474   4.3736   7.3681   8.1840
     8.8136   8.9608  14.4792  15.4675  18.1281  18.6634

     occupation numbers 
     1.0000   1.0000   1.0000   1.0000   1.0000   1.0000   1.0000   1.0000
     1.0000   1.0000   1.0000   1.0000   1.0000   1.0000   1.0000   1.0000
     1.0000   1.0000   0.0000   0.0000   0.0000   0.0000

          k =-0.1250 0.2165-0.0767 (   457 PWs)   bands (ev):

    -6.2674  -6.1294  -5.0381  -5.0325  -4.9778  -4.9629  -4.8827  -4.8514
    -4.8089  -4.7784  -4.6353  -2.6615   3.6611   6.9559   7.4703   8.4683
    10.0338  10.0447  14.0474  16.2502  18.4670  18.6707

     occupation numbers 
     1.0000   1.0000   1.0000   1.0000   1.0000   1.0000   1.0000   1.0000
     1.0000   1.0000   1.0000   1.0000   1.0000   1.0000   1.0000   1.0000
     1.0000   1.0000   0.0000   0.0000   0.0000   0.0000

          k = 0.1250-0.2165-0.0767 (   457 PWs)   bands (ev):

    -6.2674  -6.1294  -5.0381  -5.0325  -4.9778  -4.9629  -4.8827  -4.8514
    -4.8089  -4.7784  -4.6353  -2.6615   3.6611   6.9559   7.4703   8.4683
    10.0338  10.0447  14.0474  16.2502  18.4670  18.6707

     occupation numbers 
     1.0000   1.0000   1.0000   1.0000   1.0000   1.0000   1.0000   1.0000
     1.0000   1.0000   1.0000   1.0000   1.0000   1.0000   1.0000   1.0000
     1.0000   1.0000   0.0000   0.0000   0.0000   0.0000

          k = 0.1250 0.2165-0.0767 (   457 PWs)   bands (ev):

    -6.2703  -6.1301  -5.0421  -5.0416  -4.9740  -4.9740  -4.8791  -4.8525
    -4.8090  -4.7749  -4.6243  -2.6628   3.6621   7.0450   7.4734   8.4311
    10.0010  10.0553  14.0684  16.2575  18.3651  18.6360

     occupation numbers 
     1.0000   1.0000   1.0000   1.0000   1.0000   1.0000   1.0000   1.0000
     1.0000   1.0000   1.0000   1.0000   1.0000   1.0000   1.0000   1.0000
     1.0000   1.0000   0.0000   0.0000   0.0000   0.0000

          k =-0.1250 0.2165-0.2302 (   464 PWs)   bands (ev):

    -6.1649  -6.1251  -5.0500  -5.0254  -5.0108  -4.9926  -4.8772  -4.8599
    -4.8094  -4.7978  -4.2907  -3.5300   5.0583   6.5406   7.7233   8.7087
     9.2086   9.3947  14.8587  15.9897  17.9941  18.3953

     occupation numbers 
     1.0000   1.0000   1.0000   1.0000   1.0000   1.0000   1.0000   1.0000
     1.0000   1.0000   1.0000   1.0000   1.0000   1.0000   1.0000   1.0000
     1.0000   1.0000   0.0000   0.0000   0.0000   0.0000

          k = 0.1250-0.2165-0.2302 (   464 PWs)   bands (ev):

    -6.1649  -6.1251  -5.0500  -5.0254  -5.0108  -4.9926  -4.8772  -4.8599
    -4.8094  -4.7977  -4.2907  -3.5300   5.0582   6.5406   7.7233   8.7087
     9.2086   9.3947  14.8587  15.9897  17.9941  18.3953

     occupation numbers 
     1.0000   1.0000   1.0000   1.0000   1.0000   1.0000   1.0000   1.0000
     1.0000   1.0000   1.0000   1.0000   1.0000   1.0000   1.0000   1.0000
     1.0000   1.0000   0.0000   0.0000   0.0000   0.0000

          k = 0.1250 0.2165-0.2302 (   464 PWs)   bands (ev):

    -6.1669  -6.1259  -5.0512  -5.0340  -5.0064  -4.9993  -4.8734  -4.8609
    -4.8082  -4.7973  -4.2880  -3.5302   5.0789   6.5798   7.7879   8.6402
     9.2326   9.3361  14.8716  15.9901  17.9874  18.3578

     occupation numbers 
     1.0000   1.0000   1.0000   1.0000   1.0000   1.0000   1.0000   1.0000
     1.0000   1.0000   1.0000   1.0000   1.0000   1.0000   1.0000   1.0000
     1.0000   1.0000   0.0000   0.0000   0.0000   0.0000

          k =-0.1250 0.5052-0.0767 (   462 PWs)   bands (ev):

    -6.1534  -6.1156  -5.0400  -5.0098  -4.9287  -4.9055  -4.8886  -4.8578
    -4.8020  -4.7610  -3.1118  -2.2082   3.5850   4.7109   5.9786   6.8268
     8.3463   8.7730  15.6768  16.6690  17.3048  18.6785

     occupation numbers 
     1.0000   1.0000   1.0000   1.0000   1.0000   1.0000   1.0000   1.0000
     1.0000   1.0000   1.0000   1.0000   1.0000   1.0000   1.0000   1.0000
     1.0000   1.0000   0.0000   0.0000   0.0000   0.0000

          k = 0.1250-0.5052-0.0767 (   462 PWs)   bands (ev):

    -6.1534  -6.1156  -5.0400  -5.0098  -4.9287  -4.9055  -4.8886  -4.8578
    -4.8020  -4.7610  -3.1118  -2.2082   3.5850   4.7109   5.9786   6.8268
     8.3463   8.7730  15.6768  16.6690  17.3048  18.6785

     occupation numbers 
     1.0000   1.0000   1.0000   1.0000   1.0000   1.0000   1.0000   1.0000
     1.0000   1.0000   1.0000   1.0000   1.0000   1.0000   1.0000   1.0000
     1.0000   1.0000   0.0000   0.0000   0.0000   0.0000

          k =-0.3750 0.3608 0.0767 (   462 PWs)   bands (ev):

    -6.1517  -6.1129  -5.0332  -5.0037  -4.9305  -4.9042  -4.8810  -4.8615
    -4.8017  -4.7615  -3.0958  -2.2243   3.5650   4.6213   6.0152   6.8602
     8.2693   8.7820  15.7223  16.6889  17.3736  18.6894

     occupation numbers 
     1.0000   1.0000   1.0000   1.0000   1.0000   1.0000   1.0000   1.0000
     1.0000   1.0000   1.0000   1.0000   1.0000   1.0000   1.0000   1.0000
     1.0000   1.0000   0.0000   0.0000   0.0000   0.0000

          k = 0.3750-0.3608 0.0767 (   462 PWs)   bands (ev):

    -6.1517  -6.1129  -5.0332  -5.0037  -4.9305  -4.9042  -4.8810  -4.8615
    -4.8017  -4.7615  -3.0958  -2.2243   3.5650   4.6213   6.0152   6.8602
     8.2693   8.7820  15.7223  16.6889  17.3736  18.6894

     occupation numbers 
     1.0000   1.0000   1.0000   1.0000   1.0000   1.0000   1.0000   1.0000
     1.0000   1.0000   1.0000   1.0000   1.0000   1.0000   1.0000   1.0000
     1.0000   1.0000   0.0000   0.0000   0.0000   0.0000

          k = 0.3750 0.3608-0.0767 (   462 PWs)   bands (ev):

    -6.1536  -6.1153  -5.0413  -5.0110  -4.9294  -4.9063  -4.8881  -4.8581
    -4.8028  -4.7611  -3.1164  -2.2028   3.5910   4.7313   5.9643   6.8361
     8.3405   8.7686  15.6835  16.6565  17.2993  18.6840

     occupation numbers 
     1.0000   1.0000   1.0000   1.0000   1.0000   1.0000   1.0000   1.0000
     1.0000   1.0000   1.0000   1.0000   1.0000   1.0000   1.0000   1.0000
     1.0000   1.0000   0.0000   0.0000   0.0000   0.0000

          k =-0.1250 0.5052-0.2302 (   468 PWs)   bands (ev):

    -6.1162  -6.1006  -5.0355  -5.0048  -4.9875  -4.9258  -4.8767  -4.8447
    -4.8067  -4.7912  -2.9021  -2.5246   3.4438   3.9308   6.9566   7.7883
     7.9831   8.8302  15.0603  16.0168  18.2027  18.7133

     occupation numbers 
     1.0000   1.0000   1.0000   1.0000   1.0000   1.0000   1.0000   1.0000
     1.0000   1.0000   1.0000   1.0000   1.0000   1.0000   1.0000   1.0000
     1.0000   1.0000   0.0000   0.0000   0.0000   0.0000

          k = 0.1250-0.5052-0.2302 (   468 PWs)   bands (ev):

    -6.1162  -6.1006  -5.0355  -5.0048  -4.9875  -4.9258  -4.8767  -4.8447
    -4.8067  -4.7912  -2.9021  -2.5246   3.4438   3.9308   6.9566   7.7883
     7.9831   8.8302  15.0603  16.0168  18.2027  18.7133

     occupation numbers 
     1.0000   1.0000   1.0000   1.0000   1.0000   1.0000   1.0000   1.0000
     1.0000   1.0000   1.0000   1.0000   1.0000   1.0000   1.0000   1.0000
     1.0000   1.0000   0.0000   0.0000   0.0000   0.0000

          k =-0.3750 0.3608 0.2302 (   468 PWs)   bands (ev):

    -6.1150  -6.0989  -5.0323  -5.0046  -4.9808  -4.9177  -4.8752  -4.8479
    -4.8068  -4.7914  -2.8898  -2.5246   3.3957   3.8519   6.9866   7.8239
     7.9944   8.7996  15.0662  15.9895  18.2601  18.7733

     occupation numbers 
     1.0000   1.0000   1.0000   1.0000   1.0000   1.0000   1.0000   1.0000
     1.0000   1.0000   1.0000   1.0000   1.0000   1.0000   1.0000   1.0000
     1.0000   1.0000   0.0000   0.0000   0.0000   0.0000

          k = 0.3750-0.3608 0.2302 (   468 PWs)   bands (ev):

    -6.1150  -6.0989  -5.0323  -5.0046  -4.9808  -4.9177  -4.8752  -4.8479
    -4.8068  -4.7914  -2.8898  -2.5246   3.3957   3.8519   6.9866   7.8239
     7.9944   8.7996  15.0662  15.9895  18.2601  18.7733

     occupation numbers 
     1.0000   1.0000   1.0000   1.0000   1.0000   1.0000   1.0000   1.0000
     1.0000   1.0000   1.0000   1.0000   1.0000   1.0000   1.0000   1.0000
     1.0000   1.0000   0.0000   0.0000   0.0000   0.0000

          k = 0.3750 0.3608-0.2302 (   468 PWs)   bands (ev):

    -6.1160  -6.1006  -5.0355  -5.0055  -4.9887  -4.9272  -4.8768  -4.8464
    -4.8067  -4.7908  -2.9048  -2.5239   3.4573   3.9501   6.9362   7.8234
     7.9392   8.8361  15.0606  15.9993  18.2513  18.7098

     occupation numbers 
     1.0000   1.0000   1.0000   1.0000   1.0000   1.0000   1.0000   1.0000
     1.0000   1.0000   1.0000   1.0000   1.0000   1.0000   1.0000   1.0000
     1.0000   1.0000   0.0000   0.0000   0.0000   0.0000

          k =-0.1250-0.3608-0.0767 (   463 PWs)   bands (ev):

    -6.1750  -6.1210  -5.0490  -5.0183  -4.9460  -4.9222  -4.8917  -4.8641
    -4.8200  -4.7758  -3.9771  -2.3013   4.0036   5.5681   6.2024   7.3193
     9.1484   9.3197  15.1228  16.9198  17.4708  18.7392

     occupation numbers 
     1.0000   1.0000   1.0000   1.0000   1.0000   1.0000   1.0000   1.0000
     1.0000   1.0000   1.0000   1.0000   1.0000   1.0000   1.0000   1.0000
     1.0000   1.0000   0.0000   0.0000   0.0000   0.0000

          k = 0.1250 0.3608-0.0767 (   463 PWs)   bands (ev):

    -6.1750  -6.1210  -5.0490  -5.0183  -4.9460  -4.9222  -4.8917  -4.8641
    -4.8200  -4.7758  -3.9771  -2.3013   4.0036   5.5681   6.2024   7.3193
     9.1484   9.3197  15.1228  16.9198  17.4708  18.7392

     occupation numbers 
     1.0000   1.0000   1.0000   1.0000   1.0000   1.0000   1.0000   1.0000
     1.0000   1.0000   1.0000   1.0000   1.0000   1.0000   1.0000   1.0000
     1.0000   1.0000   0.0000   0.0000   0.0000   0.0000

          k = 0.3750-0.0722 0.0767 (   463 PWs)   bands (ev):

    -6.1714  -6.1197  -5.0396  -5.0114  -4.9459  -4.9173  -4.8898  -4.8657
    -4.8217  -4.7764  -3.9817  -2.3019   3.9732   5.5491   6.1246   7.3573
     9.1760   9.2934  15.1195  16.9424  17.5592  18.7690

     occupation numbers 
     1.0000   1.0000   1.0000   1.0000   1.0000   1.0000   1.0000   1.0000
     1.0000   1.0000   1.0000   1.0000   1.0000   1.0000   1.0000   1.0000
     1.0000   1.0000   0.0000   0.0000   0.0000   0.0000

          k =-0.3750 0.0722 0.0767 (   463 PWs)   bands (ev):

    -6.1714  -6.1197  -5.0396  -5.0114  -4.9459  -4.9173  -4.8898  -4.8657
    -4.8217  -4.7764  -3.9817  -2.3019   3.9732   5.5491   6.1246   7.3573
     9.1760   9.2934  15.1195  16.9424  17.5592  18.7691

     occupation numbers 
     1.0000   1.0000   1.0000   1.0000   1.0000   1.0000   1.0000   1.0000
     1.0000   1.0000   1.0000   1.0000   1.0000   1.0000   1.0000   1.0000
     1.0000   1.0000   0.0000   0.0000   0.0000   0.0000

          k =-0.3750-0.0722-0.0767 (   463 PWs)   bands (ev):

    -6.1738  -6.1211  -5.0442  -5.0160  -4.9442  -4.9190  -4.8933  -4.8612
    -4.8202  -4.7765  -3.9799  -2.3029   3.9879   5.5578   6.1555   7.3420
     9.1846   9.3031  15.1099  16.9512  17.4727  18.7396

     occupation numbers 
     1.0000   1.0000   1.0000   1.0000   1.0000   1.0000   1.0000   1.0000
     1.0000   1.0000   1.0000   1.0000   1.0000   1.0000   1.0000   1.0000
     1.0000   1.0000   0.0000   0.0000   0.0000   0.0000

          k =-0.1250-0.3608-0.2302 (   463 PWs)   bands (ev):

    -6.1215  -6.1037  -5.0325  -5.0083  -4.9885  -4.9522  -4.8769  -4.8701
    -4.7985  -4.7841  -3.6385  -2.9699   4.4121   5.1640   7.2849   7.7779
     8.4592   9.0401  15.1521  16.2782  17.9759  18.5836

     occupation numbers 
     1.0000   1.0000   1.0000   1.0000   1.0000   1.0000   1.0000   1.0000
     1.0000   1.0000   1.0000   1.0000   1.0000   1.0000   1.0000   1.0000
     1.0000   1.0000   0.0000   0.0000   0.0000   0.0000

          k = 0.1250 0.3608-0.2302 (   463 PWs)   bands (ev):

    -6.1215  -6.1037  -5.0325  -5.0083  -4.9885  -4.9522  -4.8769  -4.8701
    -4.7985  -4.7841  -3.6385  -2.9699   4.4121   5.1640   7.2849   7.7779
     8.4592   9.0401  15.1521  16.2781  17.9759  18.5837

     occupation numbers 
     1.0000   1.0000   1.0000   1.0000   1.0000   1.0000   1.0000   1.0000
     1.0000   1.0000   1.0000   1.0000   1.0000   1.0000   1.0000   1.0000
     1.0000   1.0000   0.0000   0.0000   0.0000   0.0000

          k = 0.3750-0.0722 0.2302 (   463 PWs)   bands (ev):

    -6.1197  -6.1030  -5.0287  -5.0042  -4.9824  -4.9424  -4.8766  -4.8714
    -4.7997  -4.7853  -3.6385  -2.9681   4.3458   5.0880   7.2880   7.8094
     8.5178   9.0231  15.1446  16.2961  17.9725  18.6161

     occupation numbers 
     1.0000   1.0000   1.0000   1.0000   1.0000   1.0000   1.0000   1.0000
     1.0000   1.0000   1.0000   1.0000   1.0000   1.0000   1.0000   1.0000
     1.0000   1.0000   0.0000   0.0000   0.0000   0.0000

          k =-0.3750 0.0722 0.2302 (   463 PWs)   bands (ev):

    -6.1197  -6.1030  -5.0287  -5.0042  -4.9824  -4.9424  -4.8766  -4.8714
    -4.7997  -4.7853  -3.6385  -2.9681   4.3458   5.0880   7.2880   7.8094
     8.5178   9.0231  15.1446  16.2961  17.9725  18.6162

     occupation numbers 
     1.0000   1.0000   1.0000   1.0000   1.0000   1.0000   1.0000   1.0000
     1.0000   1.0000   1.0000   1.0000   1.0000   1.0000   1.0000   1.0000
     1.0000   1.0000   0.0000   0.0000   0.0000   0.0000

          k =-0.3750-0.0722-0.2302 (   463 PWs)   bands (ev):

    -6.1210  -6.1040  -5.0308  -5.0048  -4.9868  -4.9473  -4.8764  -4.8682
    -4.7990  -4.7852  -3.6391  -2.9698   4.3743   5.1218   7.2943   7.7848
     8.5124   9.0279  15.1539  16.3139  17.9146  18.5503

     occupation numbers 
     1.0000   1.0000   1.0000   1.0000   1.0000   1.0000   1.0000   1.0000
     1.0000   1.0000   1.0000   1.0000   1.0000   1.0000   1.0000   1.0000
     1.0000   1.0000   0.0000   0.0000   0.0000   0.0000

          k =-0.1250-0.0722-0.0767 (   463 PWs)   bands (ev):

    -6.3972  -6.1503  -5.0783  -5.0718  -5.0149  -4.9941  -4.9392  -4.8572
    -4.8400  -4.7937  -4.7602  -2.9276   3.2989   8.2483   9.0036   9.0358
    10.3970  10.5047  13.1131  15.1027  18.8983  19.6390

     occupation numbers 
     1.0000   1.0000   1.0000   1.0000   1.0000   1.0000   1.0000   1.0000
     1.0000   1.0000   1.0000   1.0000   1.0000   1.0000   1.0000   1.0000
     1.0000   1.0000   0.0000   0.0000   0.0000   0.0000

          k = 0.1250 0.0722-0.0767 (   463 PWs)   bands (ev):

    -6.3972  -6.1503  -5.0783  -5.0718  -5.0149  -4.9941  -4.9392  -4.8572
    -4.8400  -4.7937  -4.7602  -2.9276   3.2989   8.2483   9.0036   9.0358
    10.3970  10.5047  13.1131  15.1027  18.8983  19.6391

     occupation numbers 
     1.0000   1.0000   1.0000   1.0000   1.0000   1.0000   1.0000   1.0000
     1.0000   1.0000   1.0000   1.0000   1.0000   1.0000   1.0000   1.0000
     1.0000   1.0000   0.0000   0.0000   0.0000   0.0000

          k =-0.1250-0.0722-0.2302 (   471 PWs)   bands (ev):

    -6.2408  -6.1577  -5.0697  -5.0615  -5.0466  -5.0292  -4.8777  -4.8319
    -4.8288  -4.7959  -4.6190  -3.8638   5.0662   7.2991   8.7603   9.4028
     9.5766  10.0068  14.2709  15.0259  18.4797  18.6740

     occupation numbers 
     1.0000   1.0000   1.0000   1.0000   1.0000   1.0000   1.0000   1.0000
     1.0000   1.0000   1.0000   1.0000   1.0000   1.0000   1.0000   1.0000
     1.0000   1.0000   0.0000   0.0000   0.0000   0.0000

          k = 0.1250 0.0722-0.2302 (   471 PWs)   bands (ev):

    -6.2408  -6.1577  -5.0697  -5.0615  -5.0466  -5.0292  -4.8777  -4.8319
    -4.8288  -4.7959  -4.6190  -3.8638   5.0662   7.2991   8.7603   9.4028
     9.5766  10.0068  14.2709  15.0259  18.4797  18.6739

     occupation numbers 
     1.0000   1.0000   1.0000   1.0000   1.0000   1.0000   1.0000   1.0000
     1.0000   1.0000   1.0000   1.0000   1.0000   1.0000   1.0000   1.0000
     1.0000   1.0000   0.0000   0.0000   0.0000   0.0000

          k =-0.3750 0.6495-0.0767 (   460 PWs)   bands (ev):

    -6.1309  -6.1141  -5.0536  -4.9500  -4.9150  -4.9039  -4.8838  -4.8528
    -4.8265  -4.8020  -2.5960  -2.2035   3.9616   4.5793   5.1461   6.9525
     7.5935   7.9049  16.3420  17.3424  18.0806  18.9562

     occupation numbers 
     1.0000   1.0000   1.0000   1.0000   1.0000   1.0000   1.0000   1.0000
     1.0000   1.0000   1.0000   1.0000   1.0000   1.0000   1.0000   1.0000
     1.0000   1.0000   0.0000   0.0000   0.0000   0.0000

          k = 0.3750-0.6495-0.0767 (   460 PWs)   bands (ev):

    -6.1309  -6.1141  -5.0536  -4.9500  -4.9150  -4.9039  -4.8838  -4.8528
    -4.8265  -4.8020  -2.5960  -2.2035   3.9616   4.5793   5.1461   6.9525
     7.5935   7.9049  16.3420  17.3425  18.0806  18.9562

     occupation numbers 
     1.0000   1.0000   1.0000   1.0000   1.0000   1.0000   1.0000   1.0000
     1.0000   1.0000   1.0000   1.0000   1.0000   1.0000   1.0000   1.0000
     1.0000   1.0000   0.0000   0.0000   0.0000   0.0000

          k = 0.3750 0.6495-0.0767 (   460 PWs)   bands (ev):

    -6.1309  -6.1129  -5.0499  -4.9449  -4.9213  -4.8989  -4.8812  -4.8549
    -4.8257  -4.8020  -2.5597  -2.2399   3.9573   4.4862   5.1914   7.0173
     7.5862   7.8555  16.3839  17.3448  18.0636  18.9657

     occupation numbers 
     1.0000   1.0000   1.0000   1.0000   1.0000   1.0000   1.0000   1.0000
     1.0000   1.0000   1.0000   1.0000   1.0000   1.0000   1.0000   1.0000
     1.0000   1.0000   0.0000   0.0000   0.0000   0.0000

          k =-0.3750 0.6495-0.2302 (   459 PWs)   bands (ev):

    -6.0981  -6.0904  -5.0013  -4.9809  -4.9639  -4.9318  -4.8508  -4.8471
    -4.8251  -4.8122  -2.4829  -2.3259   3.6645   3.8963   5.7035   6.7265
     8.2696   8.7240  16.2840  16.9657  18.0781  18.7958

     occupation numbers 
     1.0000   1.0000   1.0000   1.0000   1.0000   1.0000   1.0000   1.0000
     1.0000   1.0000   1.0000   1.0000   1.0000   1.0000   1.0000   1.0000
     1.0000   1.0000   0.0000   0.0000   0.0000   0.0000

          k = 0.3750-0.6495-0.2302 (   459 PWs)   bands (ev):

    -6.0981  -6.0904  -5.0013  -4.9809  -4.9639  -4.9318  -4.8508  -4.8471
    -4.8251  -4.8122  -2.4829  -2.3259   3.6645   3.8963   5.7035   6.7265
     8.2696   8.7240  16.2840  16.9657  18.0780  18.7955

     occupation numbers 
     1.0000   1.0000   1.0000   1.0000   1.0000   1.0000   1.0000   1.0000
     1.0000   1.0000   1.0000   1.0000   1.0000   1.0000   1.0000   1.0000
     1.0000   1.0000   0.0000   0.0000   0.0000   0.0000

          k = 0.3750 0.6495-0.2302 (   459 PWs)   bands (ev):

    -6.0983  -6.0895  -4.9977  -4.9786  -4.9648  -4.9273  -4.8475  -4.8454
    -4.8276  -4.8147  -2.4643  -2.3366   3.6344   3.8280   5.7395   6.7579
     8.3030   8.6858  16.2955  16.9471  18.0766  18.7525

     occupation numbers 
     1.0000   1.0000   1.0000   1.0000   1.0000   1.0000   1.0000   1.0000
     1.0000   1.0000   1.0000   1.0000   1.0000   1.0000   1.0000   1.0000
     1.0000   1.0000   0.0000   0.0000   0.0000   0.0000

          k =-0.3750-0.2165-0.0767 (   460 PWs)   bands (ev):

    -6.1704  -6.1168  -5.0354  -5.0179  -4.9380  -4.9103  -4.8927  -4.8537
    -4.8083  -4.7532  -3.6664  -2.2564   3.7433   5.0727   5.8826   7.6512
     8.9101   9.4784  14.8375  15.9204  17.4954  18.7727

     occupation numbers 
     1.0000   1.0000   1.0000   1.0000   1.0000   1.0000   1.0000   1.0000
     1.0000   1.0000   1.0000   1.0000   1.0000   1.0000   1.0000   1.0000
     1.0000   1.0000   0.0000   0.0000   0.0000   0.0000

          k = 0.3750 0.2165-0.0767 (   460 PWs)   bands (ev):

    -6.1704  -6.1168  -5.0354  -5.0179  -4.9380  -4.9103  -4.8927  -4.8537
    -4.8083  -4.7532  -3.6664  -2.2564   3.7433   5.0727   5.8826   7.6512
     8.9101   9.4784  14.8375  15.9204  17.4953  18.7727

     occupation numbers 
     1.0000   1.0000   1.0000   1.0000   1.0000   1.0000   1.0000   1.0000
     1.0000   1.0000   1.0000   1.0000   1.0000   1.0000   1.0000   1.0000
     1.0000   1.0000   0.0000   0.0000   0.0000   0.0000

          k =-0.3750-0.2165-0.2302 (   458 PWs)   bands (ev):

    -6.1176  -6.0982  -5.0377  -5.0037  -4.9806  -4.9181  -4.8716  -4.8302
    -4.7962  -4.7731  -3.3601  -2.7873   3.8070   4.4506   7.3495   8.1589
     8.8360   8.9481  14.4760  15.4638  18.0817  18.5797

     occupation numbers 
     1.0000   1.0000   1.0000   1.0000   1.0000   1.0000   1.0000   1.0000
     1.0000   1.0000   1.0000   1.0000   1.0000   1.0000   1.0000   1.0000
     1.0000   1.0000   0.0000   0.0000   0.0000   0.0000

          k = 0.3750 0.2165-0.2302 (   458 PWs)   bands (ev):

    -6.1176  -6.0982  -5.0377  -5.0037  -4.9806  -4.9181  -4.8716  -4.8302
    -4.7962  -4.7731  -3.3601  -2.7873   3.8070   4.4506   7.3495   8.1589
     8.8360   8.9481  14.4760  15.4638  18.0817  18.5797

     occupation numbers 
     1.0000   1.0000   1.0000   1.0000   1.0000   1.0000   1.0000   1.0000
     1.0000   1.0000   1.0000   1.0000   1.0000   1.0000   1.0000   1.0000
     1.0000   1.0000   0.0000   0.0000   0.0000   0.0000

     highest occupied, lowest unoccupied level (ev):    10.5253   13.0996

!    total energy              =    -611.51325125 Ry
     total all-electron energy =     -7994.440170 Ry
     estimated scf accuracy    <          5.3E-09 Ry

     The total energy is the sum of the following terms:
     one-electron contribution =    -177.05666476 Ry
     hartree contribution      =     123.77632805 Ry
     xc contribution           =     -87.27598551 Ry
     ewald contribution        =    -233.79563830 Ry
     one-center paw contrib.   =    -237.16129073 Ry
      -> PAW hartree energy AE =     321.70004924 Ry
      -> PAW hartree energy PS =    -316.53988064 Ry
      -> PAW xc energy AE      =    -328.68502230 Ry
      -> PAW xc energy PS      =      86.36356298 Ry
      -> total E_H with PAW    =     128.93649665 Ry
      -> total E_XC with PAW   =    -329.59744484 Ry

     convergence has been achieved in   7 iterations

     Forces acting on atoms (cartesian axes, Ry/au):

     atom    1 type  1   force =     0.01294102   -0.00748264    0.00287069
     atom    2 type  1   force =    -0.01295066    0.00746593    0.00287069
     atom    3 type  2   force =    -0.01327612    0.00767611   -0.00287069
     atom    4 type  2   force =     0.01328576   -0.00765940   -0.00287069
     The non-local contrib.  to forces
     atom    1 type  1   force =     0.01792164   -0.01035919    0.00071727
     atom    2 type  1   force =    -0.01793214    0.01034100    0.00071727
     atom    3 type  2   force =     0.00893223   -0.00516618   -0.00030027
     atom    4 type  2   force =    -0.00894016    0.00515245   -0.00030027
     The ionic contribution  to forces
     atom    1 type  1   force =     0.16553159   -0.09556971   -0.09488106
     atom    2 type  1   force =    -0.16553159    0.09556971   -0.09488106
     atom    3 type  2   force =    -0.14881985    0.08592118    0.09488106
     atom    4 type  2   force =     0.14881985   -0.08592118    0.09488106
     The local contribution  to forces
     atom    1 type  1   force =    -0.16946924    0.09786281    0.09743292
     atom    2 type  1   force =     0.16948630   -0.09783326    0.09743292
     atom    3 type  2   force =     0.12674184   -0.07313498   -0.09746159
     atom    4 type  2   force =    -0.12670767    0.07319416   -0.09746159
     The core correction contribution to forces
     atom    1 type  1   force =    -0.00097024    0.00056912   -0.00046258
     atom    2 type  1   force =     0.00097800   -0.00055569   -0.00046258
     atom    3 type  2   force =    -0.00016033    0.00000173    0.00000072
     atom    4 type  2   force =     0.00008167   -0.00013799    0.00000072
     The Hubbard contrib.    to forces
     atom    1 type  1   force =     0.00000000    0.00000000    0.00000000
     atom    2 type  1   force =     0.00000000    0.00000000    0.00000000
     atom    3 type  2   force =     0.00000000    0.00000000    0.00000000
     atom    4 type  2   force =     0.00000000    0.00000000    0.00000000
     The SCF correction term to forces
     atom    1 type  1   force =    -0.00010378   -0.00003944    0.00005525
     atom    2 type  1   force =     0.00001773   -0.00010959    0.00005525
     atom    3 type  2   force =    -0.00000104    0.00000058    0.00000049
     atom    4 type  2   force =     0.00000102   -0.00000061    0.00000049

     Total force =     0.030826     Total SCF correction =     0.000175

     Writing all to output data dir ./tmp/GaN.save/ :
     XML data file, charge density, pseudopotentials, collected wavefunctions
 
     init_run     :      0.52s CPU      0.58s WALL (       1 calls)
     electrons    :      4.59s CPU      4.88s WALL (       1 calls)
     forces       :      0.07s CPU      0.09s WALL (       1 calls)

     Called by init_run:
     wfcinit      :      0.17s CPU      0.17s WALL (       1 calls)
     wfcinit:atom :      0.00s CPU      0.00s WALL (      52 calls)
     wfcinit:wfcr :      0.15s CPU      0.15s WALL (      52 calls)
     potinit      :      0.20s CPU      0.21s WALL (       1 calls)
     hinit0       :      0.11s CPU      0.14s WALL (       1 calls)

     Called by electrons:
     c_bands      :      2.60s CPU      2.63s WALL (       7 calls)
     sum_band     :      0.59s CPU      0.69s WALL (       7 calls)
     v_of_rho     :      0.04s CPU      0.04s WALL (       8 calls)
     v_h          :      0.00s CPU      0.00s WALL (       8 calls)
     v_xc         :      0.04s CPU      0.04s WALL (       9 calls)
     newd         :      0.15s CPU      0.28s WALL (       8 calls)
     PAW_pot      :      1.42s CPU      1.44s WALL (       8 calls)
     mix_rho      :      0.00s CPU      0.00s WALL (       7 calls)

     Called by c_bands:
     init_us_2    :      0.06s CPU      0.06s WALL (     832 calls)
     cegterg      :      2.44s CPU      2.46s WALL (     364 calls)

     Called by sum_band:
     sum_band:wei :      0.00s CPU      0.00s WALL (       7 calls)
     sum_band:loo :      0.43s CPU      0.44s WALL (       7 calls)
     sum_band:buf :      0.01s CPU      0.01s WALL (     364 calls)
     sum_band:ini :      0.03s CPU      0.03s WALL (     364 calls)
     sum_band:cal :      0.03s CPU      0.03s WALL (     364 calls)
     sum_band:bec :      0.00s CPU      0.00s WALL (     364 calls)
     addusdens    :      0.15s CPU      0.25s WALL (       7 calls)
                                        0.00s GPU  (       7 calls)
     addusd:skk   :      0.00s CPU      0.00s WALL (      14 calls)
                                        0.00s GPU  (      14 calls)

     Called by *egterg:
     cdiaghg      :      0.34s CPU      0.34s WALL (    1352 calls)
     cegterg:over :      0.08s CPU      0.08s WALL (     988 calls)
     cegterg:upda :      0.04s CPU      0.04s WALL (     988 calls)
     cegterg:last :      0.10s CPU      0.10s WALL (     743 calls)
     h_psi        :      1.86s CPU      1.88s WALL (    1404 calls)
     s_psi        :      0.08s CPU      0.08s WALL (    1404 calls)
     g_psi        :      0.01s CPU      0.01s WALL (     988 calls)

     Called by h_psi:
     h_psi:calbec :      0.09s CPU      0.09s WALL (    1404 calls)
     vloc_psi     :      1.68s CPU      1.70s WALL (    1404 calls)
     add_vuspsi   :      0.08s CPU      0.08s WALL (    1404 calls)

     General routines
     calbec       :      0.14s CPU      0.14s WALL (    1976 calls)
     fft          :      0.01s CPU      0.03s WALL (     113 calls)
     ffts         :      0.00s CPU      0.01s WALL (      15 calls)
     fftw         :      1.61s CPU      1.63s WALL (   49774 calls)
     interpolate  :      0.00s CPU      0.01s WALL (       8 calls)
 
     Parallel routines

     PAW routines
     PAW_pot      :      1.42s CPU      1.44s WALL (       8 calls)
     PAW_symme    :      0.00s CPU      0.00s WALL (      15 calls)
 
     PWSCF        :      5.28s CPU      6.19s WALL

 
   This run was terminated on:  17: 2:58  26May2026            

=------------------------------------------------------------------------------=
   JOB DONE.
=------------------------------------------------------------------------------=
