
     Program PWSCF v.7.3.1 starts on 30Jul2026 at 21:52:45 

     This program is part of the open-source Quantum ESPRESSO suite
     for quantum simulation of materials; please cite
         "P. Giannozzi et al., J. Phys.:Condens. Matter 21 395502 (2009);
         "P. Giannozzi et al., J. Phys.:Condens. Matter 29 465901 (2017);
         "P. Giannozzi et al., J. Chem. Phys. 152 154105 (2020);
          URL http://www.quantum-espresso.org", 
     in publications or presentations arising from this work. More details at
     http://www.quantum-espresso.org/quote

     Parallel version (MPI & OpenMP), running on      12 processor cores
     Number of MPI processes:                12
     Threads/MPI process:                     1

     MPI processes distributed on     1 nodes
     70421 MiB available memory on the printing compute node when the environment starts
 
     Waiting for input...
     Reading input from standard input

     Current dimensions of program PWSCF are:
     Max number of different atomic species (ntypx) = 10
     Max number of k-points (npk) =  40000
     Max angular momentum in pseudopotentials (lmaxx) =  4
     file Ga.pbe-dn-kjpaw_psl.1.0.0.UPF: wavefunction(s)  4S renormalized
     file N.pbe-n-kjpaw_psl.1.0.0.UPF: wavefunction(s)  2S renormalized

     Atomic positions and unit cell read from directory:
     ./tmp/GaN.save/
 
 
     R & G space division:  proc/nbgrp/npool/nimage =      12
     Subspace diagonalization in iterative solution of the eigenvalue problem:
     a serial algorithm will be used

 
     Parallelization info
     --------------------
     sticks:   dense  smooth     PW     G-vecs:    dense   smooth      PW
     Min         149      59     17                 8301     2091     335
     Max         150      61     18                 8308     2094     340
     Sum        1789     721    211                99623    25109    4043
 
     Using Slab Decomposition
 


     bravais-lattice index     =            4
     lattice parameter (alat)  =       6.0849  a.u.
     unit-cell volume          =     318.1254 (a.u.)^3
     number of atoms/cell      =            4
     number of atomic types    =            2
     number of electrons       =        36.00
     number of Kohn-Sham states=           35
     kinetic-energy cutoff     =      70.0000  Ry
     charge density cutoff     =     700.0000  Ry
     Exchange-correlation= SLA  PW   PBX  PBC
                           (   1   4   3   4   0   0   0)

     celldm(1)=   6.084918  celldm(2)=   0.000000  celldm(3)=   1.630435
     celldm(4)=   0.000000  celldm(5)=   0.000000  celldm(6)=   0.000000

     crystal axes: (cart. coord. in units of alat)
               a(1) = (   1.000000   0.000000   0.000000 )  
               a(2) = (  -0.500000   0.866025   0.000000 )  
               a(3) = (   0.000000   0.000000   1.630435 )  

     reciprocal axes: (cart. coord. in units 2 pi/alat)
               b(1) = (  1.000000  0.577350  0.000000 )  
               b(2) = (  0.000000  1.154701  0.000000 )  
               b(3) = (  0.000000  0.000000  0.613333 )  


     PseudoPot. # 1 for Ga read from file:
     /data-fast/greenano/Students/cohort2/rojassan/Project_GaN/PSEUDO/Ga.pbe-dn-kjpaw_psl.1.0.0.UPF
     MD5 check sum: 93aceff68ec27daa0acc11ebb2e245f0
     Pseudo is Projector augmented-wave + core cor, Zval = 13.0
     Generated using 'atomic' code by A. Dal Corso  v.7.3.1
     Shape of augmentation charge: PSQ
     Using radial grid of 1205 points,  6 beta functions with: 
                l(1) =   0
                l(2) =   0
                l(3) =   1
                l(4) =   1
                l(5) =   2
                l(6) =   2
     Q(r) pseudized with 0 coefficients 


     PseudoPot. # 2 for N  read from file:
     /data-fast/greenano/Students/cohort2/rojassan/Project_GaN/PSEUDO/N.pbe-n-kjpaw_psl.1.0.0.UPF
     MD5 check sum: 86f48117b7e7b472c01f85d0863ba463
     Pseudo is Projector augmented-wave + core cor, Zval =  5.0
     Generated using 'atomic' code by A. Dal Corso  v.7.3.1
     Shape of augmentation charge: PSQ
     Using radial grid of 1085 points,  4 beta functions with: 
                l(1) =   0
                l(2) =   0
                l(3) =   1
                l(4) =   1
     Q(r) pseudized with 0 coefficients 


     atomic species   valence    mass     pseudopotential
     Ga               13.00    69.72300     Ga( 1.00)
     N                 5.00    14.00700     N ( 1.00)

     12 Sym. Ops. (no inversion) found ( 6 have fractional translation)


                                    s                        frac. trans.

      isym =  1     identity                                     

 cryst.   s( 1) = (     1          0          0      )
                  (     0          1          0      )
                  (     0          0          1      )

 cart.    s( 1) = (  1.0000000  0.0000000  0.0000000 )
                  (  0.0000000  1.0000000  0.0000000 )
                  (  0.0000000  0.0000000  1.0000000 )


      isym =  2     180 deg rotation - cart. axis [0,0,1]        

 cryst.   s( 2) = (    -1          0          0      )    f =(  0.0000000 )
                  (     0         -1          0      )       (  0.0000000 )
                  (     0          0          1      )       ( -0.5000000 )

 cart.    s( 2) = ( -1.0000000  0.0000000  0.0000000 )    f =(  0.0000000 )
                  (  0.0000000 -1.0000000  0.0000000 )       (  0.0000000 )
                  (  0.0000000  0.0000000  1.0000000 )       ( -0.8152174 )


      isym =  3      60 deg rotation - cryst. axis [0,0,1]       

 cryst.   s( 3) = (     1          1          0      )    f =( -0.0000000 )
                  (    -1          0          0      )       ( -0.0000000 )
                  (     0          0          1      )       ( -0.5000000 )

 cart.    s( 3) = (  0.5000000 -0.8660254  0.0000000 )    f =( -0.0000000 )
                  (  0.8660254  0.5000000  0.0000000 )       ( -0.0000000 )
                  (  0.0000000  0.0000000  1.0000000 )       ( -0.8152174 )


      isym =  4      60 deg rotation - cryst. axis [0,0,-1]      

 cryst.   s( 4) = (     0         -1          0      )    f =(  0.0000000 )
                  (     1          1          0      )       (  0.0000000 )
                  (     0          0          1      )       ( -0.5000000 )

 cart.    s( 4) = (  0.5000000  0.8660254  0.0000000 )    f =( -0.0000000 )
                  ( -0.8660254  0.5000000  0.0000000 )       (  0.0000000 )
                  (  0.0000000  0.0000000  1.0000000 )       ( -0.8152174 )


      isym =  5     120 deg rotation - cryst. axis [0,0,1]       

 cryst.   s( 5) = (     0          1          0      )
                  (    -1         -1          0      )
                  (     0          0          1      )

 cart.    s( 5) = ( -0.5000000 -0.8660254  0.0000000 )
                  (  0.8660254 -0.5000000  0.0000000 )
                  (  0.0000000  0.0000000  1.0000000 )


      isym =  6     120 deg rotation - cryst. axis [0,0,-1]      

 cryst.   s( 6) = (    -1         -1          0      )
                  (     1          0          0      )
                  (     0          0          1      )

 cart.    s( 6) = ( -0.5000000  0.8660254  0.0000000 )
                  ( -0.8660254 -0.5000000  0.0000000 )
                  (  0.0000000  0.0000000  1.0000000 )


      isym =  7     inv. 180 deg rotation - cart. axis [0,1,0]   

 cryst.   s( 7) = (     1          0          0      )    f =( -0.0000000 )
                  (    -1         -1          0      )       (  0.0000000 )
                  (     0          0          1      )       ( -0.5000000 )

 cart.    s( 7) = (  1.0000000  0.0000000  0.0000000 )    f =( -0.0000000 )
                  (  0.0000000 -1.0000000  0.0000000 )       (  0.0000000 )
                  (  0.0000000  0.0000000  1.0000000 )       ( -0.8152174 )


      isym =  8     inv. 180 deg rotation - cart. axis [1,0,0]   

 cryst.   s( 8) = (    -1          0          0      )
                  (     1          1          0      )
                  (     0          0          1      )

 cart.    s( 8) = ( -1.0000000  0.0000000  0.0000000 )
                  (  0.0000000  1.0000000  0.0000000 )
                  (  0.0000000  0.0000000  1.0000000 )


      isym =  9     inv. 180 deg rotation - cryst. axis [1,-1,0] 

 cryst.   s( 9) = (     0          1          0      )    f =(  0.0000000 )
                  (     1          0          0      )       ( -0.0000000 )
                  (     0          0          1      )       ( -0.5000000 )

 cart.    s( 9) = ( -0.5000000  0.8660254  0.0000000 )    f =(  0.0000000 )
                  (  0.8660254  0.5000000  0.0000000 )       ( -0.0000000 )
                  (  0.0000000  0.0000000  1.0000000 )       ( -0.8152174 )


      isym = 10     inv. 180 deg rotation - cryst. axis [2,1,0]  

 cryst.   s(10) = (    -1         -1          0      )    f =(  0.0000000 )
                  (     0          1          0      )       (  0.0000000 )
                  (     0          0          1      )       ( -0.5000000 )

 cart.    s(10) = ( -0.5000000 -0.8660254  0.0000000 )    f =(  0.0000000 )
                  ( -0.8660254  0.5000000  0.0000000 )       (  0.0000000 )
                  (  0.0000000  0.0000000  1.0000000 )       ( -0.8152174 )


      isym = 11     inv. 180 deg rotation - cryst. axis [0,1,0]  

 cryst.   s(11) = (     1          1          0      )
                  (     0         -1          0      )
                  (     0          0          1      )

 cart.    s(11) = (  0.5000000  0.8660254  0.0000000 )
                  (  0.8660254 -0.5000000  0.0000000 )
                  (  0.0000000  0.0000000  1.0000000 )


      isym = 12     inv. 180 deg rotation - cryst. axis [1,1,0]  

 cryst.   s(12) = (     0         -1          0      )
                  (    -1          0          0      )
                  (     0          0          1      )

 cart.    s(12) = (  0.5000000 -0.8660254  0.0000000 )
                  ( -0.8660254 -0.5000000  0.0000000 )
                  (  0.0000000  0.0000000  1.0000000 )


     point group C_6v (6mm) 
     there are  6 classes
     the character table:

       E     2C6   2C3   C2    3s_v  3s_d 
A_1    1.00  1.00  1.00  1.00  1.00  1.00
A_2    1.00  1.00  1.00  1.00 -1.00 -1.00
B_1    1.00 -1.00  1.00 -1.00  1.00 -1.00
B_2    1.00 -1.00  1.00 -1.00 -1.00  1.00
E_1    2.00  1.00 -1.00 -2.00  0.00  0.00
E_2    2.00 -1.00 -1.00  2.00  0.00  0.00

     the symmetry operations in each class and the name of the first element:

     E        1
          identity                                               
     2C6      3    4
           60 deg rotation - cryst. axis [0,0,1]                 
     2C3      5    6
          120 deg rotation - cryst. axis [0,0,1]                 
     C2       2
          180 deg rotation - cart. axis [0,0,1]                  
     3s_v     8   12   11
          inv. 180 deg rotation - cart. axis [1,0,0]             
     3s_d     7    9   10
          inv. 180 deg rotation - cart. axis [0,1,0]             

   Cartesian axes

     site n.     atom                  positions (alat units)
         1        Ga     tau(   1) = (   0.0000000   0.5773503   0.0000000  )
         2        Ga     tau(   2) = (   0.5000000   0.2886751   0.8152174  )
         3        N      tau(   3) = (   0.0000000   0.5773503   0.6136663  )
         4        N      tau(   4) = (   0.5000000   0.2886751   1.4288837  )

   Crystallographic axes

     site n.     atom                  positions (cryst. coord.)
         1        Ga     tau(   1) = (  0.3333333  0.6666667  0.0000000  )
         2        Ga     tau(   2) = (  0.6666667  0.3333333  0.5000000  )
         3        N      tau(   3) = (  0.3333333  0.6666667  0.3763820  )
         4        N      tau(   4) = (  0.6666667  0.3333333  0.8763820  )

     number of k points=    71
                       cart. coord. in units 2pi/alat
        k(    1) = (   0.0000000   0.0000000   0.3066667), wk =   0.0281690
        k(    2) = (   0.0500000   0.0288675   0.3066667), wk =   0.0281690
        k(    3) = (   0.1000000   0.0577350   0.3066667), wk =   0.0281690
        k(    4) = (   0.1500000   0.0866025   0.3066667), wk =   0.0281690
        k(    5) = (   0.2000000   0.1154701   0.3066667), wk =   0.0281690
        k(    6) = (   0.2500000   0.1443376   0.3066667), wk =   0.0281690
        k(    7) = (   0.3000000   0.1732051   0.3066667), wk =   0.0281690
        k(    8) = (   0.3500000   0.2020726   0.3066667), wk =   0.0281690
        k(    9) = (   0.4000000   0.2309401   0.3066667), wk =   0.0281690
        k(   10) = (   0.4500000   0.2598076   0.3066667), wk =   0.0281690
        k(   11) = (   0.5000000   0.2886751   0.3066667), wk =   0.0281690
        k(   12) = (   0.5000000   0.2886751   0.2760000), wk =   0.0281690
        k(   13) = (   0.5000000   0.2886751   0.2453333), wk =   0.0281690
        k(   14) = (   0.5000000   0.2886751   0.2146667), wk =   0.0281690
        k(   15) = (   0.5000000   0.2886751   0.1840000), wk =   0.0281690
        k(   16) = (   0.5000000   0.2886751   0.1533333), wk =   0.0281690
        k(   17) = (   0.5000000   0.2886751   0.1226667), wk =   0.0281690
        k(   18) = (   0.5000000   0.2886751   0.0920000), wk =   0.0281690
        k(   19) = (   0.5000000   0.2886751   0.0613333), wk =   0.0281690
        k(   20) = (   0.5000000   0.2886751   0.0306667), wk =   0.0281690
        k(   21) = (   0.5000000   0.2886751   0.0000000), wk =   0.0281690
        k(   22) = (   0.4500000   0.2598076   0.0000000), wk =   0.0281690
        k(   23) = (   0.4000000   0.2309401   0.0000000), wk =   0.0281690
        k(   24) = (   0.3500000   0.2020726   0.0000000), wk =   0.0281690
        k(   25) = (   0.3000000   0.1732051   0.0000000), wk =   0.0281690
        k(   26) = (   0.2500000   0.1443376   0.0000000), wk =   0.0281690
        k(   27) = (   0.2000000   0.1154701   0.0000000), wk =   0.0281690
        k(   28) = (   0.1500000   0.0866025   0.0000000), wk =   0.0281690
        k(   29) = (   0.1000000   0.0577350   0.0000000), wk =   0.0281690
        k(   30) = (   0.0500000   0.0288675   0.0000000), wk =   0.0281690
        k(   31) = (   0.0000000   0.0000000   0.0000000), wk =   0.0281690
        k(   32) = (   0.0000000   0.0000000   0.0306667), wk =   0.0281690
        k(   33) = (   0.0000000   0.0000000   0.0613333), wk =   0.0281690
        k(   34) = (   0.0000000   0.0000000   0.0920000), wk =   0.0281690
        k(   35) = (   0.0000000   0.0000000   0.1226667), wk =   0.0281690
        k(   36) = (   0.0000000   0.0000000   0.1533333), wk =   0.0281690
        k(   37) = (   0.0000000   0.0000000   0.1840000), wk =   0.0281690
        k(   38) = (   0.0000000   0.0000000   0.2146667), wk =   0.0281690
        k(   39) = (   0.0000000   0.0000000   0.2453333), wk =   0.0281690
        k(   40) = (   0.0000000   0.0000000   0.2760000), wk =   0.0281690
        k(   41) = (   0.0000000   0.0000000   0.3066667), wk =   0.0281690
        k(   42) = (   0.0333333   0.0577350   0.3066667), wk =   0.0281690
        k(   43) = (   0.0666667   0.1154701   0.3066667), wk =   0.0281690
        k(   44) = (   0.1000000   0.1732051   0.3066667), wk =   0.0281690
        k(   45) = (   0.1333333   0.2309401   0.3066667), wk =   0.0281690
        k(   46) = (   0.1666667   0.2886751   0.3066667), wk =   0.0281690
        k(   47) = (   0.2000000   0.3464102   0.3066667), wk =   0.0281690
        k(   48) = (   0.2333333   0.4041452   0.3066667), wk =   0.0281690
        k(   49) = (   0.2666667   0.4618802   0.3066667), wk =   0.0281690
        k(   50) = (   0.3000000   0.5196152   0.3066667), wk =   0.0281690
        k(   51) = (   0.3333333   0.5773503   0.3066667), wk =   0.0281690
        k(   52) = (   0.3333333   0.5773503   0.2760000), wk =   0.0281690
        k(   53) = (   0.3333333   0.5773503   0.2453333), wk =   0.0281690
        k(   54) = (   0.3333333   0.5773503   0.2146667), wk =   0.0281690
        k(   55) = (   0.3333333   0.5773503   0.1840000), wk =   0.0281690
        k(   56) = (   0.3333333   0.5773503   0.1533333), wk =   0.0281690
        k(   57) = (   0.3333333   0.5773503   0.1226667), wk =   0.0281690
        k(   58) = (   0.3333333   0.5773503   0.0920000), wk =   0.0281690
        k(   59) = (   0.3333333   0.5773503   0.0613333), wk =   0.0281690
        k(   60) = (   0.3333333   0.5773503   0.0306667), wk =   0.0281690
        k(   61) = (   0.3333333   0.5773503   0.0000000), wk =   0.0281690
        k(   62) = (   0.3000000   0.5196152   0.0000000), wk =   0.0281690
        k(   63) = (   0.2666667   0.4618802   0.0000000), wk =   0.0281690
        k(   64) = (   0.2333333   0.4041452   0.0000000), wk =   0.0281690
        k(   65) = (   0.2000000   0.3464102   0.0000000), wk =   0.0281690
        k(   66) = (   0.1666667   0.2886751   0.0000000), wk =   0.0281690
        k(   67) = (   0.1333333   0.2309401   0.0000000), wk =   0.0281690
        k(   68) = (   0.1000000   0.1732051   0.0000000), wk =   0.0281690
        k(   69) = (   0.0666667   0.1154701   0.0000000), wk =   0.0281690
        k(   70) = (   0.0333333   0.0577350   0.0000000), wk =   0.0281690
        k(   71) = (   0.0000000   0.0000000   0.0000000), wk =   0.0281690

                       cryst. coord.
        k(    1) = (   0.0000000   0.0000000   0.5000000), wk =   0.0281690
        k(    2) = (   0.0500000   0.0000000   0.5000000), wk =   0.0281690
        k(    3) = (   0.1000000   0.0000000   0.5000000), wk =   0.0281690
        k(    4) = (   0.1500000   0.0000000   0.5000000), wk =   0.0281690
        k(    5) = (   0.2000000   0.0000000   0.5000000), wk =   0.0281690
        k(    6) = (   0.2500000   0.0000000   0.5000000), wk =   0.0281690
        k(    7) = (   0.3000000   0.0000000   0.5000000), wk =   0.0281690
        k(    8) = (   0.3500000   0.0000000   0.5000000), wk =   0.0281690
        k(    9) = (   0.4000000   0.0000000   0.5000000), wk =   0.0281690
        k(   10) = (   0.4500000   0.0000000   0.5000000), wk =   0.0281690
        k(   11) = (   0.5000000   0.0000000   0.5000000), wk =   0.0281690
        k(   12) = (   0.5000000   0.0000000   0.4500000), wk =   0.0281690
        k(   13) = (   0.5000000   0.0000000   0.4000000), wk =   0.0281690
        k(   14) = (   0.5000000   0.0000000   0.3500000), wk =   0.0281690
        k(   15) = (   0.5000000   0.0000000   0.3000000), wk =   0.0281690
        k(   16) = (   0.5000000   0.0000000   0.2500000), wk =   0.0281690
        k(   17) = (   0.5000000   0.0000000   0.2000000), wk =   0.0281690
        k(   18) = (   0.5000000   0.0000000   0.1500000), wk =   0.0281690
        k(   19) = (   0.5000000   0.0000000   0.1000000), wk =   0.0281690
        k(   20) = (   0.5000000   0.0000000   0.0500000), wk =   0.0281690
        k(   21) = (   0.5000000   0.0000000   0.0000000), wk =   0.0281690
        k(   22) = (   0.4500000   0.0000000   0.0000000), wk =   0.0281690
        k(   23) = (   0.4000000   0.0000000   0.0000000), wk =   0.0281690
        k(   24) = (   0.3500000   0.0000000   0.0000000), wk =   0.0281690
        k(   25) = (   0.3000000   0.0000000   0.0000000), wk =   0.0281690
        k(   26) = (   0.2500000   0.0000000   0.0000000), wk =   0.0281690
        k(   27) = (   0.2000000   0.0000000   0.0000000), wk =   0.0281690
        k(   28) = (   0.1500000   0.0000000   0.0000000), wk =   0.0281690
        k(   29) = (   0.1000000   0.0000000   0.0000000), wk =   0.0281690
        k(   30) = (   0.0500000   0.0000000   0.0000000), wk =   0.0281690
        k(   31) = (   0.0000000   0.0000000   0.0000000), wk =   0.0281690
        k(   32) = (   0.0000000   0.0000000   0.0500000), wk =   0.0281690
        k(   33) = (   0.0000000   0.0000000   0.1000000), wk =   0.0281690
        k(   34) = (   0.0000000   0.0000000   0.1500000), wk =   0.0281690
        k(   35) = (   0.0000000   0.0000000   0.2000000), wk =   0.0281690
        k(   36) = (   0.0000000   0.0000000   0.2500000), wk =   0.0281690
        k(   37) = (   0.0000000   0.0000000   0.3000000), wk =   0.0281690
        k(   38) = (   0.0000000   0.0000000   0.3500000), wk =   0.0281690
        k(   39) = (   0.0000000   0.0000000   0.4000000), wk =   0.0281690
        k(   40) = (   0.0000000   0.0000000   0.4500000), wk =   0.0281690
        k(   41) = (   0.0000000   0.0000000   0.5000000), wk =   0.0281690
        k(   42) = (   0.0333333   0.0333333   0.5000000), wk =   0.0281690
        k(   43) = (   0.0666667   0.0666667   0.5000000), wk =   0.0281690
        k(   44) = (   0.1000000   0.1000000   0.5000000), wk =   0.0281690
        k(   45) = (   0.1333333   0.1333333   0.5000000), wk =   0.0281690
        k(   46) = (   0.1666667   0.1666667   0.5000000), wk =   0.0281690
        k(   47) = (   0.2000000   0.2000000   0.5000000), wk =   0.0281690
        k(   48) = (   0.2333333   0.2333333   0.5000000), wk =   0.0281690
        k(   49) = (   0.2666667   0.2666667   0.5000000), wk =   0.0281690
        k(   50) = (   0.3000000   0.3000000   0.5000000), wk =   0.0281690
        k(   51) = (   0.3333333   0.3333333   0.5000000), wk =   0.0281690
        k(   52) = (   0.3333333   0.3333333   0.4500000), wk =   0.0281690
        k(   53) = (   0.3333333   0.3333333   0.4000000), wk =   0.0281690
        k(   54) = (   0.3333333   0.3333333   0.3500000), wk =   0.0281690
        k(   55) = (   0.3333333   0.3333333   0.3000000), wk =   0.0281690
        k(   56) = (   0.3333333   0.3333333   0.2500000), wk =   0.0281690
        k(   57) = (   0.3333333   0.3333333   0.2000000), wk =   0.0281690
        k(   58) = (   0.3333333   0.3333333   0.1500000), wk =   0.0281690
        k(   59) = (   0.3333333   0.3333333   0.1000000), wk =   0.0281690
        k(   60) = (   0.3333333   0.3333333   0.0500000), wk =   0.0281690
        k(   61) = (   0.3333333   0.3333333   0.0000000), wk =   0.0281690
        k(   62) = (   0.3000000   0.3000000   0.0000000), wk =   0.0281690
        k(   63) = (   0.2666667   0.2666667   0.0000000), wk =   0.0281690
        k(   64) = (   0.2333333   0.2333333   0.0000000), wk =   0.0281690
        k(   65) = (   0.2000000   0.2000000   0.0000000), wk =   0.0281690
        k(   66) = (   0.1666667   0.1666667   0.0000000), wk =   0.0281690
        k(   67) = (   0.1333333   0.1333333   0.0000000), wk =   0.0281690
        k(   68) = (   0.1000000   0.1000000   0.0000000), wk =   0.0281690
        k(   69) = (   0.0666667   0.0666667   0.0000000), wk =   0.0281690
        k(   70) = (   0.0333333   0.0333333   0.0000000), wk =   0.0281690
        k(   71) = (   0.0000000   0.0000000   0.0000000), wk =   0.0281690

     Dense  grid:    99623 G-vectors     FFT dimensions: (  54,  54,  90)

     Smooth grid:    25109 G-vectors     FFT dimensions: (  36,  36,  54)

     Dynamical RAM for                 wfc:       0.14 MB

     Dynamical RAM for     wfc (w. buffer):       0.14 MB

     Dynamical RAM for           str. fact:       0.25 MB

     Dynamical RAM for           local pot:       0.00 MB

     Dynamical RAM for          nlocal pot:       0.21 MB

     Dynamical RAM for                qrad:       4.24 MB

     Dynamical RAM for          rho,v,vnew:       0.91 MB

     Dynamical RAM for           G-vectors:       0.49 MB

     Dynamical RAM for          h,s,v(r/c):       0.22 MB

     Dynamical RAM for          <psi|beta>:       0.03 MB

     Dynamical RAM for                 psi:       0.28 MB

     Dynamical RAM for                hpsi:       0.28 MB

     Dynamical RAM for                spsi:       0.28 MB

     Dynamical RAM for      wfcinit/wfcrot:       0.31 MB

     Dynamical RAM for           addusdens:      23.82 MB

     Estimated static dynamical RAM per process >       7.52 MB

     Estimated max dynamical RAM per process >      31.34 MB

     Estimated total dynamical RAM >     376.07 MB

     The potential is recalculated from file :
     ./tmp/GaN.save/charge-density

     Starting wfcs are   26 randomized atomic wfcs +    9 random wfcs
     Checking if some PAW data can be deallocated... 
       PAW data deallocated on    6 nodes for type:  1
       PAW data deallocated on    6 nodes for type:  2

     Band Structure Calculation
     Davidson diagonalization with overlap

     Computing kpt #:     1  of    71
     c_bands:  3 eigenvalues not converged
     total cpu time spent up to now is        1.1 secs

     Computing kpt #:     2  of    71
     total cpu time spent up to now is        1.7 secs

     Computing kpt #:     3  of    71
     total cpu time spent up to now is        2.3 secs

     Computing kpt #:     4  of    71
     total cpu time spent up to now is        2.8 secs

     Computing kpt #:     5  of    71
     total cpu time spent up to now is        3.4 secs

     Computing kpt #:     6  of    71
     total cpu time spent up to now is        4.0 secs

     Computing kpt #:     7  of    71
     total cpu time spent up to now is        4.7 secs

     Computing kpt #:     8  of    71
     total cpu time spent up to now is        5.4 secs

     Computing kpt #:     9  of    71
     c_bands:  6 eigenvalues not converged
     total cpu time spent up to now is        6.2 secs

     Computing kpt #:    10  of    71
     c_bands:  3 eigenvalues not converged
     total cpu time spent up to now is        6.9 secs

     Computing kpt #:    11  of    71
     c_bands:  2 eigenvalues not converged
     total cpu time spent up to now is        7.7 secs

     Computing kpt #:    12  of    71
     c_bands:  6 eigenvalues not converged
     total cpu time spent up to now is        8.5 secs

     Computing kpt #:    13  of    71
     c_bands:  4 eigenvalues not converged
     total cpu time spent up to now is        9.3 secs

     Computing kpt #:    14  of    71
     c_bands:  2 eigenvalues not converged
     total cpu time spent up to now is       10.0 secs

     Computing kpt #:    15  of    71
     c_bands:  1 eigenvalues not converged
     total cpu time spent up to now is       10.7 secs

     Computing kpt #:    16  of    71
     c_bands:  2 eigenvalues not converged
     total cpu time spent up to now is       11.4 secs

     Computing kpt #:    17  of    71
     c_bands:  2 eigenvalues not converged
     total cpu time spent up to now is       12.1 secs

     Computing kpt #:    18  of    71
     total cpu time spent up to now is       12.7 secs

     Computing kpt #:    19  of    71
     c_bands:  2 eigenvalues not converged
     total cpu time spent up to now is       13.4 secs

     Computing kpt #:    20  of    71
     c_bands:  1 eigenvalues not converged
     total cpu time spent up to now is       14.1 secs

     Computing kpt #:    21  of    71
     c_bands:  6 eigenvalues not converged
     total cpu time spent up to now is       14.8 secs

     Computing kpt #:    22  of    71
     c_bands:  2 eigenvalues not converged
     total cpu time spent up to now is       15.5 secs

     Computing kpt #:    23  of    71
     c_bands:  2 eigenvalues not converged
     total cpu time spent up to now is       16.2 secs

     Computing kpt #:    24  of    71
     c_bands:  2 eigenvalues not converged
     total cpu time spent up to now is       16.8 secs

     Computing kpt #:    25  of    71
     total cpu time spent up to now is       17.5 secs

     Computing kpt #:    26  of    71
     c_bands:  1 eigenvalues not converged
     total cpu time spent up to now is       18.1 secs

     Computing kpt #:    27  of    71
     c_bands:  1 eigenvalues not converged
     total cpu time spent up to now is       18.8 secs

     Computing kpt #:    28  of    71
     c_bands:  1 eigenvalues not converged
     total cpu time spent up to now is       19.5 secs

     Computing kpt #:    29  of    71
     c_bands:  5 eigenvalues not converged
     total cpu time spent up to now is       20.3 secs

     Computing kpt #:    30  of    71
     c_bands:  5 eigenvalues not converged
     total cpu time spent up to now is       21.0 secs

     Computing kpt #:    31  of    71
     c_bands:  1 eigenvalues not converged
     total cpu time spent up to now is       21.6 secs

     Computing kpt #:    32  of    71
     c_bands:  1 eigenvalues not converged
     total cpu time spent up to now is       22.3 secs

     Computing kpt #:    33  of    71
     total cpu time spent up to now is       23.0 secs

     Computing kpt #:    34  of    71
     c_bands:  5 eigenvalues not converged
     total cpu time spent up to now is       23.7 secs

     Computing kpt #:    35  of    71
     c_bands:  1 eigenvalues not converged
     total cpu time spent up to now is       24.3 secs

     Computing kpt #:    36  of    71
     total cpu time spent up to now is       25.0 secs

     Computing kpt #:    37  of    71
     c_bands:  7 eigenvalues not converged
     total cpu time spent up to now is       25.7 secs

     Computing kpt #:    38  of    71
     c_bands:  2 eigenvalues not converged
     total cpu time spent up to now is       26.3 secs

     Computing kpt #:    39  of    71
     c_bands:  3 eigenvalues not converged
     total cpu time spent up to now is       27.0 secs

     Computing kpt #:    40  of    71
     c_bands:  3 eigenvalues not converged
     total cpu time spent up to now is       27.6 secs

     Computing kpt #:    41  of    71
     c_bands:  2 eigenvalues not converged
     total cpu time spent up to now is       28.2 secs

     Computing kpt #:    42  of    71
     total cpu time spent up to now is       28.8 secs

     Computing kpt #:    43  of    71
     total cpu time spent up to now is       29.4 secs

     Computing kpt #:    44  of    71
     total cpu time spent up to now is       30.0 secs

     Computing kpt #:    45  of    71
     total cpu time spent up to now is       30.6 secs

     Computing kpt #:    46  of    71
     c_bands:  2 eigenvalues not converged
     total cpu time spent up to now is       31.3 secs

     Computing kpt #:    47  of    71
     c_bands:  7 eigenvalues not converged
     total cpu time spent up to now is       32.0 secs

     Computing kpt #:    48  of    71
     c_bands:  1 eigenvalues not converged
     total cpu time spent up to now is       32.7 secs

     Computing kpt #:    49  of    71
     c_bands:  2 eigenvalues not converged
     total cpu time spent up to now is       33.4 secs

     Computing kpt #:    50  of    71
     total cpu time spent up to now is       34.0 secs

     Computing kpt #:    51  of    71
     total cpu time spent up to now is       34.6 secs

     Computing kpt #:    52  of    71
     total cpu time spent up to now is       35.2 secs

     Computing kpt #:    53  of    71
     total cpu time spent up to now is       35.8 secs

     Computing kpt #:    54  of    71
     total cpu time spent up to now is       36.4 secs

     Computing kpt #:    55  of    71
     total cpu time spent up to now is       37.0 secs

     Computing kpt #:    56  of    71
     total cpu time spent up to now is       37.6 secs

     Computing kpt #:    57  of    71
     total cpu time spent up to now is       38.1 secs

     Computing kpt #:    58  of    71
     c_bands:  1 eigenvalues not converged
     total cpu time spent up to now is       38.8 secs

     Computing kpt #:    59  of    71
     c_bands:  1 eigenvalues not converged
     total cpu time spent up to now is       39.4 secs

     Computing kpt #:    60  of    71
     c_bands:  1 eigenvalues not converged
     total cpu time spent up to now is       40.0 secs

     Computing kpt #:    61  of    71
     c_bands:  1 eigenvalues not converged
     total cpu time spent up to now is       40.7 secs

     Computing kpt #:    62  of    71
     c_bands:  2 eigenvalues not converged
     total cpu time spent up to now is       41.4 secs

     Computing kpt #:    63  of    71
     total cpu time spent up to now is       42.1 secs

     Computing kpt #:    64  of    71
     c_bands:  8 eigenvalues not converged
     total cpu time spent up to now is       42.8 secs

     Computing kpt #:    65  of    71
     c_bands:  5 eigenvalues not converged
     total cpu time spent up to now is       43.6 secs

     Computing kpt #:    66  of    71
     c_bands:  2 eigenvalues not converged
     total cpu time spent up to now is       44.3 secs

     Computing kpt #:    67  of    71
     c_bands:  1 eigenvalues not converged
     total cpu time spent up to now is       45.0 secs

     Computing kpt #:    68  of    71
     total cpu time spent up to now is       45.6 secs

     Computing kpt #:    69  of    71
     c_bands:  4 eigenvalues not converged
     total cpu time spent up to now is       46.3 secs

     Computing kpt #:    70  of    71
     c_bands:  3 eigenvalues not converged
     total cpu time spent up to now is       47.1 secs

     Computing kpt #:    71  of    71
     c_bands:  1 eigenvalues not converged
     total cpu time spent up to now is       47.7 secs

     ethr =  2.78E-11,  avg # of iterations =117.1

     total cpu time spent up to now is       47.7 secs

     End of band structure calculation

          k = 0.0000 0.0000 0.3067 (  3134 PWs)   bands (ev):

    -5.9663  -5.9663  -4.1697  -4.1697  -4.1697  -4.1697  -3.9093  -3.9093
    -3.9093  -3.9093  -3.8359  -3.8359   5.4471   5.4471   8.7372   8.7372
     8.7372   8.7372  13.3119  13.3119  17.5656  17.5656  19.5053  19.5053
    19.5053  19.5053  25.3142  25.3142  27.3958  27.3958  27.3958  27.3958
    31.7074  31.7074  31.7074

          k = 0.0500 0.0289 0.3067 (  3126 PWs)   bands (ev):

    -5.9519  -5.9519  -4.1673  -4.1673  -4.1655  -4.1655  -3.9267  -3.9267
    -3.9095  -3.9095  -3.8056  -3.8056   5.4428   5.4428   8.5942   8.5942
     8.6983   8.6983  13.4424  13.4424  17.4699  17.4699  19.4594  19.4594
    19.5716  19.5716  25.3881  25.3881  27.3485  27.3485  27.4348  27.4348
    31.0422  31.0422  31.8640

          k = 0.1000 0.0577 0.3067 (  3110 PWs)   bands (ev):

    -5.9111  -5.9111  -4.1602  -4.1602  -4.1536  -4.1536  -3.9524  -3.9524
    -3.9097  -3.9097  -3.7398  -3.7398   5.4180   5.4180   8.2325   8.2325
     8.5877   8.5877  13.7638  13.7638  17.2205  17.2205  19.3567  19.3567
    19.7587  19.7587  25.3789  25.3789  27.2444  27.2444  27.7534  27.7534
    30.5167  30.5167  32.2965

          k = 0.1500 0.0866 0.3067 (  3120 PWs)   bands (ev):

    -5.8510  -5.8510  -4.1490  -4.1490  -4.1352  -4.1352  -3.9724  -3.9724
    -3.9097  -3.9097  -3.6469  -3.6469   5.3327   5.3327   7.7960   7.7960
     8.4213   8.4213  14.1223  14.1223  16.9256  16.9256  19.2493  19.2493
    20.0332  20.0332  25.0612  25.0612  27.1654  27.1654  28.5012  28.5012
    30.2857  30.2857  32.9215

          k = 0.2000 0.1155 0.3067 (  3136 PWs)   bands (ev):

    -5.7816  -5.7816  -4.1368  -4.1368  -4.1129  -4.1129  -3.9834  -3.9834
    -3.9086  -3.9086  -3.5216  -3.5216   5.1207   5.1207   7.4338   7.4338
     8.2208   8.2208  14.3502  14.3502  16.7295  16.7295  19.1604  19.1604
    20.3471  20.3471  24.6065  24.6065  27.1935  27.1935  29.2187  29.2187
    30.5901  30.5901  33.6466

          k = 0.2500 0.1443 0.3067 (  3144 PWs)   bands (ev):

    -5.7137  -5.7137  -4.1288  -4.1288  -4.0896  -4.0896  -3.9831  -3.9831
    -3.9055  -3.9055  -3.3581  -3.3581   4.7397   4.7397   7.2399   7.2399
     8.0090   8.0090  14.3464  14.3464  16.7112  16.7112  19.0970  19.0970
    20.6480  20.6480  24.2112  24.2112  27.3901  27.3901  29.4397  29.4397
    31.6196  31.6196  34.3611

          k = 0.3000 0.1732 0.3067 (  3148 PWs)   bands (ev):

    -5.6556  -5.6556  -4.1279  -4.1279  -4.0685  -4.0685  -3.9729  -3.9729
    -3.8998  -3.8998  -3.1573  -3.1573   4.2371   4.2371   7.2019   7.2019
     7.8067   7.8067  14.1692  14.1692  16.7905  16.7905  19.0617  19.0617
    20.8941  20.8941  23.9798  23.9798  27.7858  27.7858  29.5035  29.5035
    32.7154  32.7154  34.8898

          k = 0.3500 0.2021 0.3067 (  3152 PWs)   bands (ev):

    -5.6117  -5.6117  -4.1319  -4.1319  -4.0522  -4.0522  -3.9581  -3.9581
    -3.8917  -3.8917  -2.9337  -2.9337   3.7097   3.7097   7.2508   7.2508
     7.6314   7.6314  13.9402  13.9402  16.8495  16.8495  19.0483  19.0483
    21.0676  21.0676  23.9381  23.9381  28.3706  28.3706  29.5601  29.5601
    33.2579  33.2579  34.9889

          k = 0.4000 0.2309 0.3067 (  3152 PWs)   bands (ev):

    -5.5822  -5.5822  -4.1371  -4.1371  -4.0413  -4.0413  -3.9444  -3.9444
    -3.8828  -3.8828  -2.7183  -2.7183   3.2480   3.2480   7.3264   7.3264
     7.4966   7.4966  13.7387  13.7387  16.8557  16.8557  19.0450  19.0450
    21.1732  21.1732  24.0364  24.0364  29.0783  29.0783  29.6211  29.6211
    33.1616  33.1616  34.5798

          k = 0.4500 0.2598 0.3067 (  3158 PWs)   bands (ev):

    -5.5657  -5.5657  -4.1412  -4.1412  -4.0354  -4.0354  -3.9352  -3.9352
    -3.8760  -3.8760  -2.5569  -2.5569   2.9293   2.9293   7.3881   7.3881
     7.4120   7.4120  13.6047  13.6047  16.8359  16.8359  19.0435  19.0435
    21.2270  21.2270  24.1692  24.1692  29.6713  29.6713  29.7529  29.7529
    32.8955  32.8955  33.9670

          k = 0.5000 0.2887 0.3067 (  3160 PWs)   bands (ev):

    -5.5605  -5.5605  -4.1426  -4.1426  -4.0336  -4.0336  -3.9320  -3.9320
    -3.8734  -3.8734  -2.4962  -2.4962   2.8148   2.8148   7.3831   7.3831
     7.4114   7.4114  13.5581  13.5581  16.8247  16.8247  19.0428  19.0428
    21.2432  21.2432  24.2288  24.2288  29.6912  29.6912  30.0667  30.0667
    32.7754  32.7754  33.6537

          k = 0.5000 0.2887 0.2760 (  3166 PWs)   bands (ev):

    -5.5731  -5.5502  -4.1493  -4.1333  -4.0472  -4.0201  -3.9435  -3.9224
    -3.8750  -3.8714  -2.5382  -2.4520   2.7378   2.9171   7.1859   7.2559
     7.5136   7.5857  13.3987  13.7485  16.7114  16.9366  19.0268  19.0956
    20.9754  21.5096  23.8454  24.6433  29.5800  29.6810  29.7248  30.4432
    32.5973  32.9419  33.5132

          k = 0.5000 0.2887 0.2453 (  3170 PWs)   bands (ev):

    -5.5876  -5.5425  -4.1534  -4.1213  -4.0607  -4.0073  -3.9563  -3.9154
    -3.8763  -3.8691  -2.5769  -2.4069   2.6880   3.0420   6.9238   7.1347
     7.6442   7.6964  13.2966  13.9391  16.6388  16.9974  19.0848  19.1602
    20.7126  21.7683  23.5024  25.0744  29.3244  29.4187  29.5881  30.8525
    32.4413  33.0734  33.3929

          k = 0.5000 0.2887 0.2147 (  3176 PWs)   bands (ev):

    -5.6034  -5.5371  -4.1551  -4.1070  -4.0735  -3.9955  -3.9700  -3.9111
    -3.8773  -3.8664  -2.6115  -2.3625   2.6662   3.1857   6.6393   7.0220
     7.7367   7.7717  13.2690  14.0994  16.6360  16.9657  19.2228  19.2484
    20.4612  22.0136  23.2043  25.5002  28.9287  29.1491  29.4579  31.2920
    32.3298  33.1638  33.2960

          k = 0.5000 0.2887 0.1840 (  3156 PWs)   bands (ev):

    -5.6198  -5.5339  -4.1549  -4.0906  -4.0853  -3.9849  -3.9836  -3.9099
    -3.8782  -3.8633  -2.6415  -2.3205   2.6720   3.3432   6.3461   6.9201
     7.7088   7.8928  13.3229  14.2086  16.7153  16.8320  19.2774  19.5210
    20.2281  22.2398  22.9527  25.8885  28.4248  28.9173  29.3435  31.7552
    32.2643  33.2157  33.2261

          k = 0.5000 0.2887 0.1533 (  3150 PWs)   bands (ev):

    -5.6357  -5.5323  -4.1532  -4.0959  -4.0726  -3.9968  -3.9760  -3.9118
    -3.8788  -3.8600  -2.6668  -2.2823   2.7027   3.5081   6.0570   6.8307
     7.6244   8.0035  13.4546  14.2643  16.6142  16.8660  19.3212  19.8782
    20.0183  22.4413  22.7459  26.1950  27.8557  28.7215  29.3048  32.2245
    32.2326  33.1883  33.2283

          k = 0.5000 0.2887 0.1227 (  3140 PWs)   bands (ev):

    -5.6504  -5.5319  -4.1506  -4.1049  -4.0539  -4.0087  -3.9687  -3.9167
    -3.8793  -3.8568  -2.6873  -2.2494   2.7535   3.6720   5.7850   6.7555
     7.5030   8.1001  13.6526  14.2794  16.3379  17.0592  19.3541  19.8373
    20.2866  22.5802  22.6133  26.3814  27.2662  28.5612  29.3915  32.2220
    32.6507  33.1945  33.2203

          k = 0.5000 0.2887 0.0920 (  3138 PWs)   bands (ev):

    -5.6628  -5.5322  -4.1477  -4.1122  -4.0350  -4.0188  -3.9632  -3.9243
    -3.8796  -3.8538  -2.7031  -2.2229   2.8162   3.8236   5.5447   6.6956
     7.3687   8.1796  13.9016  14.2720  16.0259  17.2588  19.3766  19.6909
    20.7098  22.4502  22.7516  26.4466  26.7007  28.4371  29.6077  32.2223
    32.8848  33.1028  33.4463

          k = 0.5000 0.2887 0.0613 (  3142 PWs)   bands (ev):

    -5.6723  -5.5328  -4.1450  -4.1175  -4.0266  -4.0172  -3.9593  -3.9338
    -3.8799  -3.8514  -2.7143  -2.2035   2.8787   3.9492   5.3523   6.6521
     7.2469   8.2387  14.1828  14.2571  15.6995  17.4304  19.3902  19.5828
    21.1031  22.3497  22.8530  26.2120  26.4349  28.3483  29.8950  32.2268
    32.9394  32.9559  33.8141

          k = 0.5000 0.2887 0.0307 (  3136 PWs)   bands (ev):

    -5.6783  -5.5333  -4.1431  -4.1207  -4.0315  -4.0026  -3.9570  -3.9432
    -3.8800  -3.8499  -2.7209  -2.1916   2.9259   4.0334   5.2262   6.6258
     7.1616   8.2752  14.2445  14.4635  15.3919  17.5461  19.3971  19.5167
    21.4036  22.2761  22.9148  25.8678  26.4020  28.2953  30.1515  32.2315
    32.7991  32.9504  34.1202

          k = 0.5000 0.2887 0.0000 (  3118 PWs)   bands (ev):

    -5.6803  -5.5335  -4.1424  -4.1218  -4.0332  -3.9962  -3.9562  -3.9479
    -3.8800  -3.8493  -2.7231  -2.1876   2.9436   4.0633   5.1820   6.6170
     7.1309   8.2876  14.2399  14.6215  15.2251  17.5869  19.3995  19.4945
    21.5231  22.2444  22.9356  25.7413  26.3868  28.2781  30.2582  32.2335
    32.7275  32.9530  34.2404

          k = 0.4500 0.2598 0.0000 (  3142 PWs)   bands (ev):

    -5.6930  -5.5349  -4.1416  -4.1217  -4.0347  -3.9951  -3.9599  -3.9511
    -3.8845  -3.8504  -2.8615  -2.1254   3.0094   4.1604   5.0959   6.6499
     7.2568   8.3105  14.2348  14.6329  15.2859  17.5644  19.3944  19.5184
    21.4332  22.2285  22.8699  25.6615  26.4690  27.9268  30.3165  32.2344
    32.8659  33.3311  34.2627

          k = 0.4000 0.2309 0.0000 (  3134 PWs)   bands (ev):

    -5.7320  -5.5395  -4.1398  -4.1217  -4.0387  -3.9929  -3.9709  -3.9591
    -3.8966  -3.8531  -3.1368  -2.0619   3.1971   4.3597   4.9968   6.7469
     7.5570   8.3776  14.1911  14.6767  15.4716  17.5162  19.3795  19.5853
    21.1596  22.2061  22.6803  25.4745  26.7126  27.1295  30.4673  32.2937
    33.0898  34.0880  34.2235

          k = 0.3500 0.2021 0.0000 (  3154 PWs)   bands (ev):

    -5.8001  -5.5482  -4.1395  -4.1229  -4.0449  -3.9934  -3.9890  -3.9653
    -3.9138  -3.8567  -3.4240  -2.0749   3.4011   4.4631   5.2446   6.9022
     7.9144   8.4830  14.0415  14.7842  15.7679  17.4843  19.3418  19.6784
    20.8019  22.1432  22.3902  25.2934  26.2177  27.1092  30.6329  32.3234
    33.1163  33.5996  33.9656

          k = 0.3000 0.1732 0.0000 (  3152 PWs)   bands (ev):

    -5.8980  -5.5619  -4.1433  -4.1268  -4.0556  -4.0131  -3.9976  -3.9632
    -3.9321  -3.8602  -3.6717  -2.1525   3.3761   4.7718   5.7688   7.1060
     8.2604   8.6175  13.7570  14.9371  16.1308  17.5081  19.2582  19.7635
    20.5581  21.9860  22.0428  25.2266  25.3681  27.6281  30.6671  32.0102
    32.6652  32.6879  33.4136

          k = 0.2500 0.1443 0.0000 (  3164 PWs)   bands (ev):

    -6.0203  -5.5810  -4.1520  -4.1349  -4.0742  -4.0409  -3.9959  -3.9651
    -3.9474  -3.8634  -3.8507  -2.2629   3.1585   5.3725   6.3936   7.3444
     8.5611   8.7681  13.3553  15.0174  16.5111  17.6299  19.1889  19.7835
    20.5117  21.6973  21.7993  24.6838  25.3040  28.1652  30.4030  30.9653
    31.4220  31.9153  33.1259

          k = 0.2000 0.1155 0.0000 (  3160 PWs)   bands (ev):

    -6.1539  -5.6043  -4.1648  -4.1472  -4.0966  -4.0693  -4.0260  -3.9875
    -3.9572  -3.9080  -3.8663  -2.3785   2.9092   6.1012   7.0602   7.5988
     8.8033   8.9196  12.8659  14.8548  16.9384  17.8608  19.2837  19.6826
    20.4924  21.4038  21.8124  24.2519  25.4855  28.3180  29.7586  29.8540
    30.1949  31.1427  32.9849

          k = 0.1500 0.0866 0.0000 (  3146 PWs)   bands (ev):

    -6.2809  -5.6293  -4.1797  -4.1618  -4.1204  -4.0965  -4.0952  -3.9777
    -3.9618  -3.9006  -3.8688  -2.4815   2.6903   6.8568   7.7367   7.8458
     8.9846   9.0552  12.3183  14.4359  17.4670  18.1120  19.4710  19.5810
    20.3511  21.1598  22.2009  24.1271  25.6817  27.4953  28.8981  29.0616
    29.1446  31.0080  32.9390

          k = 0.1000 0.0577 0.0000 (  3134 PWs)   bands (ev):

    -6.3845  -5.6518  -4.1933  -4.1754  -4.1547  -4.1225  -4.1157  -3.9693
    -3.9627  -3.8873  -3.8709  -2.5611   2.5246   7.5493   8.0572   8.3933
     9.1090   9.1603  11.7466  13.9209  17.9820  18.3767  19.2330  19.8524
    20.3165  20.9498  22.8309  24.2792  25.5783  26.7473  28.0132  28.0699
    28.3282  31.2247  32.5039

          k = 0.0500 0.0289 0.0000 (  3114 PWs)   bands (ev):

    -6.4516  -5.6676  -4.2013  -4.1849  -4.1793  -4.1310  -4.1289  -3.9638
    -3.9623  -3.8768  -3.8724  -2.6113   2.4222   8.0608   8.2022   8.9680
     9.1815   9.2251  11.2211  13.4944  18.2120  18.7791  19.0550  19.8120
    20.5973  20.7990  23.4500  24.5719  25.0003  26.7719  27.2975  27.3055
    27.5837  30.7929  32.7230

          k = 0.0000 0.0000 0.0000 (  3141 PWs)   bands (ev):

    -6.4749  -5.6733  -4.2029  -4.1884  -4.1884  -4.1334  -4.1334  -3.9620
    -3.9620  -3.8729  -3.8729  -2.6284   2.3875   8.2541   8.2541   9.2030
     9.2463   9.2463  10.9620  13.3254  18.2614  18.9899  18.9899  19.7684
    20.7438  20.7438  23.7117  24.7394  24.7394  26.9837  26.9837  27.0199
    27.1311  30.5187  32.9859

          k = 0.0000 0.0000 0.0307 (  3105 PWs)   bands (ev):

    -6.4679  -5.6753  -4.2008  -4.1882  -4.1882  -4.1339  -4.1339  -3.9612
    -3.9612  -3.8733  -3.8733  -2.6543   2.4325   8.2600   8.2600   9.1028
     9.2401   9.2401  11.0517  13.3307  18.2431  18.9927  18.9927  19.7018
    20.7207  20.7207  23.7376  24.7743  24.7743  27.0268  27.0268  27.1148
    27.1205  30.5160  32.8889

          k = 0.0000 0.0000 0.0613 (  3117 PWs)   bands (ev):

    -6.4474  -5.6817  -4.1945  -4.1879  -4.1879  -4.1356  -4.1356  -3.9589
    -3.9589  -3.8743  -3.8743  -2.7284   2.5639   8.2772   8.2772   8.8463
     9.2209   9.2209  11.2758  13.3460  18.1899  19.0014  19.0014  19.5167
    20.6533  20.6533  23.8089  24.8719  24.8719  27.0629  27.1489  27.1489
    27.4119  30.5180  32.6184

          k = 0.0000 0.0000 0.0920 (  3135 PWs)   bands (ev):

    -6.4138  -5.6929  -4.1873  -4.1873  -4.1832  -4.1382  -4.1382  -3.9553
    -3.9553  -3.8761  -3.8761  -2.8418   2.7725   8.3055   8.3055   8.5024
     9.1896   9.1896  11.5645  13.3698  18.1060  19.0177  19.0177  19.2483
    20.5487  20.5487  23.9154  25.0319  25.0319  26.9676  27.3391  27.3391
    27.8687  30.5485  32.2353

          k = 0.0000 0.0000 0.1227 (  3141 PWs)   bands (ev):

    -6.3684  -5.7096  -4.1864  -4.1864  -4.1659  -4.1416  -4.1416  -3.9505
    -3.9505  -3.8787  -3.8787  -2.9822   3.0460   8.1117   8.3444   8.3444
     9.1471   9.1471  11.8749  13.3991  17.9991  18.9358  19.0435  19.0435
    20.4161  20.4161  24.0492  25.2509  25.2509  26.8228  27.5771  27.5771
    28.4568  30.6315  31.8050

          k = 0.0000 0.0000 0.1533 (  3128 PWs)   bands (ev):

    -6.3127  -5.7324  -4.1850  -4.1850  -4.1458  -4.1458  -4.1412  -3.9446
    -3.9446  -3.8820  -3.8820  -3.1376   3.3721   7.6937   8.3930   8.3930
     9.0946   9.0946  12.1845  13.4295  17.8792  18.6131  19.0812  19.0812
    20.2652  20.2652  24.2067  25.5233  25.5233  26.6308  27.8294  27.8294
    29.1406  30.7817  31.3874

          k = 0.0000 0.0000 0.1840 (  3134 PWs)   bands (ev):

    -6.2489  -5.7626  -4.1831  -4.1831  -4.1504  -4.1504  -4.1073  -3.9380
    -3.9380  -3.8861  -3.8861  -3.2973   3.7392   7.2582   8.4502   8.4502
     9.0334   9.0334  12.4791  13.4545  17.7582  18.3062  19.1329  19.1329
    20.1051  20.1051  24.3864  25.8424  25.8424  26.3981  28.0403  28.0403
    29.8828  30.9973  31.0503

          k = 0.0000 0.0000 0.2147 (  3140 PWs)   bands (ev):

    -6.1793  -5.8009  -4.1806  -4.1806  -4.1553  -4.1553  -4.0620  -3.9310
    -3.9310  -3.8909  -3.8909  -3.4523   4.1378   6.8116   8.5147   8.5147
     8.9652   8.9652  12.7479  13.4655  17.6509  18.0352  19.2004  19.2004
    19.9435  19.9435  24.5883  26.1380  26.2006  26.2006  28.1286  28.1286
    30.6374  30.8843  30.8844

          k = 0.0000 0.0000 0.2453 (  3128 PWs)   bands (ev):

    -6.1070  -5.8479  -4.1775  -4.1775  -4.1603  -4.1603  -4.0031  -3.9237
    -3.9237  -3.8965  -3.8965  -3.5964   4.5597   6.3582   8.5852   8.5852
     8.8919   8.8919  12.9810  13.4524  17.5730  17.8152  19.2849  19.2849
    19.7868  19.7868  24.8115  25.8636  26.5891  26.5891  28.0289  28.0289
    30.9607  30.9607  31.3292

          k = 0.0000 0.0000 0.2760 (  3140 PWs)   bands (ev):

    -6.0350  -5.9033  -4.1739  -4.1739  -4.1651  -4.1651  -3.9283  -3.9164
    -3.9164  -3.9026  -3.9026  -3.7250   4.9980   5.9020   8.6599   8.6599
     8.8151   8.8151  13.1707  13.4042  17.5401  17.6569  19.3867  19.3867
    19.6395  19.6395  25.0545  25.5859  26.9937  26.9937  27.7600  27.7600
    31.2582  31.2584  31.8274

          k = 0.0000 0.0000 0.3067 (  3134 PWs)   bands (ev):

    -5.9663  -5.9663  -4.1697  -4.1697  -4.1697  -4.1697  -3.9093  -3.9093
    -3.9093  -3.9093  -3.8359  -3.8359   5.4471   5.4471   8.7372   8.7372
     8.7372   8.7372  13.3119  13.3119  17.5656  17.5656  19.5053  19.5053
    19.5053  19.5053  25.3142  25.3142  27.3958  27.3958  27.3958  27.3958
    31.7074  31.7074  31.7074

          k = 0.0333 0.0577 0.3067 (  3120 PWs)   bands (ev):

    -5.9472  -5.9472  -4.1666  -4.1666  -4.1641  -4.1641  -3.9308  -3.9308
    -3.9095  -3.9095  -3.7972  -3.7972   5.4410   5.4410   8.5505   8.5505
     8.6845   8.6845  13.4831  13.4831  17.4394  17.4394  19.4444  19.4444
    19.5945  19.5945  25.4038  25.4038  27.3112  27.3112  27.4785  27.4785
    30.9498  30.9498  31.9042

          k = 0.0667 0.1155 0.3067 (  3122 PWs)   bands (ev):

    -5.8942  -5.8942  -4.1572  -4.1572  -4.1484  -4.1484  -3.9595  -3.9595
    -3.9098  -3.9098  -3.7140  -3.7140   5.4014   5.4014   8.1118   8.1118
     8.5232   8.5232  13.8867  13.8867  17.1274  17.1274  19.3032  19.3032
    19.8482  19.8482  25.3615  25.3615  27.0213  27.0213  28.0936  28.0936
    30.4746  30.4746  32.3440

          k = 0.1000 0.1732 0.3067 (  3128 PWs)   bands (ev):

    -5.8191  -5.8191  -4.1423  -4.1423  -4.1261  -4.1261  -3.9798  -3.9798
    -3.9092  -3.9092  -3.5923  -3.5923   5.2628   5.2628   7.6571   7.6571
     8.2500   8.2500  14.3225  14.3225  16.8022  16.8022  19.1253  19.1253
    20.2050  20.2050  25.0577  25.0577  26.6647  26.6647  29.3023  29.3023
    30.4664  30.4664  32.8189

          k = 0.1333 0.2309 0.3067 (  3142 PWs)   bands (ev):

    -5.7378  -5.7378  -4.1248  -4.1248  -4.1044  -4.1044  -3.9894  -3.9894
    -3.9060  -3.9060  -3.4213  -3.4213   4.9507   4.9507   7.3703   7.3703
     7.8756   7.8756  14.6320  14.6320  16.6458  16.6458  18.9153  18.9153
    20.5544  20.5544  24.6933  24.6933  26.5142  26.5142  30.2342  30.2342
    31.3860  31.3860  33.2669

          k = 0.1667 0.2887 0.3067 (  3154 PWs)   bands (ev):

    -5.6646  -5.6646  -4.1106  -4.1106  -4.0866  -4.0866  -3.9902  -3.9902
    -3.8994  -3.8994  -3.1947  -3.1947   4.4891   4.4891   7.2076   7.2076
     7.5036   7.5036  14.7639  14.7639  16.7227  16.7227  18.6719  18.6719
    20.8130  20.8130  24.3879  24.3879  26.7154  26.7154  30.6400  30.6400
    33.0008  33.0008  33.7343

          k = 0.2000 0.3464 0.3067 (  3162 PWs)   bands (ev):

    -5.6075  -5.6075  -4.1038  -4.1038  -4.0701  -4.0701  -3.9868  -3.9868
    -3.8919  -3.8919  -2.9236  -2.9236   3.9968   3.9968   6.7767   6.7767
     7.4803   7.4803  14.8123  14.8123  16.9176  16.9176  18.3995  18.3995
    21.0222  21.0222  24.1942  24.1942  27.1617  27.1617  30.9493  30.9493
    33.4831  33.4831  34.5406

          k = 0.2333 0.4041 0.3067 (  3158 PWs)   bands (ev):

    -5.5676  -5.5676  -4.0993  -4.0993  -4.0594  -4.0594  -3.9792  -3.9792
    -3.8895  -3.8895  -2.6417  -2.6417   3.5841   3.5841   6.2461   6.2461
     7.5979   7.5979  14.8897  14.8897  17.0570  17.0570  18.1377  18.1377
    21.3146  21.3146  24.0828  24.0828  27.5455  27.5455  31.0083  31.0083
    33.3290  33.3290  34.9819

          k = 0.2667 0.4619 0.3067 (  3150 PWs)   bands (ev):

    -5.5425  -5.5425  -4.0928  -4.0928  -4.0577  -4.0577  -3.9660  -3.9660
    -3.8960  -3.8960  -2.3992  -2.3992   3.3221   3.3221   5.7514   5.7514
     7.7171   7.7171  15.0519  15.0519  16.9772  16.9772  18.0076  18.0076
    21.7739  21.7739  23.9507  23.9507  27.5059  27.5059  30.9502  30.9502
    33.4780  33.4780  35.3749

          k = 0.3000 0.5196 0.3067 (  3138 PWs)   bands (ev):

    -5.5290  -5.5290  -4.0842  -4.0842  -4.0617  -4.0617  -3.9507  -3.9507
    -3.9098  -3.9098  -2.2439  -2.2439   3.2279   3.2279   5.3720   5.3720
     7.7962   7.7962  15.2964  15.2964  16.6912  16.6912  18.0319  18.0319
    22.3843  22.3843  23.6417  23.6417  27.1353  27.1353  31.0784  31.0784
    33.7305  33.7305  35.6326

          k = 0.3333 0.5774 0.3067 (  3126 PWs)   bands (ev):

    -5.5249  -5.5249  -4.0785  -4.0785  -4.0653  -4.0653  -3.9420  -3.9420
    -3.9196  -3.9196  -2.1948  -2.1948   3.2282   3.2282   5.2168   5.2168
     7.8220   7.8220  15.4671  15.4671  16.4927  16.4927  18.0662  18.0662
    23.0343  23.0343  23.0943  23.0943  26.9428  26.9428  31.1825  31.1825
    33.8401  33.8401  35.6880

          k = 0.3333 0.5774 0.2760 (  3132 PWs)   bands (ev):

    -5.5260  -5.5260  -4.0846  -4.0772  -4.0772  -4.0466  -3.9417  -3.9414
    -3.9204  -3.9204  -2.1950  -2.1950   3.2423   3.2423   5.0372   5.4045
     7.7885   7.7885  15.5048  15.5048  16.2379  16.7218  18.0731  18.0731
    22.8237  23.0091  23.0091  23.4242  26.9448  26.9448  31.1789  31.1803
    33.8330  33.8330  35.7087

          k = 0.3333 0.5774 0.2453 (  3138 PWs)   bands (ev):

    -5.5290  -5.5290  -4.1037  -4.0734  -4.0734  -4.0294  -3.9402  -3.9400
    -3.9225  -3.9225  -2.1956  -2.1956   3.2840   3.2840   4.8689   5.5965
     7.6913   7.6913  15.6133  15.6133  15.9651  16.9207  18.0947  18.0947
    22.6082  22.9337  22.9337  23.8152  26.9528  26.9528  31.1656  31.1747
    33.8097  33.8097  35.7644

          k = 0.3333 0.5774 0.2147 (  3129 PWs)   bands (ev):

    -5.5336  -5.5336  -4.1218  -4.0674  -4.0674  -4.0149  -3.9388  -3.9362
    -3.9260  -3.9260  -2.1966  -2.1966   3.3517   3.3517   4.7145   5.7885
     7.5406   7.5406  15.6840  15.7793  15.7793  17.0876  18.1343  18.1343
    22.4411  22.8086  22.8086  24.2660  26.9708  26.9708  31.1290  31.1730
    33.7646  33.7646  35.8320

          k = 0.3333 0.5774 0.1840 (  3135 PWs)   bands (ev):

    -5.5394  -5.5394  -4.1384  -4.0594  -4.0594  -4.0040  -3.9374  -3.9309
    -3.9309  -3.9299  -2.1978  -2.1978   3.4422   3.4422   4.5763   5.9752
     7.3500   7.3500  15.4057  15.9818  15.9818  17.2230  18.1968  18.1968
    22.3150  22.6362  22.6362  24.7716  27.0024  27.0024  31.0571  31.1758
    33.6881  33.6881  35.8505

          k = 0.3333 0.5774 0.1533 (  3135 PWs)   bands (ev):

    -5.5457  -5.5457  -4.1532  -4.0497  -4.0497  -3.9967  -3.9371  -3.9371
    -3.9359  -3.9215  -2.1991  -2.1991   3.5508   3.5508   4.4563   6.1507
     7.1359   7.1359  15.1420  16.1965  16.1965  17.3295  18.2887  18.2887
    22.2224  22.4230  22.4230  25.3239  27.0496  27.0496  30.9332  31.1832
    33.5743  33.5743  35.7384

          k = 0.3333 0.5774 0.1227 (  3126 PWs)   bands (ev):

    -5.5520  -5.5520  -4.1658  -4.0390  -4.0390  -3.9924  -3.9444  -3.9444
    -3.9346  -3.9123  -2.2003  -2.2003   3.6704   3.6704   4.3560   6.3084
     6.9160   6.9160  14.9051  16.3978  16.3978  17.4104  18.4141  18.4141
    22.1567  22.1811  22.1811  25.9111  27.1099  27.1099  30.7388  31.1947
    33.4243  33.4243  35.5347

          k = 0.3333 0.5774 0.0920 (  3153 PWs)   bands (ev):

    -5.5577  -5.5577  -4.1758  -4.0276  -4.0276  -3.9901  -3.9528  -3.9528
    -3.9336  -3.9037  -2.2015  -2.2015   3.7907   3.7907   4.2766   6.4412
     6.7090   6.7090  14.7057  16.5645  16.5645  17.4690  18.5679  18.5679
    21.9299  21.9299  22.1112  26.5147  27.1743  27.1743  30.4601  31.2070
    33.2547  33.2547  35.1771

          k = 0.3333 0.5774 0.0613 (  3153 PWs)   bands (ev):

    -5.5622  -5.5622  -4.1832  -4.0163  -4.0163  -3.9889  -3.9617  -3.9617
    -3.9328  -3.8968  -2.2024  -2.2024   3.8973   3.8973   4.2192   6.5361
     6.5361   6.5422  14.5547  16.6847  16.6847  17.5086  18.7299  18.7299
    21.6991  21.6991  22.0824  27.1031  27.2337  27.2337  30.1069  31.2197
    33.0972  33.0972  34.7882

          k = 0.3333 0.5774 0.0307 (  3144 PWs)   bands (ev):

    -5.5650  -5.5650  -4.1876  -4.0064  -4.0064  -3.9883  -3.9701  -3.9701
    -3.9323  -3.8924  -2.2030  -2.2030   3.9727   3.9727   4.1845   6.4193
     6.4193   6.6056  14.4606  16.7557  16.7557  17.5315  18.8597  18.8597
    21.5296  21.5296  22.0665  27.2760  27.2760  27.6031  29.7457  31.2291
    32.9858  32.9858  34.5586

          k = 0.3333 0.5774 0.0000 (  3156 PWs)   bands (ev):

    -5.5660  -5.5660  -4.1891  -4.0016  -4.0016  -3.9881  -3.9744  -3.9744
    -3.9321  -3.8909  -2.2032  -2.2032   4.0001   4.0001   4.1729   6.3776
     6.3776   6.6272  14.4284  16.7789  16.7789  17.5389  18.9103  18.9103
    21.4660  21.4660  22.0613  27.2909  27.2909  27.8281  29.5655  31.2322
    32.9455  32.9455  34.4828

          k = 0.3000 0.5196 0.0000 (  3144 PWs)   bands (ev):

    -5.5933  -5.5488  -4.1858  -4.0243  -3.9939  -3.9915  -3.9791  -3.9685
    -3.9236  -3.8889  -2.4174  -2.0613   3.8048   3.9662   4.5582   5.9716
     6.7494   6.7698  14.5231  16.4394  16.9507  17.3625  18.7537  19.0960
    20.9167  22.0247  22.2280  26.3428  27.9050  28.3224  29.6931  30.7055
    32.0755  33.9202  34.3692

          k = 0.2667 0.4619 0.0000 (  3130 PWs)   bands (ev):

    -5.6356  -5.5403  -4.1772  -4.0486  -4.0045  -3.9985  -3.9837  -3.9629
    -3.9108  -3.8854  -2.7279  -1.9733   3.6643   4.0954   5.1046   5.5360
     7.0455   7.1932  14.8008  15.9528  16.9477  17.0484  18.6663  19.3084
    20.3050  22.5474  22.5783  25.3531  28.4015  28.9146  29.9645  30.1295
    31.5067  33.7727  33.9478

          k = 0.2333 0.4041 0.0000 (  3150 PWs)   bands (ev):

    -5.6997  -5.5404  -4.1654  -4.0737  -4.0216  -4.0038  -3.9934  -3.9569
    -3.9085  -3.8828  -3.0832  -1.9660   3.6220   4.4459   5.1690   5.7026
     7.4329   7.6202  15.2292  15.3408  16.7846  16.8110  18.6836  19.5156
    19.8245  22.8368  22.8407  24.4949  28.5389  28.9911  29.2949  30.9228
    31.4624  33.4237  33.6186

          k = 0.2000 0.3464 0.0000 (  3152 PWs)   bands (ev):

    -5.7930  -5.5488  -4.1532  -4.0991  -4.0417  -4.0141  -4.0015  -3.9495
    -3.9188  -3.8823  -3.4237  -2.0382   3.5678   4.9735   5.0513   6.3186
     7.8528   8.0248  14.6671  15.7516  16.4845  16.7137  18.8296  19.3777
    19.8840  22.6967  22.9614  23.8187  28.4391  28.6553  28.7787  31.2652
    31.9586  33.2824  33.3822

          k = 0.1667 0.2887 0.0000 (  3152 PWs)   bands (ev):

    -5.9189  -5.5653  -4.1451  -4.1243  -4.0633  -4.0385  -3.9978  -3.9432
    -3.9329  -3.8877  -3.7006  -2.1626   3.3591   5.3331   5.6329   6.9123
     8.2601   8.3843  13.9791  15.9258  16.4500  16.7825  19.1104  19.2786
    20.0687  22.2698  22.8967  23.2733  28.0686  28.1938  28.8111  30.7760
    32.3800  32.6881  33.3384

          k = 0.1333 0.2309 0.0000 (  3148 PWs)   bands (ev):

    -6.0694  -5.5892  -4.1485  -4.1460  -4.0850  -4.0685  -3.9901  -3.9545
    -3.9443  -3.9242  -3.8482  -2.3042   3.0651   5.9153   6.3818   7.4421
     8.6190   8.6831  13.2935  15.3894  17.0162  17.0423  19.3951  19.4859
    20.0452  21.7818  22.8020  22.8999  27.6646  27.7180  29.2094  29.5601
    31.6293  31.9731  32.9607

          k = 0.1000 0.1732 0.0000 (  3136 PWs)   bands (ev):

    -6.2237  -5.6176  -4.1707  -4.1567  -4.1050  -4.1020  -4.0535  -3.9803
    -3.9619  -3.9085  -3.8662  -2.4355   2.7865   6.6445   7.1692   7.8833
     8.9049   8.9143  12.6098  14.7465  17.4994  17.5554  19.6914  19.7511
    19.8174  21.3522  22.5625  23.2375  27.1933  27.3301  28.1190  29.3196
    30.5438  30.9229  32.8697

          k = 0.0667 0.1155 0.0000 (  3136 PWs)   bands (ev):

    -6.3558  -5.6454  -4.1893  -4.1717  -4.1442  -4.1207  -4.1070  -3.9711
    -3.9632  -3.8915  -3.8702  -2.5394   2.5695   7.3933   7.8613   8.3038
     9.0771   9.1046  11.9281  14.0893  17.9654  18.1068  19.3585  19.9120
    20.1238  21.0239  22.7957  23.8533  26.1827  27.0438  27.3280  28.4988
    28.9759  31.1983  32.6564

          k = 0.0333 0.0577 0.0000 (  3115 PWs)   bands (ev):

    -6.4440  -5.6658  -4.2005  -4.1838  -4.1765  -4.1302  -4.1272  -3.9644
    -3.9624  -3.8781  -3.8722  -2.6056   2.4336   8.0039   8.1788   8.8945
     9.1736   9.2151  11.2937  13.5476  18.1959  18.7102  19.0812  19.8254
    20.5514  20.8169  23.3804  24.4793  25.1235  26.8584  27.0766  27.6290
    27.6519  30.8723  32.6523

          k = 0.0000 0.0000 0.0000 (  3141 PWs)   bands (ev):

    -6.4749  -5.6733  -4.2029  -4.1884  -4.1884  -4.1334  -4.1334  -3.9620
    -3.9620  -3.8729  -3.8729  -2.6284   2.3875   8.2541   8.2541   9.2030
     9.2463   9.2463  10.9620  13.3254  18.2614  18.9899  18.9899  19.7684
    20.7438  20.7438  23.7117  24.7394  24.7394  26.9837  26.9837  27.0199
    27.1311  30.5187  32.9859

     Writing all to output data dir ./tmp/GaN.save/ :
     XML data file, pseudopotentials, collected wavefunctions
 
     init_run     :      0.18s CPU      0.22s WALL (       1 calls)
     electrons    :     44.79s CPU     47.34s WALL (       1 calls)

     Called by init_run:
     wfcinit      :      0.00s CPU      0.00s WALL (       1 calls)
     wfcinit:atom :      0.00s CPU      0.00s WALL (      71 calls)
     wfcinit:wfcr :      0.33s CPU      0.36s WALL (      71 calls)
     potinit      :      0.05s CPU      0.07s WALL (       1 calls)
     hinit0       :      0.03s CPU      0.04s WALL (       1 calls)

     Called by electrons:
     c_bands      :     44.79s CPU     47.33s WALL (       1 calls)
     v_of_rho     :      0.00s CPU      0.01s WALL (       1 calls)
     v_h          :      0.00s CPU      0.00s WALL (       1 calls)
     v_xc         :      0.00s CPU      0.01s WALL (       1 calls)
     newd         :      0.02s CPU      0.04s WALL (       1 calls)
     PAW_pot      :      0.05s CPU      0.05s WALL (       1 calls)

     Called by c_bands:
     init_us_2    :      0.01s CPU      0.01s WALL (      71 calls)
     cegterg      :     44.41s CPU     46.88s WALL (     424 calls)

     Called by sum_band:

     Called by *egterg:
     cdiaghg      :     10.04s CPU     10.53s WALL (    8388 calls)
     cegterg:over :      2.30s CPU      2.45s WALL (    8317 calls)
     cegterg:upda :      0.89s CPU      0.92s WALL (    8317 calls)
     cegterg:last :      2.64s CPU      2.74s WALL (    6947 calls)
     h_psi        :     27.32s CPU     28.95s WALL (    8812 calls)
     s_psi        :      0.67s CPU      0.72s WALL (    8812 calls)
     g_psi        :      0.12s CPU      0.13s WALL (    8317 calls)

     Called by h_psi:
     h_psi:calbec :      1.02s CPU      1.10s WALL (    8812 calls)
     vloc_psi     :     25.50s CPU     26.99s WALL (    8812 calls)
     add_vuspsi   :      0.70s CPU      0.75s WALL (    8812 calls)

     General routines
     calbec       :      1.00s CPU      1.08s WALL (    8812 calls)
     fft          :      0.00s CPU      0.00s WALL (      13 calls)
     ffts         :      0.00s CPU      0.00s WALL (       1 calls)
     fftw         :     21.34s CPU     22.61s WALL (  453430 calls)
     interpolate  :      0.00s CPU      0.00s WALL (       1 calls)
     davcio       :      0.01s CPU      0.03s WALL (     142 calls)
 
     Parallel routines

     PAW routines
     PAW_pot      :      0.05s CPU      0.05s WALL (       1 calls)
 
     PWSCF        :     45.22s CPU     48.98s WALL

 
   This run was terminated on:  21:53:34  30Jul2026            

=------------------------------------------------------------------------------=
   JOB DONE.
=------------------------------------------------------------------------------=
