
     Program PWSCF v.7.3.1 starts on  1Aug2026 at  0:33: 9 

     This program is part of the open-source Quantum ESPRESSO suite
     for quantum simulation of materials; please cite
         "P. Giannozzi et al., J. Phys.:Condens. Matter 21 395502 (2009);
         "P. Giannozzi et al., J. Phys.:Condens. Matter 29 465901 (2017);
         "P. Giannozzi et al., J. Chem. Phys. 152 154105 (2020);
          URL http://www.quantum-espresso.org", 
     in publications or presentations arising from this work. More details at
     http://www.quantum-espresso.org/quote

     Parallel version (MPI & OpenMP), running on      12 processor cores
     Number of MPI processes:                12
     Threads/MPI process:                     1

     MPI processes distributed on     1 nodes
     32985 MiB available memory on the printing compute node when the environment starts
 
     Waiting for input...
     Reading input from standard input

     Current dimensions of program PWSCF are:
     Max number of different atomic species (ntypx) = 10
     Max number of k-points (npk) =  40000
     Max angular momentum in pseudopotentials (lmaxx) =  4
 
     R & G space division:  proc/nbgrp/npool/nimage =      12
     Subspace diagonalization in iterative solution of the eigenvalue problem:
     a serial algorithm will be used

 
     Parallelization info
     --------------------
     sticks:   dense  smooth     PW     G-vecs:    dense   smooth      PW
     Min          59      59     17                 2091     2091     345
     Max          61      61     18                 2094     2094     352
     Sum         721     721    211                25109    25109    4187
 
     Using Slab Decomposition
 


     bravais-lattice index     =            4
     lattice parameter (alat)  =       6.0849  a.u.
     unit-cell volume          =     318.1254 (a.u.)^3
     number of atoms/cell      =            4
     number of atomic types    =            2
     number of electrons       =        36.00
     number of Kohn-Sham states=           22
     kinetic-energy cutoff     =      70.0000  Ry
     charge density cutoff     =     280.0000  Ry
     scf convergence threshold =      1.0E-08
     mixing beta               =       0.7000
     number of iterations used =            8  plain     mixing
     Exchange-correlation= PBE
                           (   1   4   3   4   0   0   0)

     celldm(1)=   6.084918  celldm(2)=   0.000000  celldm(3)=   1.630435
     celldm(4)=   0.000000  celldm(5)=   0.000000  celldm(6)=   0.000000

     crystal axes: (cart. coord. in units of alat)
               a(1) = (   1.000000   0.000000   0.000000 )  
               a(2) = (  -0.500000   0.866025   0.000000 )  
               a(3) = (   0.000000   0.000000   1.630435 )  

     reciprocal axes: (cart. coord. in units 2 pi/alat)
               b(1) = (  1.000000  0.577350  0.000000 )  
               b(2) = (  0.000000  1.154701  0.000000 )  
               b(3) = (  0.000000  0.000000  0.613333 )  


     PseudoPot. # 1 for Ga read from file:
     /data-fast/greenano/Students/cohort2/rojassan/Project_GaN/PSEUDO/Ga.upf
     MD5 check sum: 2bb81bf6f0a8d9832cf3329850435ecf
     Pseudo is Norm-conserving + core correction, Zval = 13.0
     Generated using ONCVPSP code by D. R. Hamann
     Using radial grid of 1902 points,  6 beta functions with: 
                l(1) =   0
                l(2) =   0
                l(3) =   1
                l(4) =   1
                l(5) =   2
                l(6) =   2

     PseudoPot. # 2 for N  read from file:
     /data-fast/greenano/Students/cohort2/rojassan/Project_GaN/PSEUDO/N.upf
     MD5 check sum: d34365f73bb0e2ee98afc20ec3e87676
     Pseudo is Norm-conserving + core correction, Zval =  5.0
     Generated using ONCVPSP code by D. R. Hamann
     Using radial grid of 1058 points,  4 beta functions with: 
                l(1) =   0
                l(2) =   0
                l(3) =   1
                l(4) =   1

     atomic species   valence    mass     pseudopotential
     Ga               13.00    69.72300     Ga( 1.00)
     N                 5.00    14.00700     N ( 1.00)

     12 Sym. Ops. (no inversion) found ( 6 have fractional translation)


                                    s                        frac. trans.

      isym =  1     identity                                     

 cryst.   s( 1) = (     1          0          0      )
                  (     0          1          0      )
                  (     0          0          1      )

 cart.    s( 1) = (  1.0000000  0.0000000  0.0000000 )
                  (  0.0000000  1.0000000  0.0000000 )
                  (  0.0000000  0.0000000  1.0000000 )


      isym =  2     180 deg rotation - cart. axis [0,0,1]        

 cryst.   s( 2) = (    -1          0          0      )    f =(  0.0000000 )
                  (     0         -1          0      )       (  0.0000000 )
                  (     0          0          1      )       ( -0.5000000 )

 cart.    s( 2) = ( -1.0000000  0.0000000  0.0000000 )    f =(  0.0000000 )
                  (  0.0000000 -1.0000000  0.0000000 )       (  0.0000000 )
                  (  0.0000000  0.0000000  1.0000000 )       ( -0.8152174 )


      isym =  3      60 deg rotation - cryst. axis [0,0,1]       

 cryst.   s( 3) = (     1          1          0      )    f =(  0.0000000 )
                  (    -1          0          0      )       (  0.0000000 )
                  (     0          0          1      )       ( -0.5000000 )

 cart.    s( 3) = (  0.5000000 -0.8660254  0.0000000 )    f =(  0.0000000 )
                  (  0.8660254  0.5000000  0.0000000 )       (  0.0000000 )
                  (  0.0000000  0.0000000  1.0000000 )       ( -0.8152174 )


      isym =  4      60 deg rotation - cryst. axis [0,0,-1]      

 cryst.   s( 4) = (     0         -1          0      )    f =(  0.0000000 )
                  (     1          1          0      )       (  0.0000000 )
                  (     0          0          1      )       ( -0.5000000 )

 cart.    s( 4) = (  0.5000000  0.8660254  0.0000000 )    f =( -0.0000000 )
                  ( -0.8660254  0.5000000  0.0000000 )       (  0.0000000 )
                  (  0.0000000  0.0000000  1.0000000 )       ( -0.8152174 )


      isym =  5     120 deg rotation - cryst. axis [0,0,1]       

 cryst.   s( 5) = (     0          1          0      )
                  (    -1         -1          0      )
                  (     0          0          1      )

 cart.    s( 5) = ( -0.5000000 -0.8660254  0.0000000 )
                  (  0.8660254 -0.5000000  0.0000000 )
                  (  0.0000000  0.0000000  1.0000000 )


      isym =  6     120 deg rotation - cryst. axis [0,0,-1]      

 cryst.   s( 6) = (    -1         -1          0      )
                  (     1          0          0      )
                  (     0          0          1      )

 cart.    s( 6) = ( -0.5000000  0.8660254  0.0000000 )
                  ( -0.8660254 -0.5000000  0.0000000 )
                  (  0.0000000  0.0000000  1.0000000 )


      isym =  7     inv. 180 deg rotation - cart. axis [0,1,0]   

 cryst.   s( 7) = (     1          0          0      )    f =(  0.0000000 )
                  (    -1         -1          0      )       (  0.0000000 )
                  (     0          0          1      )       ( -0.5000000 )

 cart.    s( 7) = (  1.0000000  0.0000000  0.0000000 )    f =( -0.0000000 )
                  (  0.0000000 -1.0000000  0.0000000 )       (  0.0000000 )
                  (  0.0000000  0.0000000  1.0000000 )       ( -0.8152174 )


      isym =  8     inv. 180 deg rotation - cart. axis [1,0,0]   

 cryst.   s( 8) = (    -1          0          0      )
                  (     1          1          0      )
                  (     0          0          1      )

 cart.    s( 8) = ( -1.0000000  0.0000000  0.0000000 )
                  (  0.0000000  1.0000000  0.0000000 )
                  (  0.0000000  0.0000000  1.0000000 )


      isym =  9     inv. 180 deg rotation - cryst. axis [1,-1,0] 

 cryst.   s( 9) = (     0          1          0      )    f =(  0.0000000 )
                  (     1          0          0      )       (  0.0000000 )
                  (     0          0          1      )       ( -0.5000000 )

 cart.    s( 9) = ( -0.5000000  0.8660254  0.0000000 )    f =(  0.0000000 )
                  (  0.8660254  0.5000000  0.0000000 )       (  0.0000000 )
                  (  0.0000000  0.0000000  1.0000000 )       ( -0.8152174 )


      isym = 10     inv. 180 deg rotation - cryst. axis [2,1,0]  

 cryst.   s(10) = (    -1         -1          0      )    f =(  0.0000000 )
                  (     0          1          0      )       (  0.0000000 )
                  (     0          0          1      )       ( -0.5000000 )

 cart.    s(10) = ( -0.5000000 -0.8660254  0.0000000 )    f =(  0.0000000 )
                  ( -0.8660254  0.5000000  0.0000000 )       (  0.0000000 )
                  (  0.0000000  0.0000000  1.0000000 )       ( -0.8152174 )


      isym = 11     inv. 180 deg rotation - cryst. axis [0,1,0]  

 cryst.   s(11) = (     1          1          0      )
                  (     0         -1          0      )
                  (     0          0          1      )

 cart.    s(11) = (  0.5000000  0.8660254  0.0000000 )
                  (  0.8660254 -0.5000000  0.0000000 )
                  (  0.0000000  0.0000000  1.0000000 )


      isym = 12     inv. 180 deg rotation - cryst. axis [1,1,0]  

 cryst.   s(12) = (     0         -1          0      )
                  (    -1          0          0      )
                  (     0          0          1      )

 cart.    s(12) = (  0.5000000 -0.8660254  0.0000000 )
                  ( -0.8660254 -0.5000000  0.0000000 )
                  (  0.0000000  0.0000000  1.0000000 )


     point group C_6v (6mm) 
     there are  6 classes
     the character table:

       E     2C6   2C3   C2    3s_v  3s_d 
A_1    1.00  1.00  1.00  1.00  1.00  1.00
A_2    1.00  1.00  1.00  1.00 -1.00 -1.00
B_1    1.00 -1.00  1.00 -1.00  1.00 -1.00
B_2    1.00 -1.00  1.00 -1.00 -1.00  1.00
E_1    2.00  1.00 -1.00 -2.00  0.00  0.00
E_2    2.00 -1.00 -1.00  2.00  0.00  0.00

     the symmetry operations in each class and the name of the first element:

     E        1
          identity                                               
     2C6      3    4
           60 deg rotation - cryst. axis [0,0,1]                 
     2C3      5    6
          120 deg rotation - cryst. axis [0,0,1]                 
     C2       2
          180 deg rotation - cart. axis [0,0,1]                  
     3s_v     8   12   11
          inv. 180 deg rotation - cart. axis [1,0,0]             
     3s_d     7    9   10
          inv. 180 deg rotation - cart. axis [0,1,0]             

   Cartesian axes

     site n.     atom                  positions (alat units)
         1        Ga     tau(   1) = (   0.0000000   0.5773503   0.0000000  )
         2        Ga     tau(   2) = (   0.5000000   0.2886751   0.8152174  )
         3        N      tau(   3) = (   0.0000000   0.5773503   0.6136663  )
         4        N      tau(   4) = (   0.5000000   0.2886751   1.4288837  )

   Crystallographic axes

     site n.     atom                  positions (cryst. coord.)
         1        Ga     tau(   1) = (  0.3333333  0.6666667  0.0000000  )
         2        Ga     tau(   2) = (  0.6666667  0.3333333  0.5000000  )
         3        N      tau(   3) = (  0.3333333  0.6666667  0.3763820  )
         4        N      tau(   4) = (  0.6666667  0.3333333  0.8763820  )

     number of k points=    12
                       cart. coord. in units 2pi/alat
        k(    1) = (   0.1250000   0.2165064   0.1022222), wk =   0.1666667
        k(    2) = (   0.1250000   0.2165064  -0.3066667), wk =   0.0833333
        k(    3) = (   0.1250000   0.5051815   0.1022222), wk =   0.3333333
        k(    4) = (   0.1250000   0.5051815  -0.3066667), wk =   0.1666667
        k(    5) = (   0.1250000  -0.3608439   0.1022222), wk =   0.3333333
        k(    6) = (   0.1250000  -0.3608439  -0.3066667), wk =   0.1666667
        k(    7) = (   0.1250000  -0.0721688   0.1022222), wk =   0.1666667
        k(    8) = (   0.1250000  -0.0721688  -0.3066667), wk =   0.0833333
        k(    9) = (   0.3750000   0.6495191   0.1022222), wk =   0.1666667
        k(   10) = (   0.3750000   0.6495191  -0.3066667), wk =   0.0833333
        k(   11) = (   0.3750000  -0.2165064   0.1022222), wk =   0.1666667
        k(   12) = (   0.3750000  -0.2165064  -0.3066667), wk =   0.0833333

                       cryst. coord.
        k(    1) = (   0.1250000   0.1250000   0.1666667), wk =   0.1666667
        k(    2) = (   0.1250000   0.1250000  -0.5000000), wk =   0.0833333
        k(    3) = (   0.1250000   0.3750000   0.1666667), wk =   0.3333333
        k(    4) = (   0.1250000   0.3750000  -0.5000000), wk =   0.1666667
        k(    5) = (   0.1250000  -0.3750000   0.1666667), wk =   0.3333333
        k(    6) = (   0.1250000  -0.3750000  -0.5000000), wk =   0.1666667
        k(    7) = (   0.1250000  -0.1250000   0.1666667), wk =   0.1666667
        k(    8) = (   0.1250000  -0.1250000  -0.5000000), wk =   0.0833333
        k(    9) = (   0.3750000   0.3750000   0.1666667), wk =   0.1666667
        k(   10) = (   0.3750000   0.3750000  -0.5000000), wk =   0.0833333
        k(   11) = (   0.3750000  -0.3750000   0.1666667), wk =   0.1666667
        k(   12) = (   0.3750000  -0.3750000  -0.5000000), wk =   0.0833333

     Dense  grid:    25109 G-vectors     FFT dimensions: (  36,  36,  54)

     Dynamical RAM for                 wfc:       0.09 MB

     Dynamical RAM for     wfc (w. buffer):       1.14 MB

     Dynamical RAM for           str. fact:       0.06 MB

     Dynamical RAM for           local pot:       0.00 MB

     Dynamical RAM for          nlocal pot:       0.21 MB

     Dynamical RAM for                qrad:       2.69 MB

     Dynamical RAM for          rho,v,vnew:       0.24 MB

     Dynamical RAM for               rhoin:       0.08 MB

     Dynamical RAM for            rho*nmix:       0.51 MB

     Dynamical RAM for           G-vectors:       0.14 MB

     Dynamical RAM for          h,s,v(r/c):       0.09 MB

     Dynamical RAM for          <psi|beta>:       0.02 MB

     Dynamical RAM for                 psi:       0.18 MB

     Dynamical RAM for                hpsi:       0.18 MB

     Dynamical RAM for      wfcinit/wfcrot:       0.22 MB

     Estimated static dynamical RAM per process >       4.91 MB

     Estimated max dynamical RAM per process >       5.88 MB

     Estimated total dynamical RAM >      70.51 MB

     Initial potential from superposition of free atoms

     starting charge      35.9946, renormalised to      36.0000
     Starting wfcs are   26 randomized atomic wfcs

     total cpu time spent up to now is        0.2 secs

     Self-consistent Calculation

     iteration #  1     ecut=    70.00 Ry     beta= 0.70
     Davidson diagonalization with overlap

---- Real-time Memory Report at c_bands before calling an iterative solver
           109 MiB given to the printing process from OS
             0 MiB allocation reported by mallinfo(arena+hblkhd)
         32796 MiB available memory on the node where the printing process lives
------------------
     ethr =  1.00E-02,  avg # of iterations =  3.2

     total cpu time spent up to now is        0.4 secs

     total energy              =    -347.03668994 Ry
     estimated scf accuracy    <       1.03487873 Ry

     iteration #  2     ecut=    70.00 Ry     beta= 0.70
     Davidson diagonalization with overlap

---- Real-time Memory Report at c_bands before calling an iterative solver
           114 MiB given to the printing process from OS
             0 MiB allocation reported by mallinfo(arena+hblkhd)
         32760 MiB available memory on the node where the printing process lives
------------------
     ethr =  2.87E-03,  avg # of iterations =  2.9

     total cpu time spent up to now is        0.6 secs

     total energy              =    -347.34229065 Ry
     estimated scf accuracy    <       1.02339748 Ry

     iteration #  3     ecut=    70.00 Ry     beta= 0.70
     Davidson diagonalization with overlap

---- Real-time Memory Report at c_bands before calling an iterative solver
           114 MiB given to the printing process from OS
             0 MiB allocation reported by mallinfo(arena+hblkhd)
         32757 MiB available memory on the node where the printing process lives
------------------
     ethr =  2.84E-03,  avg # of iterations =  2.0

     negative rho (up, down):  1.825E-06 0.000E+00

     total cpu time spent up to now is        0.7 secs

     total energy              =    -347.51344573 Ry
     estimated scf accuracy    <       0.00783252 Ry

     iteration #  4     ecut=    70.00 Ry     beta= 0.70
     Davidson diagonalization with overlap

---- Real-time Memory Report at c_bands before calling an iterative solver
           114 MiB given to the printing process from OS
             0 MiB allocation reported by mallinfo(arena+hblkhd)
         32771 MiB available memory on the node where the printing process lives
------------------
     ethr =  2.18E-05,  avg # of iterations =  5.3

     total cpu time spent up to now is        1.0 secs

     total energy              =    -347.51835613 Ry
     estimated scf accuracy    <       0.01481155 Ry

     iteration #  5     ecut=    70.00 Ry     beta= 0.70
     Davidson diagonalization with overlap

---- Real-time Memory Report at c_bands before calling an iterative solver
           115 MiB given to the printing process from OS
             0 MiB allocation reported by mallinfo(arena+hblkhd)
         32769 MiB available memory on the node where the printing process lives
------------------
     ethr =  2.18E-05,  avg # of iterations =  2.1

     total cpu time spent up to now is        1.1 secs

     total energy              =    -347.51923356 Ry
     estimated scf accuracy    <       0.00135879 Ry

     iteration #  6     ecut=    70.00 Ry     beta= 0.70
     Davidson diagonalization with overlap

---- Real-time Memory Report at c_bands before calling an iterative solver
           115 MiB given to the printing process from OS
             0 MiB allocation reported by mallinfo(arena+hblkhd)
         32795 MiB available memory on the node where the printing process lives
------------------
     ethr =  3.77E-06,  avg # of iterations =  2.4

     total cpu time spent up to now is        1.3 secs

     total energy              =    -347.51933776 Ry
     estimated scf accuracy    <       0.00015477 Ry

     iteration #  7     ecut=    70.00 Ry     beta= 0.70
     Davidson diagonalization with overlap

---- Real-time Memory Report at c_bands before calling an iterative solver
           115 MiB given to the printing process from OS
             0 MiB allocation reported by mallinfo(arena+hblkhd)
         32794 MiB available memory on the node where the printing process lives
------------------
     ethr =  4.30E-07,  avg # of iterations =  3.1

     total cpu time spent up to now is        1.4 secs

     total energy              =    -347.51936371 Ry
     estimated scf accuracy    <       0.00000741 Ry

     iteration #  8     ecut=    70.00 Ry     beta= 0.70
     Davidson diagonalization with overlap

---- Real-time Memory Report at c_bands before calling an iterative solver
           115 MiB given to the printing process from OS
             0 MiB allocation reported by mallinfo(arena+hblkhd)
         32793 MiB available memory on the node where the printing process lives
------------------
     ethr =  2.06E-08,  avg # of iterations =  3.5

     total cpu time spent up to now is        1.6 secs

     total energy              =    -347.51936759 Ry
     estimated scf accuracy    <       0.00000308 Ry

     iteration #  9     ecut=    70.00 Ry     beta= 0.70
     Davidson diagonalization with overlap

---- Real-time Memory Report at c_bands before calling an iterative solver
           116 MiB given to the printing process from OS
             0 MiB allocation reported by mallinfo(arena+hblkhd)
         32792 MiB available memory on the node where the printing process lives
------------------
     ethr =  8.54E-09,  avg # of iterations =  1.4

     total cpu time spent up to now is        1.7 secs

     total energy              =    -347.51936743 Ry
     estimated scf accuracy    <       0.00000064 Ry

     iteration # 10     ecut=    70.00 Ry     beta= 0.70
     Davidson diagonalization with overlap

---- Real-time Memory Report at c_bands before calling an iterative solver
           116 MiB given to the printing process from OS
             0 MiB allocation reported by mallinfo(arena+hblkhd)
         32781 MiB available memory on the node where the printing process lives
------------------
     ethr =  1.79E-09,  avg # of iterations =  2.1

     total cpu time spent up to now is        1.9 secs

     total energy              =    -347.51936761 Ry
     estimated scf accuracy    <       0.00000003 Ry

     iteration # 11     ecut=    70.00 Ry     beta= 0.70
     Davidson diagonalization with overlap

---- Real-time Memory Report at c_bands before calling an iterative solver
           116 MiB given to the printing process from OS
             0 MiB allocation reported by mallinfo(arena+hblkhd)
         32795 MiB available memory on the node where the printing process lives
------------------
     ethr =  8.63E-11,  avg # of iterations =  2.3

     total cpu time spent up to now is        2.1 secs

     total energy              =    -347.51936762 Ry
     estimated scf accuracy    <       0.00000001 Ry

     iteration # 12     ecut=    70.00 Ry     beta= 0.70
     Davidson diagonalization with overlap

---- Real-time Memory Report at c_bands before calling an iterative solver
           116 MiB given to the printing process from OS
             0 MiB allocation reported by mallinfo(arena+hblkhd)
         32790 MiB available memory on the node where the printing process lives
------------------
     ethr =  3.79E-11,  avg # of iterations =  1.5

     total cpu time spent up to now is        2.2 secs

     End of self-consistent calculation

          k = 0.1250 0.2165 0.1022 (  3132 PWs)   bands (ev):

    -5.1443  -4.7339  -3.3475  -3.3402  -3.2951  -3.2819  -3.2011  -3.1604
    -3.1273  -3.1223  -3.0497  -1.7118   4.2457   7.1468   7.3015   8.4119
     9.4816   9.5627  14.1849  16.1648  17.7783  18.0982

     occupation numbers 
     1.0000   1.0000   1.0000   1.0000   1.0000   1.0000   1.0000   1.0000
     1.0000   1.0000   1.0000   1.0000   1.0000   1.0000   1.0000   1.0000
     1.0000   1.0000   0.0000   0.0000   0.0000   0.0000

          k = 0.1250 0.2165-0.3067 (  3146 PWs)   bands (ev):

    -4.8661  -4.8661  -3.3269  -3.3269  -3.3083  -3.3083  -3.1884  -3.1884
    -3.1124  -3.1124  -2.6391  -2.6391   5.9479   5.9479   8.3206   8.3206
     8.8729   8.8729  15.4681  15.4681  17.5685  17.5685

     occupation numbers 
     1.0000   1.0000   1.0000   1.0000   1.0000   1.0000   1.0000   1.0000
     1.0000   1.0000   1.0000   1.0000   1.0000   1.0000   1.0000   1.0000
     1.0000   1.0000   0.0000   0.0000   0.0000   0.0000

          k = 0.1250 0.5052 0.1022 (  3152 PWs)   bands (ev):

    -4.7746  -4.6683  -3.3417  -3.3089  -3.2371  -3.1975  -3.1790  -3.1363
    -3.0997  -3.0787  -1.9508  -1.2674   3.9541   4.8946   6.4142   7.1353
     8.3624   8.5803  15.2178  16.1604  16.9421  18.0765

     occupation numbers 
     1.0000   1.0000   1.0000   1.0000   1.0000   1.0000   1.0000   1.0000
     1.0000   1.0000   1.0000   1.0000   1.0000   1.0000   1.0000   1.0000
     1.0000   1.0000   0.0000   0.0000   0.0000   0.0000

          k = 0.1250 0.5052-0.3067 (  3160 PWs)   bands (ev):

    -4.6865  -4.6865  -3.3217  -3.3217  -3.2448  -3.2448  -3.1474  -3.1474
    -3.0918  -3.0918  -1.6549  -1.6549   3.9910   3.9910   7.5109   7.5109
     8.5297   8.5297  15.1104  15.1104  17.9514  17.9514

     occupation numbers 
     1.0000   1.0000   1.0000   1.0000   1.0000   1.0000   1.0000   1.0000
     1.0000   1.0000   1.0000   1.0000   1.0000   1.0000   1.0000   1.0000
     1.0000   1.0000   0.0000   0.0000   0.0000   0.0000

          k = 0.1250-0.3608 0.1022 (  3142 PWs)   bands (ev):

    -4.9002  -4.6872  -3.3322  -3.3181  -3.2573  -3.2259  -3.1853  -3.1644
    -3.1183  -3.0868  -2.6325  -1.3857   4.4252   5.8063   6.3712   7.5188
     8.8708   9.1188  15.0571  16.5979  16.9057  18.0986

     occupation numbers 
     1.0000   1.0000   1.0000   1.0000   1.0000   1.0000   1.0000   1.0000
     1.0000   1.0000   1.0000   1.0000   1.0000   1.0000   1.0000   1.0000
     1.0000   1.0000   0.0000   0.0000   0.0000   0.0000

          k = 0.1250-0.3608-0.3067 (  3160 PWs)   bands (ev):

    -4.7440  -4.7440  -3.3125  -3.3125  -3.2673  -3.2673  -3.1820  -3.1820
    -3.0998  -3.0998  -2.1636  -2.1636   4.9611   4.9611   7.9390   7.9390
     8.3942   8.3942  15.4636  15.4636  17.7722  17.7722

     occupation numbers 
     1.0000   1.0000   1.0000   1.0000   1.0000   1.0000   1.0000   1.0000
     1.0000   1.0000   1.0000   1.0000   1.0000   1.0000   1.0000   1.0000
     1.0000   1.0000   0.0000   0.0000   0.0000   0.0000

          k = 0.1250-0.0722 0.1022 (  3137 PWs)   bands (ev):

    -5.3523  -4.7825  -3.3752  -3.3643  -3.3274  -3.3119  -3.3033  -3.1622
    -3.1591  -3.1037  -3.0798  -1.9255   3.9450   8.1886   8.5815   8.9248
     9.7695   9.9192  13.3152  15.1238  18.4647  19.0107

     occupation numbers 
     1.0000   1.0000   1.0000   1.0000   1.0000   1.0000   1.0000   1.0000
     1.0000   1.0000   1.0000   1.0000   1.0000   1.0000   1.0000   1.0000
     1.0000   1.0000   0.0000   0.0000   0.0000   0.0000

          k = 0.1250-0.0722-0.3067 (  3112 PWs)   bands (ev):

    -4.9828  -4.9828  -3.3526  -3.3526  -3.3433  -3.3433  -3.1629  -3.1629
    -3.1143  -3.1143  -2.8748  -2.8748   6.2887   6.2887   8.9097   8.9097
     9.4035   9.4035  14.8466  14.8466  17.9754  17.9754

     occupation numbers 
     1.0000   1.0000   1.0000   1.0000   1.0000   1.0000   1.0000   1.0000
     1.0000   1.0000   1.0000   1.0000   1.0000   1.0000   1.0000   1.0000
     1.0000   1.0000   0.0000   0.0000   0.0000   0.0000

          k = 0.3750 0.6495 0.1022 (  3149 PWs)   bands (ev):

    -4.7135  -4.6730  -3.3647  -3.2583  -3.2234  -3.1895  -3.1720  -3.1397
    -3.1258  -3.1046  -1.5345  -1.2606   4.3126   4.7957   5.5746   7.3162
     7.5165   8.0245  15.6770  17.0709  17.5943  17.9814

     occupation numbers 
     1.0000   1.0000   1.0000   1.0000   1.0000   1.0000   1.0000   1.0000
     1.0000   1.0000   1.0000   1.0000   1.0000   1.0000   1.0000   1.0000
     1.0000   1.0000   0.0000   0.0000   0.0000   0.0000

          k = 0.3750 0.6495-0.3067 (  3152 PWs)   bands (ev):

    -4.6623  -4.6623  -3.2887  -3.2887  -3.2584  -3.2584  -3.1501  -3.1501
    -3.1123  -3.1123  -1.3998  -1.3998   4.0723   4.0723   6.3943   6.3943
     8.6867   8.6867  16.0386  16.0386  17.7373  17.7373

     occupation numbers 
     1.0000   1.0000   1.0000   1.0000   1.0000   1.0000   1.0000   1.0000
     1.0000   1.0000   1.0000   1.0000   1.0000   1.0000   1.0000   1.0000
     1.0000   1.0000   0.0000   0.0000   0.0000   0.0000

          k = 0.3750-0.2165 0.1022 (  3159 PWs)   bands (ev):

    -4.8479  -4.6779  -3.3417  -3.3096  -3.2529  -3.2062  -3.1886  -3.1427
    -3.1097  -3.0672  -2.3993  -1.3293   4.0996   5.3072   6.2193   7.8121
     8.7881   9.1939  14.6477  15.5794  17.0000  18.1521

     occupation numbers 
     1.0000   1.0000   1.0000   1.0000   1.0000   1.0000   1.0000   1.0000
     1.0000   1.0000   1.0000   1.0000   1.0000   1.0000   1.0000   1.0000
     1.0000   1.0000   0.0000   0.0000   0.0000   0.0000

          k = 0.3750-0.2165-0.3067 (  3146 PWs)   bands (ev):

    -4.7202  -4.7202  -3.3324  -3.3324  -3.2452  -3.2452  -3.1517  -3.1517
    -3.0936  -3.0936  -1.9758  -1.9758   4.3711   4.3711   8.1871   8.1871
     8.4561   8.4561  14.7408  14.7408  17.7598  17.7598

     occupation numbers 
     1.0000   1.0000   1.0000   1.0000   1.0000   1.0000   1.0000   1.0000
     1.0000   1.0000   1.0000   1.0000   1.0000   1.0000   1.0000   1.0000
     1.0000   1.0000   0.0000   0.0000   0.0000   0.0000

     highest occupied, lowest unoccupied level (ev):     9.9192   13.3152

!    total energy              =    -347.51936761 Ry
     estimated scf accuracy    <          3.9E-09 Ry

     The total energy is the sum of the following terms:
     one-electron contribution =    -109.25259108 Ry
     hartree contribution      =      88.75214345 Ry
     xc contribution           =     -96.19425804 Ry
     ewald contribution        =    -230.82466194 Ry

     convergence has been achieved in  12 iterations

     Forces acting on atoms (cartesian axes, Ry/au):

     atom    1 type  1   force =     0.00000000   -0.00000000   -0.00056107
     atom    2 type  1   force =     0.00000000    0.00000000   -0.00056107
     atom    3 type  2   force =     0.00000000    0.00000000    0.00056107
     atom    4 type  2   force =    -0.00000000   -0.00000000    0.00056107
     The non-local contrib.  to forces
     atom    1 type  1   force =     0.00000000   -0.00000000    0.00250602
     atom    2 type  1   force =    -0.00000000   -0.00000000    0.00250602
     atom    3 type  2   force =     0.00000000    0.00000000    0.01230804
     atom    4 type  2   force =     0.00000000    0.00000000    0.01230804
     The ionic contribution  to forces
     atom    1 type  1   force =    -0.00000002    0.00000001    0.15748047
     atom    2 type  1   force =     0.00000002   -0.00000001    0.15748047
     atom    3 type  2   force =    -0.00000001    0.00000001   -0.15748047
     atom    4 type  2   force =     0.00000001   -0.00000001   -0.15748047
     The local contribution  to forces
     atom    1 type  1   force =     0.00000000    0.00000019   -0.16073580
     atom    2 type  1   force =     0.00000033    0.00000000   -0.16073575
     atom    3 type  2   force =     0.00000000    0.00000002    0.14608907
     atom    4 type  2   force =     0.00000004    0.00000000    0.14608899
     The core correction contribution to forces
     atom    1 type  1   force =    -0.00000000    0.00000000    0.00020448
     atom    2 type  1   force =     0.00000001    0.00000000    0.00020448
     atom    3 type  2   force =    -0.00000000   -0.00000000   -0.00036289
     atom    4 type  2   force =    -0.00000000    0.00000000   -0.00036289
     The Hubbard contrib.    to forces
     atom    1 type  1   force =     0.00000000    0.00000000    0.00000000
     atom    2 type  1   force =     0.00000000    0.00000000    0.00000000
     atom    3 type  2   force =     0.00000000    0.00000000    0.00000000
     atom    4 type  2   force =     0.00000000    0.00000000    0.00000000
     The SCF correction term to forces
     atom    1 type  1   force =     0.00000000    0.00000000    0.00000000
     atom    2 type  1   force =     0.00000000    0.00000000    0.00000000
     atom    3 type  2   force =     0.00000000    0.00000000    0.00000052
     atom    4 type  2   force =     0.00000000    0.00000000    0.00000052

     Total force =     0.000793     Total SCF correction =     0.000001


     Computing stress (Cartesian axis) and pressure

          total   stress  (Ry/bohr**3)                   (kbar)     P=      -39.94
  -0.00027201   0.00000000   0.00000000          -40.01        0.00        0.00
   0.00000000  -0.00027201   0.00000000            0.00      -40.01        0.00
   0.00000000   0.00000000  -0.00027046            0.00        0.00      -39.79

     kinetic stress (kbar)  86399.26      0.00      0.00
                                0.00  86399.26      0.00
                                0.00      0.00  86417.16

     local   stress (kbar)   4746.80      0.00     -0.00
                                0.00   4746.80     -0.00
                               -0.00     -0.00   2987.61

     nonloc. stress (kbar) -58114.38     -0.00      0.00
                               -0.00 -58114.38      0.00
                                0.00      0.00 -58120.77

     hartree stress (kbar)  13417.04     -0.00      0.00
                               -0.00  13417.04     -0.00
                                0.00     -0.00  14206.00

     exc-cor stress (kbar)  12567.29     -0.00     -0.00
                               -0.00  12567.29     -0.00
                               -0.00     -0.00  12567.80

     corecor stress (kbar) -23157.68     -0.00      0.00
                               -0.00 -23157.68      0.00
                                0.00      0.00 -23158.13

     ewald   stress (kbar) -35898.35     -0.00     -0.00
                               -0.00 -35898.35     -0.00
                               -0.00     -0.00 -34939.46

     hubbard stress (kbar)      0.00      0.00      0.00
                                0.00      0.00      0.00
                                0.00      0.00      0.00

     DFT-D   stress (kbar)      0.00      0.00      0.00
                                0.00      0.00      0.00
                                0.00      0.00      0.00

     XDM     stress (kbar)      0.00      0.00      0.00
                                0.00      0.00      0.00
                                0.00      0.00      0.00

     dft-nl  stress (kbar)      0.00      0.00      0.00
                                0.00      0.00      0.00
                                0.00      0.00      0.00

     TS-vdW  stress (kbar)      0.00      0.00      0.00
                                0.00      0.00      0.00
                                0.00      0.00      0.00

     MDB     stress (kbar)      0.00      0.00      0.00
                                0.00      0.00      0.00
                                0.00      0.00      0.00

     3D-RISM stress (kbar)      0.00      0.00      0.00
                                0.00      0.00      0.00
                                0.00      0.00      0.00


     Writing all to output data dir ./tmp/GaN.save/ :
     XML data file, charge density, pseudopotentials, collected wavefunctions
 
     init_run     :      0.10s CPU      0.11s WALL (       1 calls)
     electrons    :      1.92s CPU      2.06s WALL (       1 calls)
     forces       :      0.02s CPU      0.02s WALL (       1 calls)
     stress       :      0.25s CPU      0.25s WALL (       1 calls)

     Called by init_run:
     wfcinit      :      0.07s CPU      0.07s WALL (       1 calls)
     wfcinit:atom :      0.00s CPU      0.00s WALL (      12 calls)
     wfcinit:wfcr :      0.06s CPU      0.06s WALL (      12 calls)
     potinit      :      0.01s CPU      0.01s WALL (       1 calls)
     hinit0       :      0.02s CPU      0.02s WALL (       1 calls)

     Called by electrons:
     c_bands      :      1.61s CPU      1.70s WALL (      12 calls)
     sum_band     :      0.26s CPU      0.28s WALL (      12 calls)
     v_of_rho     :      0.04s CPU      0.04s WALL (      13 calls)
     v_h          :      0.00s CPU      0.00s WALL (      13 calls)
     v_xc         :      0.04s CPU      0.04s WALL (      15 calls)
     mix_rho      :      0.01s CPU      0.01s WALL (      12 calls)

     Called by c_bands:
     init_us_2    :      0.03s CPU      0.04s WALL (     324 calls)
     cegterg      :      1.51s CPU      1.61s WALL (     144 calls)

     Called by sum_band:
     sum_band:wei :      0.00s CPU      0.00s WALL (      12 calls)
     sum_band:loo :      0.25s CPU      0.27s WALL (      12 calls)
     sum_band:buf :      0.00s CPU      0.01s WALL (     144 calls)
     sum_band:ini :      0.01s CPU      0.01s WALL (     144 calls)

     Called by *egterg:
     cdiaghg      :      0.23s CPU      0.24s WALL (     527 calls)
     cegterg:over :      0.05s CPU      0.05s WALL (     383 calls)
     cegterg:upda :      0.02s CPU      0.02s WALL (     383 calls)
     cegterg:last :      0.03s CPU      0.03s WALL (     291 calls)
     h_psi        :      1.20s CPU      1.27s WALL (     539 calls)
     g_psi        :      0.00s CPU      0.00s WALL (     383 calls)

     Called by h_psi:
     h_psi:calbec :      0.05s CPU      0.06s WALL (     539 calls)
     vloc_psi     :      1.10s CPU      1.17s WALL (     539 calls)
     add_vuspsi   :      0.03s CPU      0.03s WALL (     539 calls)

     General routines
     calbec       :      0.15s CPU      0.15s WALL (     599 calls)
     fft          :      0.02s CPU      0.02s WALL (     154 calls)
     ffts         :      0.00s CPU      0.00s WALL (      12 calls)
     fftw         :      1.18s CPU      1.25s WALL (   19568 calls)
 
     Parallel routines
 
     PWSCF        :      2.39s CPU      2.83s WALL

 
   This run was terminated on:   0:33:12   1Aug2026            

=------------------------------------------------------------------------------=
   JOB DONE.
=------------------------------------------------------------------------------=
