
     Program PWSCF v.7.3.1 starts on  1Aug2026 at  0:41:17 

     This program is part of the open-source Quantum ESPRESSO suite
     for quantum simulation of materials; please cite
         "P. Giannozzi et al., J. Phys.:Condens. Matter 21 395502 (2009);
         "P. Giannozzi et al., J. Phys.:Condens. Matter 29 465901 (2017);
         "P. Giannozzi et al., J. Chem. Phys. 152 154105 (2020);
          URL http://www.quantum-espresso.org", 
     in publications or presentations arising from this work. More details at
     http://www.quantum-espresso.org/quote

     Parallel version (MPI & OpenMP), running on       8 processor cores
     Number of MPI processes:                 8
     Threads/MPI process:                     1

     MPI processes distributed on     1 nodes
     33138 MiB available memory on the printing compute node when the environment starts
 
     Waiting for input...
     Reading input from standard input

     Current dimensions of program PWSCF are:
     Max number of different atomic species (ntypx) = 10
     Max number of k-points (npk) =  40000
     Max angular momentum in pseudopotentials (lmaxx) =  4
 
     R & G space division:  proc/nbgrp/npool/nimage =       8
     Subspace diagonalization in iterative solution of the eigenvalue problem:
     a serial algorithm will be used

 
     Parallelization info
     --------------------
     sticks:   dense  smooth     PW     G-vecs:    dense   smooth      PW
     Min          24      24      8                  478      478      96
     Max          25      25     10                  485      485      99
     Sum         199     199     73                 3851     3851     785
 
     Using Slab Decomposition
 


     bravais-lattice index     =            4
     lattice parameter (alat)  =       6.0849  a.u.
     unit-cell volume          =     318.1254 (a.u.)^3
     number of atoms/cell      =            4
     number of atomic types    =            2
     number of electrons       =        36.00
     number of Kohn-Sham states=           22
     kinetic-energy cutoff     =      20.0000  Ry
     charge density cutoff     =      80.0000  Ry
     scf convergence threshold =      1.0E-08
     mixing beta               =       0.7000
     number of iterations used =            8  plain     mixing
     Exchange-correlation= PBE
                           (   1   4   3   4   0   0   0)

     celldm(1)=   6.084918  celldm(2)=   0.000000  celldm(3)=   1.630435
     celldm(4)=   0.000000  celldm(5)=   0.000000  celldm(6)=   0.000000

     crystal axes: (cart. coord. in units of alat)
               a(1) = (   1.000000   0.000000   0.000000 )  
               a(2) = (  -0.500000   0.866025   0.000000 )  
               a(3) = (   0.000000   0.000000   1.630435 )  

     reciprocal axes: (cart. coord. in units 2 pi/alat)
               b(1) = (  1.000000  0.577350  0.000000 )  
               b(2) = (  0.000000  1.154701  0.000000 )  
               b(3) = (  0.000000  0.000000  0.613333 )  


     PseudoPot. # 1 for Ga read from file:
     /data-fast/greenano/Students/cohort2/rojassan/Project_GaN/PSEUDO/Ga.upf
     MD5 check sum: 2bb81bf6f0a8d9832cf3329850435ecf
     Pseudo is Norm-conserving + core correction, Zval = 13.0
     Generated using ONCVPSP code by D. R. Hamann
     Using radial grid of 1902 points,  6 beta functions with: 
                l(1) =   0
                l(2) =   0
                l(3) =   1
                l(4) =   1
                l(5) =   2
                l(6) =   2

     PseudoPot. # 2 for N  read from file:
     /data-fast/greenano/Students/cohort2/rojassan/Project_GaN/PSEUDO/N.upf
     MD5 check sum: d34365f73bb0e2ee98afc20ec3e87676
     Pseudo is Norm-conserving + core correction, Zval =  5.0
     Generated using ONCVPSP code by D. R. Hamann
     Using radial grid of 1058 points,  4 beta functions with: 
                l(1) =   0
                l(2) =   0
                l(3) =   1
                l(4) =   1

     atomic species   valence    mass     pseudopotential
     Ga               13.00    69.72300     Ga( 1.00)
     N                 5.00    14.00700     N ( 1.00)

     12 Sym. Ops. (no inversion) found ( 6 have fractional translation)


                                    s                        frac. trans.

      isym =  1     identity                                     

 cryst.   s( 1) = (     1          0          0      )
                  (     0          1          0      )
                  (     0          0          1      )

 cart.    s( 1) = (  1.0000000  0.0000000  0.0000000 )
                  (  0.0000000  1.0000000  0.0000000 )
                  (  0.0000000  0.0000000  1.0000000 )


      isym =  2     180 deg rotation - cart. axis [0,0,1]        

 cryst.   s( 2) = (    -1          0          0      )    f =(  0.0000000 )
                  (     0         -1          0      )       (  0.0000000 )
                  (     0          0          1      )       ( -0.5000000 )

 cart.    s( 2) = ( -1.0000000  0.0000000  0.0000000 )    f =(  0.0000000 )
                  (  0.0000000 -1.0000000  0.0000000 )       (  0.0000000 )
                  (  0.0000000  0.0000000  1.0000000 )       ( -0.8152174 )


      isym =  3      60 deg rotation - cryst. axis [0,0,1]       

 cryst.   s( 3) = (     1          1          0      )    f =(  0.0000000 )
                  (    -1          0          0      )       (  0.0000000 )
                  (     0          0          1      )       ( -0.5000000 )

 cart.    s( 3) = (  0.5000000 -0.8660254  0.0000000 )    f =(  0.0000000 )
                  (  0.8660254  0.5000000  0.0000000 )       (  0.0000000 )
                  (  0.0000000  0.0000000  1.0000000 )       ( -0.8152174 )


      isym =  4      60 deg rotation - cryst. axis [0,0,-1]      

 cryst.   s( 4) = (     0         -1          0      )    f =(  0.0000000 )
                  (     1          1          0      )       (  0.0000000 )
                  (     0          0          1      )       ( -0.5000000 )

 cart.    s( 4) = (  0.5000000  0.8660254  0.0000000 )    f =( -0.0000000 )
                  ( -0.8660254  0.5000000  0.0000000 )       (  0.0000000 )
                  (  0.0000000  0.0000000  1.0000000 )       ( -0.8152174 )


      isym =  5     120 deg rotation - cryst. axis [0,0,1]       

 cryst.   s( 5) = (     0          1          0      )
                  (    -1         -1          0      )
                  (     0          0          1      )

 cart.    s( 5) = ( -0.5000000 -0.8660254  0.0000000 )
                  (  0.8660254 -0.5000000  0.0000000 )
                  (  0.0000000  0.0000000  1.0000000 )


      isym =  6     120 deg rotation - cryst. axis [0,0,-1]      

 cryst.   s( 6) = (    -1         -1          0      )
                  (     1          0          0      )
                  (     0          0          1      )

 cart.    s( 6) = ( -0.5000000  0.8660254  0.0000000 )
                  ( -0.8660254 -0.5000000  0.0000000 )
                  (  0.0000000  0.0000000  1.0000000 )


      isym =  7     inv. 180 deg rotation - cart. axis [0,1,0]   

 cryst.   s( 7) = (     1          0          0      )    f =(  0.0000000 )
                  (    -1         -1          0      )       (  0.0000000 )
                  (     0          0          1      )       ( -0.5000000 )

 cart.    s( 7) = (  1.0000000  0.0000000  0.0000000 )    f =( -0.0000000 )
                  (  0.0000000 -1.0000000  0.0000000 )       (  0.0000000 )
                  (  0.0000000  0.0000000  1.0000000 )       ( -0.8152174 )


      isym =  8     inv. 180 deg rotation - cart. axis [1,0,0]   

 cryst.   s( 8) = (    -1          0          0      )
                  (     1          1          0      )
                  (     0          0          1      )

 cart.    s( 8) = ( -1.0000000  0.0000000  0.0000000 )
                  (  0.0000000  1.0000000  0.0000000 )
                  (  0.0000000  0.0000000  1.0000000 )


      isym =  9     inv. 180 deg rotation - cryst. axis [1,-1,0] 

 cryst.   s( 9) = (     0          1          0      )    f =(  0.0000000 )
                  (     1          0          0      )       (  0.0000000 )
                  (     0          0          1      )       ( -0.5000000 )

 cart.    s( 9) = ( -0.5000000  0.8660254  0.0000000 )    f =(  0.0000000 )
                  (  0.8660254  0.5000000  0.0000000 )       (  0.0000000 )
                  (  0.0000000  0.0000000  1.0000000 )       ( -0.8152174 )


      isym = 10     inv. 180 deg rotation - cryst. axis [2,1,0]  

 cryst.   s(10) = (    -1         -1          0      )    f =(  0.0000000 )
                  (     0          1          0      )       (  0.0000000 )
                  (     0          0          1      )       ( -0.5000000 )

 cart.    s(10) = ( -0.5000000 -0.8660254  0.0000000 )    f =(  0.0000000 )
                  ( -0.8660254  0.5000000  0.0000000 )       (  0.0000000 )
                  (  0.0000000  0.0000000  1.0000000 )       ( -0.8152174 )


      isym = 11     inv. 180 deg rotation - cryst. axis [0,1,0]  

 cryst.   s(11) = (     1          1          0      )
                  (     0         -1          0      )
                  (     0          0          1      )

 cart.    s(11) = (  0.5000000  0.8660254  0.0000000 )
                  (  0.8660254 -0.5000000  0.0000000 )
                  (  0.0000000  0.0000000  1.0000000 )


      isym = 12     inv. 180 deg rotation - cryst. axis [1,1,0]  

 cryst.   s(12) = (     0         -1          0      )
                  (    -1          0          0      )
                  (     0          0          1      )

 cart.    s(12) = (  0.5000000 -0.8660254  0.0000000 )
                  ( -0.8660254 -0.5000000  0.0000000 )
                  (  0.0000000  0.0000000  1.0000000 )


     point group C_6v (6mm) 
     there are  6 classes
     the character table:

       E     2C6   2C3   C2    3s_v  3s_d 
A_1    1.00  1.00  1.00  1.00  1.00  1.00
A_2    1.00  1.00  1.00  1.00 -1.00 -1.00
B_1    1.00 -1.00  1.00 -1.00  1.00 -1.00
B_2    1.00 -1.00  1.00 -1.00 -1.00  1.00
E_1    2.00  1.00 -1.00 -2.00  0.00  0.00
E_2    2.00 -1.00 -1.00  2.00  0.00  0.00

     the symmetry operations in each class and the name of the first element:

     E        1
          identity                                               
     2C6      3    4
           60 deg rotation - cryst. axis [0,0,1]                 
     2C3      5    6
          120 deg rotation - cryst. axis [0,0,1]                 
     C2       2
          180 deg rotation - cart. axis [0,0,1]                  
     3s_v     8   12   11
          inv. 180 deg rotation - cart. axis [1,0,0]             
     3s_d     7    9   10
          inv. 180 deg rotation - cart. axis [0,1,0]             

   Cartesian axes

     site n.     atom                  positions (alat units)
         1        Ga     tau(   1) = (   0.0000000   0.5773503   0.0000000  )
         2        Ga     tau(   2) = (   0.5000000   0.2886751   0.8152174  )
         3        N      tau(   3) = (   0.0000000   0.5773503   0.6136663  )
         4        N      tau(   4) = (   0.5000000   0.2886751   1.4288837  )

   Crystallographic axes

     site n.     atom                  positions (cryst. coord.)
         1        Ga     tau(   1) = (  0.3333333  0.6666667  0.0000000  )
         2        Ga     tau(   2) = (  0.6666667  0.3333333  0.5000000  )
         3        N      tau(   3) = (  0.3333333  0.6666667  0.3763820  )
         4        N      tau(   4) = (  0.6666667  0.3333333  0.8763820  )

     number of k points=    12
                       cart. coord. in units 2pi/alat
        k(    1) = (   0.1250000   0.2165064   0.1022222), wk =   0.1666667
        k(    2) = (   0.1250000   0.2165064  -0.3066667), wk =   0.0833333
        k(    3) = (   0.1250000   0.5051815   0.1022222), wk =   0.3333333
        k(    4) = (   0.1250000   0.5051815  -0.3066667), wk =   0.1666667
        k(    5) = (   0.1250000  -0.3608439   0.1022222), wk =   0.3333333
        k(    6) = (   0.1250000  -0.3608439  -0.3066667), wk =   0.1666667
        k(    7) = (   0.1250000  -0.0721688   0.1022222), wk =   0.1666667
        k(    8) = (   0.1250000  -0.0721688  -0.3066667), wk =   0.0833333
        k(    9) = (   0.3750000   0.6495191   0.1022222), wk =   0.1666667
        k(   10) = (   0.3750000   0.6495191  -0.3066667), wk =   0.0833333
        k(   11) = (   0.3750000  -0.2165064   0.1022222), wk =   0.1666667
        k(   12) = (   0.3750000  -0.2165064  -0.3066667), wk =   0.0833333

                       cryst. coord.
        k(    1) = (   0.1250000   0.1250000   0.1666667), wk =   0.1666667
        k(    2) = (   0.1250000   0.1250000  -0.5000000), wk =   0.0833333
        k(    3) = (   0.1250000   0.3750000   0.1666667), wk =   0.3333333
        k(    4) = (   0.1250000   0.3750000  -0.5000000), wk =   0.1666667
        k(    5) = (   0.1250000  -0.3750000   0.1666667), wk =   0.3333333
        k(    6) = (   0.1250000  -0.3750000  -0.5000000), wk =   0.1666667
        k(    7) = (   0.1250000  -0.1250000   0.1666667), wk =   0.1666667
        k(    8) = (   0.1250000  -0.1250000  -0.5000000), wk =   0.0833333
        k(    9) = (   0.3750000   0.3750000   0.1666667), wk =   0.1666667
        k(   10) = (   0.3750000   0.3750000  -0.5000000), wk =   0.0833333
        k(   11) = (   0.3750000  -0.3750000   0.1666667), wk =   0.1666667
        k(   12) = (   0.3750000  -0.3750000  -0.5000000), wk =   0.0833333

     Dense  grid:     3851 G-vectors     FFT dimensions: (  18,  18,  30)

     Dynamical RAM for                 wfc:       0.02 MB

     Dynamical RAM for     wfc (w. buffer):       0.26 MB

     Dynamical RAM for           str. fact:       0.01 MB

     Dynamical RAM for           local pot:       0.00 MB

     Dynamical RAM for          nlocal pot:       0.05 MB

     Dynamical RAM for                qrad:       1.44 MB

     Dynamical RAM for          rho,v,vnew:       0.05 MB

     Dynamical RAM for               rhoin:       0.02 MB

     Dynamical RAM for            rho*nmix:       0.12 MB

     Dynamical RAM for           G-vectors:       0.03 MB

     Dynamical RAM for          h,s,v(r/c):       0.09 MB

     Dynamical RAM for          <psi|beta>:       0.02 MB

     Dynamical RAM for                 psi:       0.04 MB

     Dynamical RAM for                hpsi:       0.04 MB

     Dynamical RAM for      wfcinit/wfcrot:       0.06 MB

     Estimated static dynamical RAM per process >       1.94 MB

     Estimated max dynamical RAM per process >       2.24 MB

     Estimated total dynamical RAM >      17.92 MB

     Check: negative core charge=   -0.001160

     Initial potential from superposition of free atoms

     starting charge      35.9946, renormalised to      36.0000

     negative rho (up, down):  5.053E-02 0.000E+00
     Starting wfcs are   26 randomized atomic wfcs

     total cpu time spent up to now is        0.2 secs

     Self-consistent Calculation

     iteration #  1     ecut=    20.00 Ry     beta= 0.70
     Davidson diagonalization with overlap

---- Real-time Memory Report at c_bands before calling an iterative solver
           107 MiB given to the printing process from OS
             0 MiB allocation reported by mallinfo(arena+hblkhd)
         33030 MiB available memory on the node where the printing process lives
------------------
     ethr =  1.00E-02,  avg # of iterations =  5.9

     negative rho (up, down):  1.514E-02 0.000E+00

     total cpu time spent up to now is        0.3 secs

     total energy              =    -281.63008581 Ry
     estimated scf accuracy    <      46.42655689 Ry

     iteration #  2     ecut=    20.00 Ry     beta= 0.70
     Davidson diagonalization with overlap

---- Real-time Memory Report at c_bands before calling an iterative solver
           111 MiB given to the printing process from OS
             0 MiB allocation reported by mallinfo(arena+hblkhd)
         33024 MiB available memory on the node where the printing process lives
------------------
     ethr =  1.00E-02,  avg # of iterations =  3.6

     negative rho (up, down):  8.650E-03 0.000E+00

     total cpu time spent up to now is        0.5 secs

     total energy              =    -296.16450669 Ry
     estimated scf accuracy    <      29.84602328 Ry

     iteration #  3     ecut=    20.00 Ry     beta= 0.70
     Davidson diagonalization with overlap

---- Real-time Memory Report at c_bands before calling an iterative solver
           111 MiB given to the printing process from OS
             0 MiB allocation reported by mallinfo(arena+hblkhd)
         33024 MiB available memory on the node where the printing process lives
------------------
     ethr =  1.00E-02,  avg # of iterations =  5.0

     negative rho (up, down):  3.631E-03 0.000E+00

     total cpu time spent up to now is        0.6 secs

     total energy              =    -301.48699273 Ry
     estimated scf accuracy    <       1.45423631 Ry

     iteration #  4     ecut=    20.00 Ry     beta= 0.70
     Davidson diagonalization with overlap

---- Real-time Memory Report at c_bands before calling an iterative solver
           111 MiB given to the printing process from OS
             0 MiB allocation reported by mallinfo(arena+hblkhd)
         33023 MiB available memory on the node where the printing process lives
------------------
     ethr =  4.04E-03,  avg # of iterations =  2.0

     total cpu time spent up to now is        0.6 secs

     total energy              =    -301.62466512 Ry
     estimated scf accuracy    <       0.17790951 Ry

     iteration #  5     ecut=    20.00 Ry     beta= 0.70
     Davidson diagonalization with overlap

---- Real-time Memory Report at c_bands before calling an iterative solver
           111 MiB given to the printing process from OS
             0 MiB allocation reported by mallinfo(arena+hblkhd)
         33023 MiB available memory on the node where the printing process lives
------------------
     ethr =  4.94E-04,  avg # of iterations =  2.6

     total cpu time spent up to now is        0.7 secs

     total energy              =    -301.64840995 Ry
     estimated scf accuracy    <       0.00514878 Ry

     iteration #  6     ecut=    20.00 Ry     beta= 0.70
     Davidson diagonalization with overlap

---- Real-time Memory Report at c_bands before calling an iterative solver
           111 MiB given to the printing process from OS
             0 MiB allocation reported by mallinfo(arena+hblkhd)
         33023 MiB available memory on the node where the printing process lives
------------------
     ethr =  1.43E-05,  avg # of iterations =  3.8

     total cpu time spent up to now is        0.8 secs

     total energy              =    -301.64971642 Ry
     estimated scf accuracy    <       0.00050216 Ry

     iteration #  7     ecut=    20.00 Ry     beta= 0.70
     Davidson diagonalization with overlap

---- Real-time Memory Report at c_bands before calling an iterative solver
           112 MiB given to the printing process from OS
             0 MiB allocation reported by mallinfo(arena+hblkhd)
         33022 MiB available memory on the node where the printing process lives
------------------
     ethr =  1.39E-06,  avg # of iterations =  3.9

     total cpu time spent up to now is        0.8 secs

     total energy              =    -301.64977938 Ry
     estimated scf accuracy    <       0.00003285 Ry

     iteration #  8     ecut=    20.00 Ry     beta= 0.70
     Davidson diagonalization with overlap

---- Real-time Memory Report at c_bands before calling an iterative solver
           112 MiB given to the printing process from OS
             0 MiB allocation reported by mallinfo(arena+hblkhd)
         33021 MiB available memory on the node where the printing process lives
------------------
     ethr =  9.12E-08,  avg # of iterations =  2.3

     total cpu time spent up to now is        0.9 secs

     total energy              =    -301.64978575 Ry
     estimated scf accuracy    <       0.00000261 Ry

     iteration #  9     ecut=    20.00 Ry     beta= 0.70
     Davidson diagonalization with overlap

---- Real-time Memory Report at c_bands before calling an iterative solver
           112 MiB given to the printing process from OS
             0 MiB allocation reported by mallinfo(arena+hblkhd)
         33021 MiB available memory on the node where the printing process lives
------------------
     ethr =  7.25E-09,  avg # of iterations =  1.8

     total cpu time spent up to now is        1.0 secs

     total energy              =    -301.64978594 Ry
     estimated scf accuracy    <       0.00000022 Ry

     iteration # 10     ecut=    20.00 Ry     beta= 0.70
     Davidson diagonalization with overlap

---- Real-time Memory Report at c_bands before calling an iterative solver
           112 MiB given to the printing process from OS
             0 MiB allocation reported by mallinfo(arena+hblkhd)
         33021 MiB available memory on the node where the printing process lives
------------------
     ethr =  6.06E-10,  avg # of iterations =  2.2

     total cpu time spent up to now is        1.0 secs

     total energy              =    -301.64978600 Ry
     estimated scf accuracy    <       0.00000001 Ry

     iteration # 11     ecut=    20.00 Ry     beta= 0.70
     Davidson diagonalization with overlap

---- Real-time Memory Report at c_bands before calling an iterative solver
           112 MiB given to the printing process from OS
             0 MiB allocation reported by mallinfo(arena+hblkhd)
         33021 MiB available memory on the node where the printing process lives
------------------
     ethr =  3.94E-11,  avg # of iterations =  2.0

     total cpu time spent up to now is        1.1 secs

     End of self-consistent calculation

          k = 0.1250 0.2165 0.1022 (   479 PWs)   bands (ev):

    -6.1667  -5.1829   0.8730   0.9319   1.4068   1.5003   1.9029   2.3555
     2.8974   3.2949   3.6112   4.0145   4.7241   7.8914   8.2251   9.3163
    10.8838  11.0789  13.3197  14.6536  17.6562  18.6749

     occupation numbers 
     1.0000   1.0000   1.0000   1.0000   1.0000   1.0000   1.0000   1.0000
     1.0000   1.0000   1.0000   1.0000   1.0000   1.0000   1.0000   1.0000
     1.0000   1.0000   0.0000   0.0000   0.0000   0.0000

          k = 0.1250 0.2165-0.3067 (   484 PWs)   bands (ev):

    -5.6788  -5.6788   0.4865   0.4865   1.0825   1.0825   2.0765   2.0765
     2.3110   2.3110   3.5493   3.5493   6.4368   6.4368   9.2640   9.2640
    10.0349  10.0349  14.3643  14.3643  17.6278  17.6278

     occupation numbers 
     1.0000   1.0000   1.0000   1.0000   1.0000   1.0000   1.0000   1.0000
     1.0000   1.0000   1.0000   1.0000   1.0000   1.0000   1.0000   1.0000
     1.0000   1.0000   0.0000   0.0000   0.0000   0.0000

          k = 0.1250 0.5052 0.1022 (   476 PWs)   bands (ev):

    -5.2986  -4.8532   0.9631   1.2955   1.5136   2.1429   2.5138   2.8477
     2.9087   3.2315   3.6194   3.8008   4.0003   5.0505   7.0345   8.0041
     9.3117   9.8395  14.4281  15.5948  18.2637  18.5125

     occupation numbers 
     1.0000   1.0000   1.0000   1.0000   1.0000   1.0000   1.0000   1.0000
     1.0000   1.0000   1.0000   1.0000   1.0000   1.0000   1.0000   1.0000
     1.0000   1.0000   0.0000   0.0000   0.0000   0.0000

          k = 0.1250 0.5052-0.3067 (   486 PWs)   bands (ev):

    -5.1371  -5.1371   0.1750   0.1750   1.6391   1.6391   2.0497   2.0497
     2.6431   2.6431   3.2411   3.2411   3.7480   3.7480   8.3868   8.3868
     9.1713   9.1713  14.4659  14.4659  17.9556  17.9556

     occupation numbers 
     1.0000   1.0000   1.0000   1.0000   1.0000   1.0000   1.0000   1.0000
     1.0000   1.0000   1.0000   1.0000   1.0000   1.0000   1.0000   1.0000
     1.0000   1.0000   0.0000   0.0000   0.0000   0.0000

          k = 0.1250-0.3608 0.1022 (   481 PWs)   bands (ev):

    -5.7175  -4.9852   0.7177   1.0370   1.3847   1.5869   1.9725   2.3382
     2.5990   2.8389   3.2352   3.9929   4.5384   6.0666   7.0877   8.3752
    10.1454  10.3336  13.9079  15.4371  17.9068  18.5738

     occupation numbers 
     1.0000   1.0000   1.0000   1.0000   1.0000   1.0000   1.0000   1.0000
     1.0000   1.0000   1.0000   1.0000   1.0000   1.0000   1.0000   1.0000
     1.0000   1.0000   0.0000   0.0000   0.0000   0.0000

          k = 0.1250-0.3608-0.3067 (   480 PWs)   bands (ev):

    -5.3373  -5.3373   0.6491   0.6491   1.4618   1.4618   2.2805   2.2805
     2.7684   2.7684   3.7569   3.7569   5.4129   5.4129   8.8834   8.8834
     9.4185   9.4185  14.6543  14.6543  17.8373  17.8373

     occupation numbers 
     1.0000   1.0000   1.0000   1.0000   1.0000   1.0000   1.0000   1.0000
     1.0000   1.0000   1.0000   1.0000   1.0000   1.0000   1.0000   1.0000
     1.0000   1.0000   0.0000   0.0000   0.0000   0.0000

          k = 0.1250-0.0722 0.1022 (   485 PWs)   bands (ev):

    -6.4512  -5.2941   0.2004   0.5270   1.0939   1.4602   1.7043   2.1896
     2.7005   2.7938   3.7966   3.9651   4.3625   8.5851   9.0577   9.9118
    11.2867  11.3576  12.7997  13.5756  17.7251  18.5801

     occupation numbers 
     1.0000   1.0000   1.0000   1.0000   1.0000   1.0000   1.0000   1.0000
     1.0000   1.0000   1.0000   1.0000   1.0000   1.0000   1.0000   1.0000
     1.0000   1.0000   0.0000   0.0000   0.0000   0.0000

          k = 0.1250-0.0722-0.3067 (   488 PWs)   bands (ev):

    -5.9044  -5.9044   0.1630   0.1630   0.9205   0.9205   1.2016   1.2016
     2.7060   2.7060   3.6608   3.6608   6.6013   6.6013   9.7709   9.7709
    10.5719  10.5719  13.5775  13.5775  17.9082  17.9082

     occupation numbers 
     1.0000   1.0000   1.0000   1.0000   1.0000   1.0000   1.0000   1.0000
     1.0000   1.0000   1.0000   1.0000   1.0000   1.0000   1.0000   1.0000
     1.0000   1.0000   0.0000   0.0000   0.0000   0.0000

          k = 0.3750 0.6495 0.1022 (   477 PWs)   bands (ev):

    -5.0303  -4.8610   1.3693   1.5872   1.6937   2.1372   2.2197   2.6286
     2.6417   2.9564   3.2603   3.3242   4.4299   5.0007   6.2375   8.2659
     8.5205   9.0979  15.4475  16.1538  18.4148  19.1197

     occupation numbers 
     1.0000   1.0000   1.0000   1.0000   1.0000   1.0000   1.0000   1.0000
     1.0000   1.0000   1.0000   1.0000   1.0000   1.0000   1.0000   1.0000
     1.0000   1.0000   0.0000   0.0000   0.0000   0.0000

          k = 0.3750 0.6495-0.3067 (   476 PWs)   bands (ev):

    -4.9215  -4.9215   1.1866   1.1866   2.2447   2.2447   2.4917   2.4917
     2.7964   2.7964   3.4484   3.4484   4.3753   4.3753   7.5090   7.5090
     9.6082   9.6082  15.0524  15.0524  18.8239  18.8239

     occupation numbers 
     1.0000   1.0000   1.0000   1.0000   1.0000   1.0000   1.0000   1.0000
     1.0000   1.0000   1.0000   1.0000   1.0000   1.0000   1.0000   1.0000
     1.0000   1.0000   0.0000   0.0000   0.0000   0.0000

          k = 0.3750-0.2165 0.1022 (   474 PWs)   bands (ev):

    -5.5378  -4.8989   1.0956   1.3065   1.5789   2.0626   2.2766   2.7800
     3.2052   3.2197   3.6995   4.3078   4.7043   5.5755   6.9398   8.7533
     9.9028  10.4129  13.6668  15.0255  17.9989  18.3777

     occupation numbers 
     1.0000   1.0000   1.0000   1.0000   1.0000   1.0000   1.0000   1.0000
     1.0000   1.0000   1.0000   1.0000   1.0000   1.0000   1.0000   1.0000
     1.0000   1.0000   0.0000   0.0000   0.0000   0.0000

          k = 0.3750-0.2165-0.3067 (   484 PWs)   bands (ev):

    -5.2480  -5.2480   0.4486   0.4486   1.5568   1.5568   2.0226   2.0226
     2.9640   2.9640   3.3553   3.3553   4.2761   4.2761   8.9028   8.9028
     9.3622   9.3622  14.1346  14.1346  17.7270  17.7270

     occupation numbers 
     1.0000   1.0000   1.0000   1.0000   1.0000   1.0000   1.0000   1.0000
     1.0000   1.0000   1.0000   1.0000   1.0000   1.0000   1.0000   1.0000
     1.0000   1.0000   0.0000   0.0000   0.0000   0.0000

     highest occupied, lowest unoccupied level (ev):    11.3576   12.7997

!    total energy              =    -301.64978600 Ry
     estimated scf accuracy    <          1.0E-10 Ry

     The total energy is the sum of the following terms:
     one-electron contribution =     -38.59617738 Ry
     hartree contribution      =      51.43671009 Ry
     xc contribution           =     -83.66565677 Ry
     ewald contribution        =    -230.82466195 Ry

     convergence has been achieved in  11 iterations

     Forces acting on atoms (cartesian axes, Ry/au):

     atom    1 type  1   force =     0.00000000    0.00000000    0.00158553
     atom    2 type  1   force =     0.00000000    0.00000000    0.00158553
     atom    3 type  2   force =     0.00000000    0.00000000   -0.00158553
     atom    4 type  2   force =     0.00000000    0.00000000   -0.00158553
     The non-local contrib.  to forces
     atom    1 type  1   force =     0.00000000    0.00000000   -0.01172504
     atom    2 type  1   force =     0.00000000   -0.00000000   -0.01172504
     atom    3 type  2   force =     0.00000000    0.00000000    0.00042397
     atom    4 type  2   force =     0.00000000    0.00000000    0.00042397
     The ionic contribution  to forces
     atom    1 type  1   force =    -0.00000002    0.00000001    0.15748048
     atom    2 type  1   force =     0.00000002   -0.00000001    0.15748048
     atom    3 type  2   force =    -0.00000001    0.00000001   -0.15748048
     atom    4 type  2   force =     0.00000001   -0.00000001   -0.15748048
     The local contribution  to forces
     atom    1 type  1   force =    -0.00000000    0.00000009   -0.14937116
     atom    2 type  1   force =     0.00000016    0.00000000   -0.14937112
     atom    3 type  2   force =    -0.00000000    0.00000002    0.15911260
     atom    4 type  2   force =     0.00000003    0.00000000    0.15911255
     The core correction contribution to forces
     atom    1 type  1   force =    -0.00000000   -0.00000001    0.00395850
     atom    2 type  1   force =    -0.00000002   -0.00000000    0.00395850
     atom    3 type  2   force =     0.00000000   -0.00000000   -0.00483171
     atom    4 type  2   force =    -0.00000000   -0.00000000   -0.00483171
     The Hubbard contrib.    to forces
     atom    1 type  1   force =     0.00000000    0.00000000    0.00000000
     atom    2 type  1   force =     0.00000000    0.00000000    0.00000000
     atom    3 type  2   force =     0.00000000    0.00000000    0.00000000
     atom    4 type  2   force =     0.00000000    0.00000000    0.00000000
     The SCF correction term to forces
     atom    1 type  1   force =     0.00000000    0.00000000    0.00000000
     atom    2 type  1   force =     0.00000000    0.00000000    0.00000000
     atom    3 type  2   force =     0.00000000    0.00000000   -0.00000239
     atom    4 type  2   force =     0.00000000    0.00000000   -0.00000239

     Total force =     0.002242     Total SCF correction =     0.000003


     Computing stress (Cartesian axis) and pressure

          total   stress  (Ry/bohr**3)                   (kbar)     P=   -22208.76
  -0.15112834   0.00000000   0.00000000       -22231.75        0.00        0.00
   0.00000000  -0.15112834   0.00000000            0.00   -22231.75        0.00
   0.00000000   0.00000000  -0.15065956            0.00        0.00   -22162.79

     kinetic stress (kbar)  52008.85      0.00      0.00
                                0.00  52008.85      0.00
                                0.00     -0.00  52123.85

     local   stress (kbar)  -5102.14      0.00      0.00
                                0.00  -5102.14      0.00
                                0.00      0.00  -6788.49

     nonloc. stress (kbar) -32815.78      0.00      0.00
                                0.00 -32815.78      0.00
                                0.00      0.00 -32837.59

     hartree stress (kbar)   7693.72     -0.00     -0.00
                               -0.00   7693.72     -0.00
                               -0.00     -0.00   8397.52

     exc-cor stress (kbar)  12509.86      0.00     -0.00
                                0.00  12509.86     -0.00
                               -0.00     -0.00  12508.13

     corecor stress (kbar) -20627.91     -0.00      0.00
                               -0.00 -20627.91      0.00
                                0.00      0.00 -20626.75

     ewald   stress (kbar) -35898.35     -0.00     -0.00
                               -0.00 -35898.35     -0.00
                               -0.00     -0.00 -34939.46

     hubbard stress (kbar)      0.00      0.00      0.00
                                0.00      0.00      0.00
                                0.00      0.00      0.00

     DFT-D   stress (kbar)      0.00      0.00      0.00
                                0.00      0.00      0.00
                                0.00      0.00      0.00

     XDM     stress (kbar)      0.00      0.00      0.00
                                0.00      0.00      0.00
                                0.00      0.00      0.00

     dft-nl  stress (kbar)      0.00      0.00      0.00
                                0.00      0.00      0.00
                                0.00      0.00      0.00

     TS-vdW  stress (kbar)      0.00      0.00      0.00
                                0.00      0.00      0.00
                                0.00      0.00      0.00

     MDB     stress (kbar)      0.00      0.00      0.00
                                0.00      0.00      0.00
                                0.00      0.00      0.00

     3D-RISM stress (kbar)      0.00      0.00      0.00
                                0.00      0.00      0.00
                                0.00      0.00      0.00


     Writing all to output data dir ./tmp/GaN.save/ :
     XML data file, charge density, pseudopotentials, collected wavefunctions
 
     init_run     :      0.07s CPU      0.08s WALL (       1 calls)
     electrons    :      0.87s CPU      0.93s WALL (       1 calls)
     forces       :      0.01s CPU      0.01s WALL (       1 calls)
     stress       :      0.04s CPU      0.04s WALL (       1 calls)

     Called by init_run:
     wfcinit      :      0.03s CPU      0.03s WALL (       1 calls)
     wfcinit:atom :      0.00s CPU      0.00s WALL (      12 calls)
     wfcinit:wfcr :      0.02s CPU      0.03s WALL (      12 calls)
     potinit      :      0.02s CPU      0.02s WALL (       1 calls)
     hinit0       :      0.02s CPU      0.02s WALL (       1 calls)

     Called by electrons:
     c_bands      :      0.76s CPU      0.80s WALL (      11 calls)
     sum_band     :      0.08s CPU      0.09s WALL (      11 calls)
     v_of_rho     :      0.01s CPU      0.01s WALL (      12 calls)
     v_h          :      0.00s CPU      0.00s WALL (      12 calls)
     v_xc         :      0.01s CPU      0.01s WALL (      14 calls)
     mix_rho      :      0.00s CPU      0.00s WALL (      11 calls)

     Called by c_bands:
     init_us_2    :      0.01s CPU      0.01s WALL (     300 calls)
     cegterg      :      0.73s CPU      0.77s WALL (     132 calls)

     Called by sum_band:
     sum_band:wei :      0.00s CPU      0.00s WALL (      11 calls)
     sum_band:loo :      0.08s CPU      0.08s WALL (      11 calls)
     sum_band:buf :      0.00s CPU      0.00s WALL (     132 calls)
     sum_band:ini :      0.00s CPU      0.00s WALL (     132 calls)

     Called by *egterg:
     cdiaghg      :      0.24s CPU      0.25s WALL (     555 calls)
     cegterg:over :      0.02s CPU      0.02s WALL (     423 calls)
     cegterg:upda :      0.01s CPU      0.01s WALL (     423 calls)
     cegterg:last :      0.01s CPU      0.01s WALL (     318 calls)
     h_psi        :      0.44s CPU      0.47s WALL (     567 calls)
     g_psi        :      0.00s CPU      0.00s WALL (     423 calls)

     Called by h_psi:
     h_psi:calbec :      0.02s CPU      0.02s WALL (     567 calls)
     vloc_psi     :      0.41s CPU      0.43s WALL (     567 calls)
     add_vuspsi   :      0.01s CPU      0.01s WALL (     567 calls)

     General routines
     calbec       :      0.02s CPU      0.02s WALL (     627 calls)
     fft          :      0.02s CPU      0.02s WALL (     144 calls)
     ffts         :      0.00s CPU      0.00s WALL (      11 calls)
     fftw         :      0.41s CPU      0.43s WALL (   19926 calls)
 
     Parallel routines
 
     PWSCF        :      1.06s CPU      1.35s WALL

 
   This run was terminated on:   0:41:18   1Aug2026            

=------------------------------------------------------------------------------=
   JOB DONE.
=------------------------------------------------------------------------------=
