
     Program PWSCF v.7.3.1 starts on  1Aug2026 at  0:41:38 

     This program is part of the open-source Quantum ESPRESSO suite
     for quantum simulation of materials; please cite
         "P. Giannozzi et al., J. Phys.:Condens. Matter 21 395502 (2009);
         "P. Giannozzi et al., J. Phys.:Condens. Matter 29 465901 (2017);
         "P. Giannozzi et al., J. Chem. Phys. 152 154105 (2020);
          URL http://www.quantum-espresso.org", 
     in publications or presentations arising from this work. More details at
     http://www.quantum-espresso.org/quote

     Parallel version (MPI & OpenMP), running on       8 processor cores
     Number of MPI processes:                 8
     Threads/MPI process:                     1

     MPI processes distributed on     1 nodes
     33122 MiB available memory on the printing compute node when the environment starts
 
     Waiting for input...
     Reading input from standard input

     Current dimensions of program PWSCF are:
     Max number of different atomic species (ntypx) = 10
     Max number of k-points (npk) =  40000
     Max angular momentum in pseudopotentials (lmaxx) =  4
 
     R & G space division:  proc/nbgrp/npool/nimage =       8
     Subspace diagonalization in iterative solution of the eigenvalue problem:
     a serial algorithm will be used

 
     Parallelization info
     --------------------
     sticks:   dense  smooth     PW     G-vecs:    dense   smooth      PW
     Min         115     115     32                 4589     4589     730
     Max         116     116     34                 4594     4594     735
     Sum         925     925    265                36731    36731    5865
 
     Using Slab Decomposition
 


     bravais-lattice index     =            4
     lattice parameter (alat)  =       6.0849  a.u.
     unit-cell volume          =     318.1254 (a.u.)^3
     number of atoms/cell      =            4
     number of atomic types    =            2
     number of electrons       =        36.00
     number of Kohn-Sham states=           22
     kinetic-energy cutoff     =      90.0000  Ry
     charge density cutoff     =     360.0000  Ry
     scf convergence threshold =      1.0E-08
     mixing beta               =       0.7000
     number of iterations used =            8  plain     mixing
     Exchange-correlation= PBE
                           (   1   4   3   4   0   0   0)

     celldm(1)=   6.084918  celldm(2)=   0.000000  celldm(3)=   1.630435
     celldm(4)=   0.000000  celldm(5)=   0.000000  celldm(6)=   0.000000

     crystal axes: (cart. coord. in units of alat)
               a(1) = (   1.000000   0.000000   0.000000 )  
               a(2) = (  -0.500000   0.866025   0.000000 )  
               a(3) = (   0.000000   0.000000   1.630435 )  

     reciprocal axes: (cart. coord. in units 2 pi/alat)
               b(1) = (  1.000000  0.577350  0.000000 )  
               b(2) = (  0.000000  1.154701  0.000000 )  
               b(3) = (  0.000000  0.000000  0.613333 )  


     PseudoPot. # 1 for Ga read from file:
     /data-fast/greenano/Students/cohort2/rojassan/Project_GaN/PSEUDO/Ga.upf
     MD5 check sum: 2bb81bf6f0a8d9832cf3329850435ecf
     Pseudo is Norm-conserving + core correction, Zval = 13.0
     Generated using ONCVPSP code by D. R. Hamann
     Using radial grid of 1902 points,  6 beta functions with: 
                l(1) =   0
                l(2) =   0
                l(3) =   1
                l(4) =   1
                l(5) =   2
                l(6) =   2

     PseudoPot. # 2 for N  read from file:
     /data-fast/greenano/Students/cohort2/rojassan/Project_GaN/PSEUDO/N.upf
     MD5 check sum: d34365f73bb0e2ee98afc20ec3e87676
     Pseudo is Norm-conserving + core correction, Zval =  5.0
     Generated using ONCVPSP code by D. R. Hamann
     Using radial grid of 1058 points,  4 beta functions with: 
                l(1) =   0
                l(2) =   0
                l(3) =   1
                l(4) =   1

     atomic species   valence    mass     pseudopotential
     Ga               13.00    69.72300     Ga( 1.00)
     N                 5.00    14.00700     N ( 1.00)

     12 Sym. Ops. (no inversion) found ( 6 have fractional translation)


                                    s                        frac. trans.

      isym =  1     identity                                     

 cryst.   s( 1) = (     1          0          0      )
                  (     0          1          0      )
                  (     0          0          1      )

 cart.    s( 1) = (  1.0000000  0.0000000  0.0000000 )
                  (  0.0000000  1.0000000  0.0000000 )
                  (  0.0000000  0.0000000  1.0000000 )


      isym =  2     180 deg rotation - cart. axis [0,0,1]        

 cryst.   s( 2) = (    -1          0          0      )    f =(  0.0000000 )
                  (     0         -1          0      )       (  0.0000000 )
                  (     0          0          1      )       ( -0.5000000 )

 cart.    s( 2) = ( -1.0000000  0.0000000  0.0000000 )    f =(  0.0000000 )
                  (  0.0000000 -1.0000000  0.0000000 )       (  0.0000000 )
                  (  0.0000000  0.0000000  1.0000000 )       ( -0.8152174 )


      isym =  3      60 deg rotation - cryst. axis [0,0,1]       

 cryst.   s( 3) = (     1          1          0      )    f =(  0.0000000 )
                  (    -1          0          0      )       (  0.0000000 )
                  (     0          0          1      )       ( -0.5000000 )

 cart.    s( 3) = (  0.5000000 -0.8660254  0.0000000 )    f =(  0.0000000 )
                  (  0.8660254  0.5000000  0.0000000 )       (  0.0000000 )
                  (  0.0000000  0.0000000  1.0000000 )       ( -0.8152174 )


      isym =  4      60 deg rotation - cryst. axis [0,0,-1]      

 cryst.   s( 4) = (     0         -1          0      )    f =(  0.0000000 )
                  (     1          1          0      )       (  0.0000000 )
                  (     0          0          1      )       ( -0.5000000 )

 cart.    s( 4) = (  0.5000000  0.8660254  0.0000000 )    f =( -0.0000000 )
                  ( -0.8660254  0.5000000  0.0000000 )       (  0.0000000 )
                  (  0.0000000  0.0000000  1.0000000 )       ( -0.8152174 )


      isym =  5     120 deg rotation - cryst. axis [0,0,1]       

 cryst.   s( 5) = (     0          1          0      )
                  (    -1         -1          0      )
                  (     0          0          1      )

 cart.    s( 5) = ( -0.5000000 -0.8660254  0.0000000 )
                  (  0.8660254 -0.5000000  0.0000000 )
                  (  0.0000000  0.0000000  1.0000000 )


      isym =  6     120 deg rotation - cryst. axis [0,0,-1]      

 cryst.   s( 6) = (    -1         -1          0      )
                  (     1          0          0      )
                  (     0          0          1      )

 cart.    s( 6) = ( -0.5000000  0.8660254  0.0000000 )
                  ( -0.8660254 -0.5000000  0.0000000 )
                  (  0.0000000  0.0000000  1.0000000 )


      isym =  7     inv. 180 deg rotation - cart. axis [0,1,0]   

 cryst.   s( 7) = (     1          0          0      )    f =(  0.0000000 )
                  (    -1         -1          0      )       (  0.0000000 )
                  (     0          0          1      )       ( -0.5000000 )

 cart.    s( 7) = (  1.0000000  0.0000000  0.0000000 )    f =( -0.0000000 )
                  (  0.0000000 -1.0000000  0.0000000 )       (  0.0000000 )
                  (  0.0000000  0.0000000  1.0000000 )       ( -0.8152174 )


      isym =  8     inv. 180 deg rotation - cart. axis [1,0,0]   

 cryst.   s( 8) = (    -1          0          0      )
                  (     1          1          0      )
                  (     0          0          1      )

 cart.    s( 8) = ( -1.0000000  0.0000000  0.0000000 )
                  (  0.0000000  1.0000000  0.0000000 )
                  (  0.0000000  0.0000000  1.0000000 )


      isym =  9     inv. 180 deg rotation - cryst. axis [1,-1,0] 

 cryst.   s( 9) = (     0          1          0      )    f =(  0.0000000 )
                  (     1          0          0      )       (  0.0000000 )
                  (     0          0          1      )       ( -0.5000000 )

 cart.    s( 9) = ( -0.5000000  0.8660254  0.0000000 )    f =(  0.0000000 )
                  (  0.8660254  0.5000000  0.0000000 )       (  0.0000000 )
                  (  0.0000000  0.0000000  1.0000000 )       ( -0.8152174 )


      isym = 10     inv. 180 deg rotation - cryst. axis [2,1,0]  

 cryst.   s(10) = (    -1         -1          0      )    f =(  0.0000000 )
                  (     0          1          0      )       (  0.0000000 )
                  (     0          0          1      )       ( -0.5000000 )

 cart.    s(10) = ( -0.5000000 -0.8660254  0.0000000 )    f =(  0.0000000 )
                  ( -0.8660254  0.5000000  0.0000000 )       (  0.0000000 )
                  (  0.0000000  0.0000000  1.0000000 )       ( -0.8152174 )


      isym = 11     inv. 180 deg rotation - cryst. axis [0,1,0]  

 cryst.   s(11) = (     1          1          0      )
                  (     0         -1          0      )
                  (     0          0          1      )

 cart.    s(11) = (  0.5000000  0.8660254  0.0000000 )
                  (  0.8660254 -0.5000000  0.0000000 )
                  (  0.0000000  0.0000000  1.0000000 )


      isym = 12     inv. 180 deg rotation - cryst. axis [1,1,0]  

 cryst.   s(12) = (     0         -1          0      )
                  (    -1          0          0      )
                  (     0          0          1      )

 cart.    s(12) = (  0.5000000 -0.8660254  0.0000000 )
                  ( -0.8660254 -0.5000000  0.0000000 )
                  (  0.0000000  0.0000000  1.0000000 )


     point group C_6v (6mm) 
     there are  6 classes
     the character table:

       E     2C6   2C3   C2    3s_v  3s_d 
A_1    1.00  1.00  1.00  1.00  1.00  1.00
A_2    1.00  1.00  1.00  1.00 -1.00 -1.00
B_1    1.00 -1.00  1.00 -1.00  1.00 -1.00
B_2    1.00 -1.00  1.00 -1.00 -1.00  1.00
E_1    2.00  1.00 -1.00 -2.00  0.00  0.00
E_2    2.00 -1.00 -1.00  2.00  0.00  0.00

     the symmetry operations in each class and the name of the first element:

     E        1
          identity                                               
     2C6      3    4
           60 deg rotation - cryst. axis [0,0,1]                 
     2C3      5    6
          120 deg rotation - cryst. axis [0,0,1]                 
     C2       2
          180 deg rotation - cart. axis [0,0,1]                  
     3s_v     8   12   11
          inv. 180 deg rotation - cart. axis [1,0,0]             
     3s_d     7    9   10
          inv. 180 deg rotation - cart. axis [0,1,0]             

   Cartesian axes

     site n.     atom                  positions (alat units)
         1        Ga     tau(   1) = (   0.0000000   0.5773503   0.0000000  )
         2        Ga     tau(   2) = (   0.5000000   0.2886751   0.8152174  )
         3        N      tau(   3) = (   0.0000000   0.5773503   0.6136663  )
         4        N      tau(   4) = (   0.5000000   0.2886751   1.4288837  )

   Crystallographic axes

     site n.     atom                  positions (cryst. coord.)
         1        Ga     tau(   1) = (  0.3333333  0.6666667  0.0000000  )
         2        Ga     tau(   2) = (  0.6666667  0.3333333  0.5000000  )
         3        N      tau(   3) = (  0.3333333  0.6666667  0.3763820  )
         4        N      tau(   4) = (  0.6666667  0.3333333  0.8763820  )

     number of k points=    12
                       cart. coord. in units 2pi/alat
        k(    1) = (   0.1250000   0.2165064   0.1022222), wk =   0.1666667
        k(    2) = (   0.1250000   0.2165064  -0.3066667), wk =   0.0833333
        k(    3) = (   0.1250000   0.5051815   0.1022222), wk =   0.3333333
        k(    4) = (   0.1250000   0.5051815  -0.3066667), wk =   0.1666667
        k(    5) = (   0.1250000  -0.3608439   0.1022222), wk =   0.3333333
        k(    6) = (   0.1250000  -0.3608439  -0.3066667), wk =   0.1666667
        k(    7) = (   0.1250000  -0.0721688   0.1022222), wk =   0.1666667
        k(    8) = (   0.1250000  -0.0721688  -0.3066667), wk =   0.0833333
        k(    9) = (   0.3750000   0.6495191   0.1022222), wk =   0.1666667
        k(   10) = (   0.3750000   0.6495191  -0.3066667), wk =   0.0833333
        k(   11) = (   0.3750000  -0.2165064   0.1022222), wk =   0.1666667
        k(   12) = (   0.3750000  -0.2165064  -0.3066667), wk =   0.0833333

                       cryst. coord.
        k(    1) = (   0.1250000   0.1250000   0.1666667), wk =   0.1666667
        k(    2) = (   0.1250000   0.1250000  -0.5000000), wk =   0.0833333
        k(    3) = (   0.1250000   0.3750000   0.1666667), wk =   0.3333333
        k(    4) = (   0.1250000   0.3750000  -0.5000000), wk =   0.1666667
        k(    5) = (   0.1250000  -0.3750000   0.1666667), wk =   0.3333333
        k(    6) = (   0.1250000  -0.3750000  -0.5000000), wk =   0.1666667
        k(    7) = (   0.1250000  -0.1250000   0.1666667), wk =   0.1666667
        k(    8) = (   0.1250000  -0.1250000  -0.5000000), wk =   0.0833333
        k(    9) = (   0.3750000   0.3750000   0.1666667), wk =   0.1666667
        k(   10) = (   0.3750000   0.3750000  -0.5000000), wk =   0.0833333
        k(   11) = (   0.3750000  -0.3750000   0.1666667), wk =   0.1666667
        k(   12) = (   0.3750000  -0.3750000  -0.5000000), wk =   0.0833333

     Dense  grid:    36731 G-vectors     FFT dimensions: (  40,  40,  60)

     Dynamical RAM for                 wfc:       0.19 MB

     Dynamical RAM for     wfc (w. buffer):       2.50 MB

     Dynamical RAM for           str. fact:       0.14 MB

     Dynamical RAM for           local pot:       0.00 MB

     Dynamical RAM for          nlocal pot:       0.45 MB

     Dynamical RAM for                qrad:       3.05 MB

     Dynamical RAM for          rho,v,vnew:       0.50 MB

     Dynamical RAM for               rhoin:       0.17 MB

     Dynamical RAM for            rho*nmix:       1.12 MB

     Dynamical RAM for           G-vectors:       0.30 MB

     Dynamical RAM for          h,s,v(r/c):       0.09 MB

     Dynamical RAM for          <psi|beta>:       0.02 MB

     Dynamical RAM for                 psi:       0.38 MB

     Dynamical RAM for                hpsi:       0.38 MB

     Dynamical RAM for      wfcinit/wfcrot:       0.47 MB

     Estimated static dynamical RAM per process >       7.81 MB

     Estimated max dynamical RAM per process >       9.81 MB

     Estimated total dynamical RAM >      78.45 MB

     Initial potential from superposition of free atoms

     starting charge      35.9946, renormalised to      36.0000
     Starting wfcs are   26 randomized atomic wfcs

     total cpu time spent up to now is        0.3 secs

     Self-consistent Calculation

     iteration #  1     ecut=    90.00 Ry     beta= 0.70
     Davidson diagonalization with overlap

---- Real-time Memory Report at c_bands before calling an iterative solver
           112 MiB given to the printing process from OS
             0 MiB allocation reported by mallinfo(arena+hblkhd)
         32955 MiB available memory on the node where the printing process lives
------------------
     ethr =  1.00E-02,  avg # of iterations =  3.2

     total cpu time spent up to now is        0.6 secs

     total energy              =    -347.04058776 Ry
     estimated scf accuracy    <       1.03648935 Ry

     iteration #  2     ecut=    90.00 Ry     beta= 0.70
     Davidson diagonalization with overlap

---- Real-time Memory Report at c_bands before calling an iterative solver
           118 MiB given to the printing process from OS
             0 MiB allocation reported by mallinfo(arena+hblkhd)
         32932 MiB available memory on the node where the printing process lives
------------------
     ethr =  2.88E-03,  avg # of iterations =  2.9

     total cpu time spent up to now is        0.8 secs

     total energy              =    -347.34734650 Ry
     estimated scf accuracy    <       1.02496789 Ry

     iteration #  3     ecut=    90.00 Ry     beta= 0.70
     Davidson diagonalization with overlap

---- Real-time Memory Report at c_bands before calling an iterative solver
           120 MiB given to the printing process from OS
             0 MiB allocation reported by mallinfo(arena+hblkhd)
         32929 MiB available memory on the node where the printing process lives
------------------
     ethr =  2.85E-03,  avg # of iterations =  2.0

     total cpu time spent up to now is        1.1 secs

     total energy              =    -347.51832161 Ry
     estimated scf accuracy    <       0.00796891 Ry

     iteration #  4     ecut=    90.00 Ry     beta= 0.70
     Davidson diagonalization with overlap

---- Real-time Memory Report at c_bands before calling an iterative solver
           120 MiB given to the printing process from OS
             0 MiB allocation reported by mallinfo(arena+hblkhd)
         32927 MiB available memory on the node where the printing process lives
------------------
     ethr =  2.21E-05,  avg # of iterations =  5.3

     total cpu time spent up to now is        1.4 secs

     total energy              =    -347.52339653 Ry
     estimated scf accuracy    <       0.01541823 Ry

     iteration #  5     ecut=    90.00 Ry     beta= 0.70
     Davidson diagonalization with overlap

---- Real-time Memory Report at c_bands before calling an iterative solver
           121 MiB given to the printing process from OS
             0 MiB allocation reported by mallinfo(arena+hblkhd)
         32927 MiB available memory on the node where the printing process lives
------------------
     ethr =  2.21E-05,  avg # of iterations =  2.1

     total cpu time spent up to now is        1.6 secs

     total energy              =    -347.52428168 Ry
     estimated scf accuracy    <       0.00148073 Ry

     iteration #  6     ecut=    90.00 Ry     beta= 0.70
     Davidson diagonalization with overlap

---- Real-time Memory Report at c_bands before calling an iterative solver
           121 MiB given to the printing process from OS
             0 MiB allocation reported by mallinfo(arena+hblkhd)
         32938 MiB available memory on the node where the printing process lives
------------------
     ethr =  4.11E-06,  avg # of iterations =  2.4

     total cpu time spent up to now is        1.9 secs

     total energy              =    -347.52437576 Ry
     estimated scf accuracy    <       0.00020506 Ry

     iteration #  7     ecut=    90.00 Ry     beta= 0.70
     Davidson diagonalization with overlap

---- Real-time Memory Report at c_bands before calling an iterative solver
           121 MiB given to the printing process from OS
             0 MiB allocation reported by mallinfo(arena+hblkhd)
         32937 MiB available memory on the node where the printing process lives
------------------
     ethr =  5.70E-07,  avg # of iterations =  2.7

     total cpu time spent up to now is        2.1 secs

     total energy              =    -347.52439200 Ry
     estimated scf accuracy    <       0.00002528 Ry

     iteration #  8     ecut=    90.00 Ry     beta= 0.70
     Davidson diagonalization with overlap

---- Real-time Memory Report at c_bands before calling an iterative solver
           121 MiB given to the printing process from OS
             0 MiB allocation reported by mallinfo(arena+hblkhd)
         32936 MiB available memory on the node where the printing process lives
------------------
     ethr =  7.02E-08,  avg # of iterations =  3.1

     total cpu time spent up to now is        2.3 secs

     total energy              =    -347.52440115 Ry
     estimated scf accuracy    <       0.00000148 Ry

     iteration #  9     ecut=    90.00 Ry     beta= 0.70
     Davidson diagonalization with overlap

---- Real-time Memory Report at c_bands before calling an iterative solver
           121 MiB given to the printing process from OS
             0 MiB allocation reported by mallinfo(arena+hblkhd)
         32935 MiB available memory on the node where the printing process lives
------------------
     ethr =  4.11E-09,  avg # of iterations =  1.8

     total cpu time spent up to now is        2.5 secs

     total energy              =    -347.52440078 Ry
     estimated scf accuracy    <       0.00000094 Ry

     iteration # 10     ecut=    90.00 Ry     beta= 0.70
     Davidson diagonalization with overlap

---- Real-time Memory Report at c_bands before calling an iterative solver
           121 MiB given to the printing process from OS
             0 MiB allocation reported by mallinfo(arena+hblkhd)
         32934 MiB available memory on the node where the printing process lives
------------------
     ethr =  2.62E-09,  avg # of iterations =  2.0

     total cpu time spent up to now is        2.8 secs

     End of self-consistent calculation

          k = 0.1250 0.2165 0.1022 (  4574 PWs)   bands (ev):

    -5.1440  -4.7333  -3.3471  -3.3392  -3.2940  -3.2809  -3.2001  -3.1593
    -3.1258  -3.1212  -3.0482  -1.7109   4.2454   7.1465   7.3015   8.4115
     9.4811   9.5622  14.1844  16.1638  17.7774  18.0970

     occupation numbers 
     1.0000   1.0000   1.0000   1.0000   1.0000   1.0000   1.0000   1.0000
     1.0000   1.0000   1.0000   1.0000   1.0000   1.0000   1.0000   1.0000
     1.0000   1.0000   0.0000   0.0000   0.0000   0.0000

          k = 0.1250 0.2165-0.3067 (  4588 PWs)   bands (ev):

    -4.8655  -4.8655  -3.3258  -3.3258  -3.3071  -3.3071  -3.1871  -3.1871
    -3.1108  -3.1108  -2.6382  -2.6382   5.9479   5.9479   8.3203   8.3203
     8.8725   8.8725  15.4674  15.4674  17.5674  17.5674

     occupation numbers 
     1.0000   1.0000   1.0000   1.0000   1.0000   1.0000   1.0000   1.0000
     1.0000   1.0000   1.0000   1.0000   1.0000   1.0000   1.0000   1.0000
     1.0000   1.0000   0.0000   0.0000   0.0000   0.0000

          k = 0.1250 0.5052 0.1022 (  4577 PWs)   bands (ev):

    -4.7739  -4.6676  -3.3406  -3.3078  -3.2358  -3.1962  -3.1774  -3.1347
    -3.0978  -3.0770  -1.9500  -1.2666   3.9537   4.8943   6.4139   7.1351
     8.3620   8.5800  15.2171  16.1596  16.9412  18.0753

     occupation numbers 
     1.0000   1.0000   1.0000   1.0000   1.0000   1.0000   1.0000   1.0000
     1.0000   1.0000   1.0000   1.0000   1.0000   1.0000   1.0000   1.0000
     1.0000   1.0000   0.0000   0.0000   0.0000   0.0000

          k = 0.1250 0.5052-0.3067 (  4592 PWs)   bands (ev):

    -4.6857  -4.6857  -3.3205  -3.3205  -3.2433  -3.2433  -3.1456  -3.1456
    -3.0900  -3.0900  -1.6541  -1.6541   3.9906   3.9906   7.5106   7.5106
     8.5295   8.5295  15.1098  15.1098  17.9502  17.9502

     occupation numbers 
     1.0000   1.0000   1.0000   1.0000   1.0000   1.0000   1.0000   1.0000
     1.0000   1.0000   1.0000   1.0000   1.0000   1.0000   1.0000   1.0000
     1.0000   1.0000   0.0000   0.0000   0.0000   0.0000

          k = 0.1250-0.3608 0.1022 (  4590 PWs)   bands (ev):

    -4.8996  -4.6866  -3.3314  -3.3172  -3.2562  -3.2245  -3.1842  -3.1631
    -3.1167  -3.0851  -2.6315  -1.3849   4.4249   5.8062   6.3709   7.5185
     8.8705   9.1184  15.0565  16.5969  16.9046  18.0975

     occupation numbers 
     1.0000   1.0000   1.0000   1.0000   1.0000   1.0000   1.0000   1.0000
     1.0000   1.0000   1.0000   1.0000   1.0000   1.0000   1.0000   1.0000
     1.0000   1.0000   0.0000   0.0000   0.0000   0.0000

          k = 0.1250-0.3608-0.3067 (  4596 PWs)   bands (ev):

    -4.7432  -4.7432  -3.3111  -3.3111  -3.2659  -3.2659  -3.1804  -3.1804
    -3.0979  -3.0979  -2.1627  -2.1627   4.9610   4.9610   7.9388   7.9388
     8.3939   8.3939  15.4629  15.4629  17.7711  17.7712

     occupation numbers 
     1.0000   1.0000   1.0000   1.0000   1.0000   1.0000   1.0000   1.0000
     1.0000   1.0000   1.0000   1.0000   1.0000   1.0000   1.0000   1.0000
     1.0000   1.0000   0.0000   0.0000   0.0000   0.0000

          k = 0.1250-0.0722 0.1022 (  4579 PWs)   bands (ev):

    -5.3521  -4.7818  -3.3744  -3.3633  -3.3266  -3.3110  -3.3026  -3.1610
    -3.1580  -3.1018  -3.0778  -1.9247   3.9447   8.1884   8.5812   8.9244
     9.7690   9.9185  13.3149  15.1231  18.4638  19.0097

     occupation numbers 
     1.0000   1.0000   1.0000   1.0000   1.0000   1.0000   1.0000   1.0000
     1.0000   1.0000   1.0000   1.0000   1.0000   1.0000   1.0000   1.0000
     1.0000   1.0000   0.0000   0.0000   0.0000   0.0000

          k = 0.1250-0.0722-0.3067 (  4580 PWs)   bands (ev):

    -4.9824  -4.9824  -3.3518  -3.3518  -3.3426  -3.3426  -3.1620  -3.1620
    -3.1131  -3.1131  -2.8741  -2.8741   6.2883   6.2883   8.9092   8.9092
     9.4030   9.4030  14.8459  14.8459  17.9742  17.9742

     occupation numbers 
     1.0000   1.0000   1.0000   1.0000   1.0000   1.0000   1.0000   1.0000
     1.0000   1.0000   1.0000   1.0000   1.0000   1.0000   1.0000   1.0000
     1.0000   1.0000   0.0000   0.0000   0.0000   0.0000

          k = 0.3750 0.6495 0.1022 (  4567 PWs)   bands (ev):

    -4.7129  -4.6722  -3.3635  -3.2572  -3.2221  -3.1882  -3.1707  -3.1380
    -3.1242  -3.1031  -1.5338  -1.2597   4.3122   4.7954   5.5742   7.3160
     7.5162   8.0242  15.6762  17.0698  17.5931  17.9805

     occupation numbers 
     1.0000   1.0000   1.0000   1.0000   1.0000   1.0000   1.0000   1.0000
     1.0000   1.0000   1.0000   1.0000   1.0000   1.0000   1.0000   1.0000
     1.0000   1.0000   0.0000   0.0000   0.0000   0.0000

          k = 0.3750 0.6495-0.3067 (  4594 PWs)   bands (ev):

    -4.6615  -4.6615  -3.2873  -3.2873  -3.2570  -3.2570  -3.1486  -3.1486
    -3.1107  -3.1107  -1.3989  -1.3989   4.0719   4.0719   6.3940   6.3940
     8.6864   8.6864  16.0378  16.0378  17.7364  17.7364

     occupation numbers 
     1.0000   1.0000   1.0000   1.0000   1.0000   1.0000   1.0000   1.0000
     1.0000   1.0000   1.0000   1.0000   1.0000   1.0000   1.0000   1.0000
     1.0000   1.0000   0.0000   0.0000   0.0000   0.0000

          k = 0.3750-0.2165 0.1022 (  4593 PWs)   bands (ev):

    -4.8472  -4.6771  -3.3407  -3.3085  -3.2514  -3.2048  -3.1865  -3.1410
    -3.1081  -3.0652  -2.3984  -1.3283   4.0993   5.3071   6.2190   7.8118
     8.7877   9.1936  14.6472  15.5787  16.9989  18.1510

     occupation numbers 
     1.0000   1.0000   1.0000   1.0000   1.0000   1.0000   1.0000   1.0000
     1.0000   1.0000   1.0000   1.0000   1.0000   1.0000   1.0000   1.0000
     1.0000   1.0000   0.0000   0.0000   0.0000   0.0000

          k = 0.3750-0.2165-0.3067 (  4594 PWs)   bands (ev):

    -4.7195  -4.7195  -3.3313  -3.3313  -3.2440  -3.2440  -3.1501  -3.1501
    -3.0922  -3.0922  -1.9752  -1.9752   4.3707   4.3707   8.1868   8.1868
     8.4558   8.4558  14.7401  14.7401  17.7585  17.7585

     occupation numbers 
     1.0000   1.0000   1.0000   1.0000   1.0000   1.0000   1.0000   1.0000
     1.0000   1.0000   1.0000   1.0000   1.0000   1.0000   1.0000   1.0000
     1.0000   1.0000   0.0000   0.0000   0.0000   0.0000

     highest occupied, lowest unoccupied level (ev):     9.9185   13.3149

!    total energy              =    -347.52440095 Ry
     estimated scf accuracy    <          9.3E-09 Ry

     The total energy is the sum of the following terms:
     one-electron contribution =    -109.25979966 Ry
     hartree contribution      =      88.75636595 Ry
     xc contribution           =     -96.19630530 Ry
     ewald contribution        =    -230.82466193 Ry

     convergence has been achieved in  10 iterations

     Forces acting on atoms (cartesian axes, Ry/au):

     atom    1 type  1   force =    -0.00000000    0.00000000   -0.00057883
     atom    2 type  1   force =     0.00000000    0.00000000   -0.00057883
     atom    3 type  2   force =     0.00000000    0.00000000    0.00057883
     atom    4 type  2   force =     0.00000000   -0.00000000    0.00057883
     The non-local contrib.  to forces
     atom    1 type  1   force =     0.00000000    0.00000000    0.00246809
     atom    2 type  1   force =    -0.00000000    0.00000000    0.00246809
     atom    3 type  2   force =     0.00000000    0.00000000    0.01231421
     atom    4 type  2   force =     0.00000000    0.00000000    0.01231421
     The ionic contribution  to forces
     atom    1 type  1   force =    -0.00000002    0.00000001    0.15748047
     atom    2 type  1   force =     0.00000002   -0.00000001    0.15748047
     atom    3 type  2   force =    -0.00000001    0.00000001   -0.15748047
     atom    4 type  2   force =     0.00000001   -0.00000001   -0.15748047
     The local contribution  to forces
     atom    1 type  1   force =     0.00000000    0.00000019   -0.16072332
     atom    2 type  1   force =     0.00000033    0.00000000   -0.16072328
     atom    3 type  2   force =     0.00000000    0.00000002    0.14608485
     atom    4 type  2   force =     0.00000004    0.00000000    0.14608480
     The core correction contribution to forces
     atom    1 type  1   force =    -0.00000000    0.00000000    0.00020775
     atom    2 type  1   force =     0.00000001    0.00000000    0.00020775
     atom    3 type  2   force =    -0.00000000   -0.00000000   -0.00035898
     atom    4 type  2   force =    -0.00000000   -0.00000000   -0.00035898
     The Hubbard contrib.    to forces
     atom    1 type  1   force =     0.00000000    0.00000000    0.00000000
     atom    2 type  1   force =     0.00000000    0.00000000    0.00000000
     atom    3 type  2   force =     0.00000000    0.00000000    0.00000000
     atom    4 type  2   force =     0.00000000    0.00000000    0.00000000
     The SCF correction term to forces
     atom    1 type  1   force =     0.00000000    0.00000000    0.00000000
     atom    2 type  1   force =     0.00000000    0.00000000    0.00000000
     atom    3 type  2   force =     0.00000000    0.00000000    0.00000115
     atom    4 type  2   force =     0.00000000    0.00000000    0.00000115

     Total force =     0.000819     Total SCF correction =     0.000002


     Computing stress (Cartesian axis) and pressure

          total   stress  (Ry/bohr**3)                   (kbar)     P=       -2.08
  -0.00001478   0.00000000   0.00000000           -2.17        0.00        0.00
   0.00000000  -0.00001478   0.00000000            0.00       -2.17        0.00
   0.00000000   0.00000000  -0.00001288            0.00        0.00       -1.90

     kinetic stress (kbar)  86404.25      0.00      0.00
                                0.00  86404.25      0.00
                                0.00      0.00  86422.17

     local   stress (kbar)   4755.07      0.00     -0.00
                                0.00   4755.07     -0.00
                               -0.00     -0.00   2995.91

     nonloc. stress (kbar) -58092.92      0.00      0.00
                                0.00 -58092.92      0.00
                                0.00      0.00 -58099.29

     hartree stress (kbar)  13417.70     -0.00      0.00
                               -0.00  13417.70     -0.00
                                0.00     -0.00  14206.64

     exc-cor stress (kbar)  12569.07     -0.00     -0.00
                               -0.00  12569.07     -0.00
                               -0.00     -0.00  12569.57

     corecor stress (kbar) -23156.99     -0.00      0.00
                               -0.00 -23156.99      0.00
                                0.00      0.00 -23157.44

     ewald   stress (kbar) -35898.35     -0.00     -0.00
                               -0.00 -35898.35     -0.00
                               -0.00     -0.00 -34939.46

     hubbard stress (kbar)      0.00      0.00      0.00
                                0.00      0.00      0.00
                                0.00      0.00      0.00

     DFT-D   stress (kbar)      0.00      0.00      0.00
                                0.00      0.00      0.00
                                0.00      0.00      0.00

     XDM     stress (kbar)      0.00      0.00      0.00
                                0.00      0.00      0.00
                                0.00      0.00      0.00

     dft-nl  stress (kbar)      0.00      0.00      0.00
                                0.00      0.00      0.00
                                0.00      0.00      0.00

     TS-vdW  stress (kbar)      0.00      0.00      0.00
                                0.00      0.00      0.00
                                0.00      0.00      0.00

     MDB     stress (kbar)      0.00      0.00      0.00
                                0.00      0.00      0.00
                                0.00      0.00      0.00

     3D-RISM stress (kbar)      0.00      0.00      0.00
                                0.00      0.00      0.00
                                0.00      0.00      0.00


     Writing all to output data dir ./tmp/GaN.save/ :
     XML data file, charge density, pseudopotentials, collected wavefunctions
 
     init_run     :      0.18s CPU      0.20s WALL (       1 calls)
     electrons    :      2.39s CPU      2.51s WALL (       1 calls)
     forces       :      0.03s CPU      0.03s WALL (       1 calls)
     stress       :      0.35s CPU      0.36s WALL (       1 calls)

     Called by init_run:
     wfcinit      :      0.11s CPU      0.13s WALL (       1 calls)
     wfcinit:atom :      0.00s CPU      0.00s WALL (      12 calls)
     wfcinit:wfcr :      0.10s CPU      0.12s WALL (      12 calls)
     potinit      :      0.01s CPU      0.01s WALL (       1 calls)
     hinit0       :      0.03s CPU      0.04s WALL (       1 calls)

     Called by electrons:
     c_bands      :      2.00s CPU      2.09s WALL (      10 calls)
     sum_band     :      0.33s CPU      0.34s WALL (      10 calls)
     v_of_rho     :      0.05s CPU      0.05s WALL (      11 calls)
     v_h          :      0.00s CPU      0.00s WALL (      11 calls)
     v_xc         :      0.06s CPU      0.06s WALL (      13 calls)
     mix_rho      :      0.01s CPU      0.01s WALL (      10 calls)

     Called by c_bands:
     init_us_2    :      0.06s CPU      0.06s WALL (     276 calls)
     cegterg      :      1.86s CPU      1.95s WALL (     120 calls)

     Called by sum_band:
     sum_band:wei :      0.00s CPU      0.00s WALL (      10 calls)
     sum_band:loo :      0.32s CPU      0.33s WALL (      10 calls)
     sum_band:buf :      0.01s CPU      0.01s WALL (     120 calls)
     sum_band:ini :      0.02s CPU      0.02s WALL (     120 calls)

     Called by *egterg:
     cdiaghg      :      0.20s CPU      0.21s WALL (     451 calls)
     cegterg:over :      0.07s CPU      0.07s WALL (     331 calls)
     cegterg:upda :      0.03s CPU      0.03s WALL (     331 calls)
     cegterg:last :      0.05s CPU      0.05s WALL (     253 calls)
     h_psi        :      1.54s CPU      1.62s WALL (     463 calls)
     g_psi        :      0.01s CPU      0.01s WALL (     331 calls)

     Called by h_psi:
     h_psi:calbec :      0.08s CPU      0.08s WALL (     463 calls)
     vloc_psi     :      1.39s CPU      1.47s WALL (     463 calls)
     add_vuspsi   :      0.06s CPU      0.06s WALL (     463 calls)

     General routines
     calbec       :      0.09s CPU      0.09s WALL (     523 calls)
     fft          :      0.03s CPU      0.04s WALL (     134 calls)
     ffts         :      0.00s CPU      0.00s WALL (      10 calls)
     fftw         :      1.43s CPU      1.51s WALL (   16590 calls)
 
     Parallel routines
 
     PWSCF        :      3.03s CPU      3.45s WALL

 
   This run was terminated on:   0:41:41   1Aug2026            

=------------------------------------------------------------------------------=
   JOB DONE.
=------------------------------------------------------------------------------=
