
     Program PWSCF v.7.3.1 starts on  1Aug2026 at  0:41:26 

     This program is part of the open-source Quantum ESPRESSO suite
     for quantum simulation of materials; please cite
         "P. Giannozzi et al., J. Phys.:Condens. Matter 21 395502 (2009);
         "P. Giannozzi et al., J. Phys.:Condens. Matter 29 465901 (2017);
         "P. Giannozzi et al., J. Chem. Phys. 152 154105 (2020);
          URL http://www.quantum-espresso.org", 
     in publications or presentations arising from this work. More details at
     http://www.quantum-espresso.org/quote

     Parallel version (MPI & OpenMP), running on       8 processor cores
     Number of MPI processes:                 8
     Threads/MPI process:                     1

     MPI processes distributed on     1 nodes
     33126 MiB available memory on the printing compute node when the environment starts
 
     Waiting for input...
     Reading input from standard input

     Current dimensions of program PWSCF are:
     Max number of different atomic species (ntypx) = 10
     Max number of k-points (npk) =  40000
     Max angular momentum in pseudopotentials (lmaxx) =  4
 
     R & G space division:  proc/nbgrp/npool/nimage =       8
     Subspace diagonalization in iterative solution of the eigenvalue problem:
     a serial algorithm will be used

 
     Parallelization info
     --------------------
     sticks:   dense  smooth     PW     G-vecs:    dense   smooth      PW
     Min          74      74     23                 2482     2482     423
     Max          75      75     24                 2491     2491     428
     Sum         595     595    187                19879    19879    3405
 
     Using Slab Decomposition
 


     bravais-lattice index     =            4
     lattice parameter (alat)  =       6.0849  a.u.
     unit-cell volume          =     318.1254 (a.u.)^3
     number of atoms/cell      =            4
     number of atomic types    =            2
     number of electrons       =        36.00
     number of Kohn-Sham states=           22
     kinetic-energy cutoff     =      60.0000  Ry
     charge density cutoff     =     240.0000  Ry
     scf convergence threshold =      1.0E-08
     mixing beta               =       0.7000
     number of iterations used =            8  plain     mixing
     Exchange-correlation= PBE
                           (   1   4   3   4   0   0   0)

     celldm(1)=   6.084918  celldm(2)=   0.000000  celldm(3)=   1.630435
     celldm(4)=   0.000000  celldm(5)=   0.000000  celldm(6)=   0.000000

     crystal axes: (cart. coord. in units of alat)
               a(1) = (   1.000000   0.000000   0.000000 )  
               a(2) = (  -0.500000   0.866025   0.000000 )  
               a(3) = (   0.000000   0.000000   1.630435 )  

     reciprocal axes: (cart. coord. in units 2 pi/alat)
               b(1) = (  1.000000  0.577350  0.000000 )  
               b(2) = (  0.000000  1.154701  0.000000 )  
               b(3) = (  0.000000  0.000000  0.613333 )  


     PseudoPot. # 1 for Ga read from file:
     /data-fast/greenano/Students/cohort2/rojassan/Project_GaN/PSEUDO/Ga.upf
     MD5 check sum: 2bb81bf6f0a8d9832cf3329850435ecf
     Pseudo is Norm-conserving + core correction, Zval = 13.0
     Generated using ONCVPSP code by D. R. Hamann
     Using radial grid of 1902 points,  6 beta functions with: 
                l(1) =   0
                l(2) =   0
                l(3) =   1
                l(4) =   1
                l(5) =   2
                l(6) =   2

     PseudoPot. # 2 for N  read from file:
     /data-fast/greenano/Students/cohort2/rojassan/Project_GaN/PSEUDO/N.upf
     MD5 check sum: d34365f73bb0e2ee98afc20ec3e87676
     Pseudo is Norm-conserving + core correction, Zval =  5.0
     Generated using ONCVPSP code by D. R. Hamann
     Using radial grid of 1058 points,  4 beta functions with: 
                l(1) =   0
                l(2) =   0
                l(3) =   1
                l(4) =   1

     atomic species   valence    mass     pseudopotential
     Ga               13.00    69.72300     Ga( 1.00)
     N                 5.00    14.00700     N ( 1.00)

     12 Sym. Ops. (no inversion) found ( 6 have fractional translation)


                                    s                        frac. trans.

      isym =  1     identity                                     

 cryst.   s( 1) = (     1          0          0      )
                  (     0          1          0      )
                  (     0          0          1      )

 cart.    s( 1) = (  1.0000000  0.0000000  0.0000000 )
                  (  0.0000000  1.0000000  0.0000000 )
                  (  0.0000000  0.0000000  1.0000000 )


      isym =  2     180 deg rotation - cart. axis [0,0,1]        

 cryst.   s( 2) = (    -1          0          0      )    f =(  0.0000000 )
                  (     0         -1          0      )       (  0.0000000 )
                  (     0          0          1      )       ( -0.5000000 )

 cart.    s( 2) = ( -1.0000000  0.0000000  0.0000000 )    f =(  0.0000000 )
                  (  0.0000000 -1.0000000  0.0000000 )       (  0.0000000 )
                  (  0.0000000  0.0000000  1.0000000 )       ( -0.8152174 )


      isym =  3      60 deg rotation - cryst. axis [0,0,1]       

 cryst.   s( 3) = (     1          1          0      )    f =(  0.0000000 )
                  (    -1          0          0      )       (  0.0000000 )
                  (     0          0          1      )       ( -0.5000000 )

 cart.    s( 3) = (  0.5000000 -0.8660254  0.0000000 )    f =(  0.0000000 )
                  (  0.8660254  0.5000000  0.0000000 )       (  0.0000000 )
                  (  0.0000000  0.0000000  1.0000000 )       ( -0.8152174 )


      isym =  4      60 deg rotation - cryst. axis [0,0,-1]      

 cryst.   s( 4) = (     0         -1          0      )    f =(  0.0000000 )
                  (     1          1          0      )       (  0.0000000 )
                  (     0          0          1      )       ( -0.5000000 )

 cart.    s( 4) = (  0.5000000  0.8660254  0.0000000 )    f =( -0.0000000 )
                  ( -0.8660254  0.5000000  0.0000000 )       (  0.0000000 )
                  (  0.0000000  0.0000000  1.0000000 )       ( -0.8152174 )


      isym =  5     120 deg rotation - cryst. axis [0,0,1]       

 cryst.   s( 5) = (     0          1          0      )
                  (    -1         -1          0      )
                  (     0          0          1      )

 cart.    s( 5) = ( -0.5000000 -0.8660254  0.0000000 )
                  (  0.8660254 -0.5000000  0.0000000 )
                  (  0.0000000  0.0000000  1.0000000 )


      isym =  6     120 deg rotation - cryst. axis [0,0,-1]      

 cryst.   s( 6) = (    -1         -1          0      )
                  (     1          0          0      )
                  (     0          0          1      )

 cart.    s( 6) = ( -0.5000000  0.8660254  0.0000000 )
                  ( -0.8660254 -0.5000000  0.0000000 )
                  (  0.0000000  0.0000000  1.0000000 )


      isym =  7     inv. 180 deg rotation - cart. axis [0,1,0]   

 cryst.   s( 7) = (     1          0          0      )    f =(  0.0000000 )
                  (    -1         -1          0      )       (  0.0000000 )
                  (     0          0          1      )       ( -0.5000000 )

 cart.    s( 7) = (  1.0000000  0.0000000  0.0000000 )    f =( -0.0000000 )
                  (  0.0000000 -1.0000000  0.0000000 )       (  0.0000000 )
                  (  0.0000000  0.0000000  1.0000000 )       ( -0.8152174 )


      isym =  8     inv. 180 deg rotation - cart. axis [1,0,0]   

 cryst.   s( 8) = (    -1          0          0      )
                  (     1          1          0      )
                  (     0          0          1      )

 cart.    s( 8) = ( -1.0000000  0.0000000  0.0000000 )
                  (  0.0000000  1.0000000  0.0000000 )
                  (  0.0000000  0.0000000  1.0000000 )


      isym =  9     inv. 180 deg rotation - cryst. axis [1,-1,0] 

 cryst.   s( 9) = (     0          1          0      )    f =(  0.0000000 )
                  (     1          0          0      )       (  0.0000000 )
                  (     0          0          1      )       ( -0.5000000 )

 cart.    s( 9) = ( -0.5000000  0.8660254  0.0000000 )    f =(  0.0000000 )
                  (  0.8660254  0.5000000  0.0000000 )       (  0.0000000 )
                  (  0.0000000  0.0000000  1.0000000 )       ( -0.8152174 )


      isym = 10     inv. 180 deg rotation - cryst. axis [2,1,0]  

 cryst.   s(10) = (    -1         -1          0      )    f =(  0.0000000 )
                  (     0          1          0      )       (  0.0000000 )
                  (     0          0          1      )       ( -0.5000000 )

 cart.    s(10) = ( -0.5000000 -0.8660254  0.0000000 )    f =(  0.0000000 )
                  ( -0.8660254  0.5000000  0.0000000 )       (  0.0000000 )
                  (  0.0000000  0.0000000  1.0000000 )       ( -0.8152174 )


      isym = 11     inv. 180 deg rotation - cryst. axis [0,1,0]  

 cryst.   s(11) = (     1          1          0      )
                  (     0         -1          0      )
                  (     0          0          1      )

 cart.    s(11) = (  0.5000000  0.8660254  0.0000000 )
                  (  0.8660254 -0.5000000  0.0000000 )
                  (  0.0000000  0.0000000  1.0000000 )


      isym = 12     inv. 180 deg rotation - cryst. axis [1,1,0]  

 cryst.   s(12) = (     0         -1          0      )
                  (    -1          0          0      )
                  (     0          0          1      )

 cart.    s(12) = (  0.5000000 -0.8660254  0.0000000 )
                  ( -0.8660254 -0.5000000  0.0000000 )
                  (  0.0000000  0.0000000  1.0000000 )


     point group C_6v (6mm) 
     there are  6 classes
     the character table:

       E     2C6   2C3   C2    3s_v  3s_d 
A_1    1.00  1.00  1.00  1.00  1.00  1.00
A_2    1.00  1.00  1.00  1.00 -1.00 -1.00
B_1    1.00 -1.00  1.00 -1.00  1.00 -1.00
B_2    1.00 -1.00  1.00 -1.00 -1.00  1.00
E_1    2.00  1.00 -1.00 -2.00  0.00  0.00
E_2    2.00 -1.00 -1.00  2.00  0.00  0.00

     the symmetry operations in each class and the name of the first element:

     E        1
          identity                                               
     2C6      3    4
           60 deg rotation - cryst. axis [0,0,1]                 
     2C3      5    6
          120 deg rotation - cryst. axis [0,0,1]                 
     C2       2
          180 deg rotation - cart. axis [0,0,1]                  
     3s_v     8   12   11
          inv. 180 deg rotation - cart. axis [1,0,0]             
     3s_d     7    9   10
          inv. 180 deg rotation - cart. axis [0,1,0]             

   Cartesian axes

     site n.     atom                  positions (alat units)
         1        Ga     tau(   1) = (   0.0000000   0.5773503   0.0000000  )
         2        Ga     tau(   2) = (   0.5000000   0.2886751   0.8152174  )
         3        N      tau(   3) = (   0.0000000   0.5773503   0.6136663  )
         4        N      tau(   4) = (   0.5000000   0.2886751   1.4288837  )

   Crystallographic axes

     site n.     atom                  positions (cryst. coord.)
         1        Ga     tau(   1) = (  0.3333333  0.6666667  0.0000000  )
         2        Ga     tau(   2) = (  0.6666667  0.3333333  0.5000000  )
         3        N      tau(   3) = (  0.3333333  0.6666667  0.3763820  )
         4        N      tau(   4) = (  0.6666667  0.3333333  0.8763820  )

     number of k points=    12
                       cart. coord. in units 2pi/alat
        k(    1) = (   0.1250000   0.2165064   0.1022222), wk =   0.1666667
        k(    2) = (   0.1250000   0.2165064  -0.3066667), wk =   0.0833333
        k(    3) = (   0.1250000   0.5051815   0.1022222), wk =   0.3333333
        k(    4) = (   0.1250000   0.5051815  -0.3066667), wk =   0.1666667
        k(    5) = (   0.1250000  -0.3608439   0.1022222), wk =   0.3333333
        k(    6) = (   0.1250000  -0.3608439  -0.3066667), wk =   0.1666667
        k(    7) = (   0.1250000  -0.0721688   0.1022222), wk =   0.1666667
        k(    8) = (   0.1250000  -0.0721688  -0.3066667), wk =   0.0833333
        k(    9) = (   0.3750000   0.6495191   0.1022222), wk =   0.1666667
        k(   10) = (   0.3750000   0.6495191  -0.3066667), wk =   0.0833333
        k(   11) = (   0.3750000  -0.2165064   0.1022222), wk =   0.1666667
        k(   12) = (   0.3750000  -0.2165064  -0.3066667), wk =   0.0833333

                       cryst. coord.
        k(    1) = (   0.1250000   0.1250000   0.1666667), wk =   0.1666667
        k(    2) = (   0.1250000   0.1250000  -0.5000000), wk =   0.0833333
        k(    3) = (   0.1250000   0.3750000   0.1666667), wk =   0.3333333
        k(    4) = (   0.1250000   0.3750000  -0.5000000), wk =   0.1666667
        k(    5) = (   0.1250000  -0.3750000   0.1666667), wk =   0.3333333
        k(    6) = (   0.1250000  -0.3750000  -0.5000000), wk =   0.1666667
        k(    7) = (   0.1250000  -0.1250000   0.1666667), wk =   0.1666667
        k(    8) = (   0.1250000  -0.1250000  -0.5000000), wk =   0.0833333
        k(    9) = (   0.3750000   0.3750000   0.1666667), wk =   0.1666667
        k(   10) = (   0.3750000   0.3750000  -0.5000000), wk =   0.0833333
        k(   11) = (   0.3750000  -0.3750000   0.1666667), wk =   0.1666667
        k(   12) = (   0.3750000  -0.3750000  -0.5000000), wk =   0.0833333

     Dense  grid:    19879 G-vectors     FFT dimensions: (  30,  30,  50)

     Dynamical RAM for                 wfc:       0.10 MB

     Dynamical RAM for     wfc (w. buffer):       1.36 MB

     Dynamical RAM for           str. fact:       0.08 MB

     Dynamical RAM for           local pot:       0.00 MB

     Dynamical RAM for          nlocal pot:       0.25 MB

     Dynamical RAM for                qrad:       2.49 MB

     Dynamical RAM for          rho,v,vnew:       0.26 MB

     Dynamical RAM for               rhoin:       0.09 MB

     Dynamical RAM for            rho*nmix:       0.61 MB

     Dynamical RAM for           G-vectors:       0.16 MB

     Dynamical RAM for          h,s,v(r/c):       0.09 MB

     Dynamical RAM for          <psi|beta>:       0.02 MB

     Dynamical RAM for                 psi:       0.21 MB

     Dynamical RAM for                hpsi:       0.21 MB

     Dynamical RAM for      wfcinit/wfcrot:       0.26 MB

     Estimated static dynamical RAM per process >       5.03 MB

     Estimated max dynamical RAM per process >       6.17 MB

     Estimated total dynamical RAM >      49.33 MB

     Initial potential from superposition of free atoms

     starting charge      35.9946, renormalised to      36.0000
     Starting wfcs are   26 randomized atomic wfcs

     total cpu time spent up to now is        0.2 secs

     Self-consistent Calculation

     iteration #  1     ecut=    60.00 Ry     beta= 0.70
     Davidson diagonalization with overlap

---- Real-time Memory Report at c_bands before calling an iterative solver
           107 MiB given to the printing process from OS
             0 MiB allocation reported by mallinfo(arena+hblkhd)
         32991 MiB available memory on the node where the printing process lives
------------------
     ethr =  1.00E-02,  avg # of iterations =  3.2

     total cpu time spent up to now is        0.4 secs

     total energy              =    -346.94561111 Ry
     estimated scf accuracy    <       1.02915736 Ry

     iteration #  2     ecut=    60.00 Ry     beta= 0.70
     Davidson diagonalization with overlap

---- Real-time Memory Report at c_bands before calling an iterative solver
           111 MiB given to the printing process from OS
             0 MiB allocation reported by mallinfo(arena+hblkhd)
         32980 MiB available memory on the node where the printing process lives
------------------
     ethr =  2.86E-03,  avg # of iterations =  2.8

     total cpu time spent up to now is        0.6 secs

     total energy              =    -347.25010669 Ry
     estimated scf accuracy    <       1.00962733 Ry

     iteration #  3     ecut=    60.00 Ry     beta= 0.70
     Davidson diagonalization with overlap

---- Real-time Memory Report at c_bands before calling an iterative solver
           111 MiB given to the printing process from OS
             0 MiB allocation reported by mallinfo(arena+hblkhd)
         32979 MiB available memory on the node where the printing process lives
------------------
     ethr =  2.80E-03,  avg # of iterations =  2.0

     negative rho (up, down):  1.598E-06 0.000E+00

     total cpu time spent up to now is        0.7 secs

     total energy              =    -347.41913629 Ry
     estimated scf accuracy    <       0.00767984 Ry

     iteration #  4     ecut=    60.00 Ry     beta= 0.70
     Davidson diagonalization with overlap

---- Real-time Memory Report at c_bands before calling an iterative solver
           111 MiB given to the printing process from OS
             0 MiB allocation reported by mallinfo(arena+hblkhd)
         32979 MiB available memory on the node where the printing process lives
------------------
     ethr =  2.13E-05,  avg # of iterations =  5.1

     total cpu time spent up to now is        0.9 secs

     total energy              =    -347.42360980 Ry
     estimated scf accuracy    <       0.01177073 Ry

     iteration #  5     ecut=    60.00 Ry     beta= 0.70
     Davidson diagonalization with overlap

---- Real-time Memory Report at c_bands before calling an iterative solver
           113 MiB given to the printing process from OS
             0 MiB allocation reported by mallinfo(arena+hblkhd)
         32977 MiB available memory on the node where the printing process lives
------------------
     ethr =  2.13E-05,  avg # of iterations =  2.1

     total cpu time spent up to now is        1.1 secs

     total energy              =    -347.42458341 Ry
     estimated scf accuracy    <       0.00069350 Ry

     iteration #  6     ecut=    60.00 Ry     beta= 0.70
     Davidson diagonalization with overlap

---- Real-time Memory Report at c_bands before calling an iterative solver
           113 MiB given to the printing process from OS
             0 MiB allocation reported by mallinfo(arena+hblkhd)
         32977 MiB available memory on the node where the printing process lives
------------------
     ethr =  1.93E-06,  avg # of iterations =  3.7

     total cpu time spent up to now is        1.2 secs

     total energy              =    -347.42471746 Ry
     estimated scf accuracy    <       0.00000998 Ry

     iteration #  7     ecut=    60.00 Ry     beta= 0.70
     Davidson diagonalization with overlap

---- Real-time Memory Report at c_bands before calling an iterative solver
           114 MiB given to the printing process from OS
             0 MiB allocation reported by mallinfo(arena+hblkhd)
         32976 MiB available memory on the node where the printing process lives
------------------
     ethr =  2.77E-08,  avg # of iterations =  4.8

     total cpu time spent up to now is        1.4 secs

     total energy              =    -347.42472679 Ry
     estimated scf accuracy    <       0.00006133 Ry

     iteration #  8     ecut=    60.00 Ry     beta= 0.70
     Davidson diagonalization with overlap

---- Real-time Memory Report at c_bands before calling an iterative solver
           114 MiB given to the printing process from OS
             0 MiB allocation reported by mallinfo(arena+hblkhd)
         32989 MiB available memory on the node where the printing process lives
------------------
     ethr =  2.77E-08,  avg # of iterations =  2.0

     total cpu time spent up to now is        1.6 secs

     total energy              =    -347.42472701 Ry
     estimated scf accuracy    <       0.00000918 Ry

     iteration #  9     ecut=    60.00 Ry     beta= 0.70
     Davidson diagonalization with overlap

---- Real-time Memory Report at c_bands before calling an iterative solver
           114 MiB given to the printing process from OS
             0 MiB allocation reported by mallinfo(arena+hblkhd)
         32988 MiB available memory on the node where the printing process lives
------------------
     ethr =  2.55E-08,  avg # of iterations =  2.1

     total cpu time spent up to now is        1.7 secs

     total energy              =    -347.42472873 Ry
     estimated scf accuracy    <       0.00000003 Ry

     iteration # 10     ecut=    60.00 Ry     beta= 0.70
     Davidson diagonalization with overlap

---- Real-time Memory Report at c_bands before calling an iterative solver
           115 MiB given to the printing process from OS
             0 MiB allocation reported by mallinfo(arena+hblkhd)
         32988 MiB available memory on the node where the printing process lives
------------------
     ethr =  8.65E-11,  avg # of iterations =  5.0

     total cpu time spent up to now is        1.9 secs

     total energy              =    -347.42472878 Ry
     estimated scf accuracy    <       0.00000008 Ry

     iteration # 11     ecut=    60.00 Ry     beta= 0.70
     Davidson diagonalization with overlap

---- Real-time Memory Report at c_bands before calling an iterative solver
           115 MiB given to the printing process from OS
             0 MiB allocation reported by mallinfo(arena+hblkhd)
         32988 MiB available memory on the node where the printing process lives
------------------
     ethr =  8.65E-11,  avg # of iterations =  2.1

     total cpu time spent up to now is        2.1 secs

     End of self-consistent calculation

          k = 0.1250 0.2165 0.1022 (  2514 PWs)   bands (ev):

    -5.1556  -4.7642  -3.4076  -3.3978  -3.3543  -3.3406  -3.2594  -3.2169
    -3.1837  -3.1745  -3.1027  -1.7379   4.2464   7.1476   7.3012   8.4150
     9.4865   9.5651  14.1861  16.1672  17.7896  18.1028

     occupation numbers 
     1.0000   1.0000   1.0000   1.0000   1.0000   1.0000   1.0000   1.0000
     1.0000   1.0000   1.0000   1.0000   1.0000   1.0000   1.0000   1.0000
     1.0000   1.0000   0.0000   0.0000   0.0000   0.0000

          k = 0.1250 0.2165-0.3067 (  2512 PWs)   bands (ev):

    -4.8877  -4.8877  -3.3867  -3.3867  -3.3654  -3.3654  -3.2416  -3.2416
    -3.1699  -3.1699  -2.6788  -2.6788   5.9471   5.9471   8.3225   8.3225
     8.8767   8.8767  15.4719  15.4719  17.5731  17.5731

     occupation numbers 
     1.0000   1.0000   1.0000   1.0000   1.0000   1.0000   1.0000   1.0000
     1.0000   1.0000   1.0000   1.0000   1.0000   1.0000   1.0000   1.0000
     1.0000   1.0000   0.0000   0.0000   0.0000   0.0000

          k = 0.1250 0.5052 0.1022 (  2479 PWs)   bands (ev):

    -4.8008  -4.7021  -3.3981  -3.3639  -3.2880  -3.2481  -3.2252  -3.1814
    -3.1426  -3.1255  -1.9772  -1.2918   3.9551   4.8949   6.4165   7.1383
     8.3660   8.5842  15.2233  16.1673  16.9501  18.0863

     occupation numbers 
     1.0000   1.0000   1.0000   1.0000   1.0000   1.0000   1.0000   1.0000
     1.0000   1.0000   1.0000   1.0000   1.0000   1.0000   1.0000   1.0000
     1.0000   1.0000   0.0000   0.0000   0.0000   0.0000

          k = 0.1250 0.5052-0.3067 (  2492 PWs)   bands (ev):

    -4.7186  -4.7186  -3.3792  -3.3792  -3.2981  -3.2981  -3.1983  -3.1983
    -3.1376  -3.1376  -1.6831  -1.6831   3.9909   3.9909   7.5132   7.5132
     8.5330   8.5330  15.1150  15.1150  17.9577  17.9577

     occupation numbers 
     1.0000   1.0000   1.0000   1.0000   1.0000   1.0000   1.0000   1.0000
     1.0000   1.0000   1.0000   1.0000   1.0000   1.0000   1.0000   1.0000
     1.0000   1.0000   0.0000   0.0000   0.0000   0.0000

          k = 0.1250-0.3608 0.1022 (  2501 PWs)   bands (ev):

    -4.9214  -4.7195  -3.3912  -3.3760  -3.3121  -3.2813  -3.2397  -3.2166
    -3.1688  -3.1389  -2.6727  -1.4097   4.4251   5.8071   6.3727   7.5209
     8.8739   9.1220  15.0598  16.6041  16.9138  18.1070

     occupation numbers 
     1.0000   1.0000   1.0000   1.0000   1.0000   1.0000   1.0000   1.0000
     1.0000   1.0000   1.0000   1.0000   1.0000   1.0000   1.0000   1.0000
     1.0000   1.0000   0.0000   0.0000   0.0000   0.0000

          k = 0.1250-0.3608-0.3067 (  2498 PWs)   bands (ev):

    -4.7721  -4.7721  -3.3701  -3.3701  -3.3206  -3.3206  -3.2326  -3.2326
    -3.1524  -3.1524  -2.1953  -2.1953   4.9606   4.9606   7.9416   7.9416
     8.3979   8.3979  15.4685  15.4685  17.7783  17.7783

     occupation numbers 
     1.0000   1.0000   1.0000   1.0000   1.0000   1.0000   1.0000   1.0000
     1.0000   1.0000   1.0000   1.0000   1.0000   1.0000   1.0000   1.0000
     1.0000   1.0000   0.0000   0.0000   0.0000   0.0000

          k = 0.1250-0.0722 0.1022 (  2502 PWs)   bands (ev):

    -5.3578  -4.8090  -3.4326  -3.4159  -3.3829  -3.3674  -3.3601  -3.2201
    -3.2154  -3.1530  -3.1260  -1.9506   3.9465   8.1905   8.5844   8.9295
     9.7734   9.9257  13.3171  15.1254  18.4769  19.0166

     occupation numbers 
     1.0000   1.0000   1.0000   1.0000   1.0000   1.0000   1.0000   1.0000
     1.0000   1.0000   1.0000   1.0000   1.0000   1.0000   1.0000   1.0000
     1.0000   1.0000   0.0000   0.0000   0.0000   0.0000

          k = 0.1250-0.0722-0.3067 (  2512 PWs)   bands (ev):

    -4.9988  -4.9988  -3.4101  -3.4101  -3.4024  -3.4024  -3.2189  -3.2189
    -3.1722  -3.1722  -2.9205  -2.9205   6.2880   6.2880   8.9123   8.9123
     9.4082   9.4082  14.8481  14.8481  17.9805  17.9805

     occupation numbers 
     1.0000   1.0000   1.0000   1.0000   1.0000   1.0000   1.0000   1.0000
     1.0000   1.0000   1.0000   1.0000   1.0000   1.0000   1.0000   1.0000
     1.0000   1.0000   0.0000   0.0000   0.0000   0.0000

          k = 0.3750 0.6495 0.1022 (  2491 PWs)   bands (ev):

    -4.7438  -4.7060  -3.4287  -3.3131  -3.2763  -3.2421  -3.2280  -3.1912
    -3.1751  -3.1515  -1.5608  -1.2856   4.3131   4.7957   5.5775   7.3188
     7.5182   8.0275  15.6852  17.0751  17.6008  17.9950

     occupation numbers 
     1.0000   1.0000   1.0000   1.0000   1.0000   1.0000   1.0000   1.0000
     1.0000   1.0000   1.0000   1.0000   1.0000   1.0000   1.0000   1.0000
     1.0000   1.0000   0.0000   0.0000   0.0000   0.0000

          k = 0.3750 0.6495-0.3067 (  2492 PWs)   bands (ev):

    -4.6948  -4.6948  -3.3452  -3.3452  -3.3122  -3.3122  -3.1994  -3.1994
    -3.1594  -3.1594  -1.4256  -1.4256   4.0725   4.0725   6.3966   6.3966
     8.6897   8.6897  16.0431  16.0431  17.7482  17.7482

     occupation numbers 
     1.0000   1.0000   1.0000   1.0000   1.0000   1.0000   1.0000   1.0000
     1.0000   1.0000   1.0000   1.0000   1.0000   1.0000   1.0000   1.0000
     1.0000   1.0000   0.0000   0.0000   0.0000   0.0000

          k = 0.3750-0.2165 0.1022 (  2497 PWs)   bands (ev):

    -4.8725  -4.7139  -3.4000  -3.3633  -3.3077  -3.2612  -3.2394  -3.1896
    -3.1572  -3.1210  -2.4341  -1.3558   4.1000   5.3073   6.2210   7.8146
     8.7909   9.1977  14.6512  15.5829  17.0091  18.1599

     occupation numbers 
     1.0000   1.0000   1.0000   1.0000   1.0000   1.0000   1.0000   1.0000
     1.0000   1.0000   1.0000   1.0000   1.0000   1.0000   1.0000   1.0000
     1.0000   1.0000   0.0000   0.0000   0.0000   0.0000

          k = 0.3750-0.2165-0.3067 (  2498 PWs)   bands (ev):

    -4.7511  -4.7511  -3.3917  -3.3917  -3.2993  -3.2993  -3.2024  -3.2024
    -3.1431  -3.1431  -2.0079  -2.0079   4.3707   4.3707   8.1892   8.1892
     8.4594   8.4594  14.7445  14.7445  17.7648  17.7648

     occupation numbers 
     1.0000   1.0000   1.0000   1.0000   1.0000   1.0000   1.0000   1.0000
     1.0000   1.0000   1.0000   1.0000   1.0000   1.0000   1.0000   1.0000
     1.0000   1.0000   0.0000   0.0000   0.0000   0.0000

     highest occupied, lowest unoccupied level (ev):     9.9257   13.3171

!    total energy              =    -347.42472879 Ry
     estimated scf accuracy    <          2.4E-09 Ry

     The total energy is the sum of the following terms:
     one-electron contribution =    -109.05997826 Ry
     hartree contribution      =      88.60178166 Ry
     xc contribution           =     -96.14187023 Ry
     ewald contribution        =    -230.82466195 Ry

     convergence has been achieved in  11 iterations

     Forces acting on atoms (cartesian axes, Ry/au):

     atom    1 type  1   force =     0.00000000    0.00000000   -0.00047453
     atom    2 type  1   force =     0.00000000    0.00000000   -0.00047453
     atom    3 type  2   force =     0.00000000    0.00000000    0.00047453
     atom    4 type  2   force =    -0.00000000   -0.00000000    0.00047453
     The non-local contrib.  to forces
     atom    1 type  1   force =     0.00000000    0.00000000    0.00265818
     atom    2 type  1   force =     0.00000000    0.00000000    0.00265818
     atom    3 type  2   force =     0.00000000    0.00000000    0.01224519
     atom    4 type  2   force =    -0.00000000   -0.00000000    0.01224519
     The ionic contribution  to forces
     atom    1 type  1   force =    -0.00000002    0.00000001    0.15748047
     atom    2 type  1   force =     0.00000002   -0.00000001    0.15748047
     atom    3 type  2   force =    -0.00000001    0.00000001   -0.15748047
     atom    4 type  2   force =     0.00000001   -0.00000001   -0.15748047
     The local contribution  to forces
     atom    1 type  1   force =     0.00000000    0.00000019   -0.16077573
     atom    2 type  1   force =     0.00000033    0.00000000   -0.16077575
     atom    3 type  2   force =     0.00000000    0.00000002    0.14608396
     atom    4 type  2   force =     0.00000004    0.00000000    0.14608399
     The core correction contribution to forces
     atom    1 type  1   force =    -0.00000000    0.00000000    0.00019831
     atom    2 type  1   force =     0.00000001    0.00000000    0.00019831
     atom    3 type  2   force =    -0.00000000   -0.00000000   -0.00034392
     atom    4 type  2   force =    -0.00000000   -0.00000000   -0.00034392
     The Hubbard contrib.    to forces
     atom    1 type  1   force =     0.00000000    0.00000000    0.00000000
     atom    2 type  1   force =     0.00000000    0.00000000    0.00000000
     atom    3 type  2   force =     0.00000000    0.00000000    0.00000000
     atom    4 type  2   force =     0.00000000    0.00000000    0.00000000
     The SCF correction term to forces
     atom    1 type  1   force =     0.00000000    0.00000000    0.00000000
     atom    2 type  1   force =     0.00000000    0.00000000    0.00000000
     atom    3 type  2   force =     0.00000000    0.00000000    0.00000153
     atom    4 type  2   force =     0.00000000    0.00000000    0.00000153

     Total force =     0.000671     Total SCF correction =     0.000002


     Computing stress (Cartesian axis) and pressure

          total   stress  (Ry/bohr**3)                   (kbar)     P=     -474.67
  -0.00323573   0.00000000   0.00000000         -475.99        0.00        0.00
   0.00000000  -0.00323573   0.00000000            0.00     -475.99        0.00
   0.00000000   0.00000000  -0.00320875            0.00        0.00     -472.02

     kinetic stress (kbar)  86269.57      0.00      0.00
                                0.00  86269.57      0.00
                                0.00      0.00  86288.62

     local   stress (kbar)   4662.83      0.00     -0.00
                                0.00   4662.83     -0.00
                               -0.00     -0.00   2903.94

     nonloc. stress (kbar) -58304.54      0.00      0.00
                                0.00 -58304.54      0.00
                                0.00      0.00 -58308.54

     hartree stress (kbar)  13393.91      0.00      0.00
                                0.00  13393.91     -0.00
                                0.00     -0.00  14182.73

     exc-cor stress (kbar)  12557.38     -0.00     -0.00
                               -0.00  12557.38     -0.00
                               -0.00     -0.00  12557.87

     corecor stress (kbar) -23156.80     -0.00      0.00
                               -0.00 -23156.80      0.00
                                0.00      0.00 -23157.19

     ewald   stress (kbar) -35898.35     -0.00     -0.00
                               -0.00 -35898.35     -0.00
                               -0.00     -0.00 -34939.46

     hubbard stress (kbar)      0.00      0.00      0.00
                                0.00      0.00      0.00
                                0.00      0.00      0.00

     DFT-D   stress (kbar)      0.00      0.00      0.00
                                0.00      0.00      0.00
                                0.00      0.00      0.00

     XDM     stress (kbar)      0.00      0.00      0.00
                                0.00      0.00      0.00
                                0.00      0.00      0.00

     dft-nl  stress (kbar)      0.00      0.00      0.00
                                0.00      0.00      0.00
                                0.00      0.00      0.00

     TS-vdW  stress (kbar)      0.00      0.00      0.00
                                0.00      0.00      0.00
                                0.00      0.00      0.00

     MDB     stress (kbar)      0.00      0.00      0.00
                                0.00      0.00      0.00
                                0.00      0.00      0.00

     3D-RISM stress (kbar)      0.00      0.00      0.00
                                0.00      0.00      0.00
                                0.00      0.00      0.00


     Writing all to output data dir ./tmp/GaN.save/ :
     XML data file, charge density, pseudopotentials, collected wavefunctions
 
     init_run     :      0.14s CPU      0.16s WALL (       1 calls)
     electrons    :      1.78s CPU      1.86s WALL (       1 calls)
     forces       :      0.02s CPU      0.02s WALL (       1 calls)
     stress       :      0.19s CPU      0.20s WALL (       1 calls)

     Called by init_run:
     wfcinit      :      0.10s CPU      0.10s WALL (       1 calls)
     wfcinit:atom :      0.00s CPU      0.00s WALL (      12 calls)
     wfcinit:wfcr :      0.09s CPU      0.10s WALL (      12 calls)
     potinit      :      0.01s CPU      0.01s WALL (       1 calls)
     hinit0       :      0.02s CPU      0.03s WALL (       1 calls)

     Called by electrons:
     c_bands      :      1.53s CPU      1.58s WALL (      11 calls)
     sum_band     :      0.21s CPU      0.22s WALL (      11 calls)
     v_of_rho     :      0.03s CPU      0.03s WALL (      12 calls)
     v_h          :      0.00s CPU      0.00s WALL (      12 calls)
     v_xc         :      0.03s CPU      0.03s WALL (      14 calls)
     mix_rho      :      0.01s CPU      0.01s WALL (      11 calls)

     Called by c_bands:
     init_us_2    :      0.03s CPU      0.04s WALL (     300 calls)
     cegterg      :      1.44s CPU      1.49s WALL (     132 calls)

     Called by sum_band:
     sum_band:wei :      0.00s CPU      0.00s WALL (      11 calls)
     sum_band:loo :      0.20s CPU      0.21s WALL (      11 calls)
     sum_band:buf :      0.00s CPU      0.00s WALL (     132 calls)
     sum_band:ini :      0.01s CPU      0.01s WALL (     132 calls)

     Called by *egterg:
     cdiaghg      :      0.24s CPU      0.25s WALL (     550 calls)
     cegterg:over :      0.05s CPU      0.05s WALL (     418 calls)
     cegterg:upda :      0.02s CPU      0.02s WALL (     418 calls)
     cegterg:last :      0.04s CPU      0.04s WALL (     301 calls)
     h_psi        :      1.13s CPU      1.17s WALL (     562 calls)
     g_psi        :      0.01s CPU      0.01s WALL (     418 calls)

     Called by h_psi:
     h_psi:calbec :      0.05s CPU      0.05s WALL (     562 calls)
     vloc_psi     :      1.03s CPU      1.06s WALL (     562 calls)
     add_vuspsi   :      0.04s CPU      0.04s WALL (     562 calls)

     General routines
     calbec       :      0.07s CPU      0.07s WALL (     622 calls)
     fft          :      0.02s CPU      0.03s WALL (     144 calls)
     ffts         :      0.00s CPU      0.00s WALL (      11 calls)
     fftw         :      1.05s CPU      1.09s WALL (   19372 calls)
 
     Parallel routines
 
     PWSCF        :      2.22s CPU      2.58s WALL

 
   This run was terminated on:   0:41:29   1Aug2026            

=------------------------------------------------------------------------------=
   JOB DONE.
=------------------------------------------------------------------------------=
