
     Program PWSCF v.7.3.1 starts on  6Aug2026 at  2:49:19 

     This program is part of the open-source Quantum ESPRESSO suite
     for quantum simulation of materials; please cite
         "P. Giannozzi et al., J. Phys.:Condens. Matter 21 395502 (2009);
         "P. Giannozzi et al., J. Phys.:Condens. Matter 29 465901 (2017);
         "P. Giannozzi et al., J. Chem. Phys. 152 154105 (2020);
          URL http://www.quantum-espresso.org", 
     in publications or presentations arising from this work. More details at
     http://www.quantum-espresso.org/quote

     Parallel version (MPI & OpenMP), running on      12 processor cores
     Number of MPI processes:                12
     Threads/MPI process:                     1

     MPI processes distributed on     1 nodes
     22282 MiB available memory on the printing compute node when the environment starts
 
     Waiting for input...
     Reading input from standard input

     Current dimensions of program PWSCF are:
     Max number of different atomic species (ntypx) = 10
     Max number of k-points (npk) =  40000
     Max angular momentum in pseudopotentials (lmaxx) =  4
     file Ga.pbe-dn-kjpaw_psl.1.0.0.UPF: wavefunction(s)  4S renormalized
     file N.pbe-n-kjpaw_psl.1.0.0.UPF: wavefunction(s)  2S renormalized
     file C.pbe-n-kjpaw_psl.1.0.0.UPF: wavefunction(s)  2S 2P renormalized
     Message from routine setup:
     using ibrav=0 with symmetry is DISCOURAGED, use correct ibrav instead
 
     R & G space division:  proc/nbgrp/npool/nimage =      12
     Subspace diagonalization in iterative solution of the eigenvalue problem:
     one sub-group per band group will be used
     custom distributed-memory algorithm (size of sub-group:  3*  3 procs)

 
     Parallelization info
     --------------------
     sticks:   dense  smooth     PW     G-vecs:    dense   smooth      PW
     Min        1339     536    139               223822    56640    7600
     Max        1341     537    141               223825    56649    7605
     Sum       16081    6433   1675              2685887   679695   91215
 
     Using Slab Decomposition
 


     bravais-lattice index     =            0
     lattice parameter (alat)  =      18.2548  a.u.
     unit-cell volume          =    8589.3845 (a.u.)^3
     number of atoms/cell      =          108
     number of atomic types    =            3
     number of electrons       =       971.00
     number of Kohn-Sham states=          513
     kinetic-energy cutoff     =      70.0000  Ry
     charge density cutoff     =     700.0000  Ry
     scf convergence threshold =      1.0E-08
     mixing beta               =       0.7000
     number of iterations used =            8  plain     mixing
     Exchange-correlation= SLA  PW   PBX  PBC
                           (   1   4   3   4   0   0   0)

     celldm(1)=  18.254754  celldm(2)=   0.000000  celldm(3)=   0.000000
     celldm(4)=   0.000000  celldm(5)=   0.000000  celldm(6)=   0.000000

     crystal axes: (cart. coord. in units of alat)
               a(1) = (   1.000000   0.000000   0.000000 )  
               a(2) = (  -0.500000   0.866025   0.000000 )  
               a(3) = (   0.000000   0.000000   1.630435 )  

     reciprocal axes: (cart. coord. in units 2 pi/alat)
               b(1) = (  1.000000  0.577350  0.000000 )  
               b(2) = (  0.000000  1.154701  0.000000 )  
               b(3) = (  0.000000  0.000000  0.613333 )  


     PseudoPot. # 1 for Ga read from file:
     /data-fast/greenano/Students/cohort2/rojassan/Project_GaN/PSEUDO/Ga.pbe-dn-kjpaw_psl.1.0.0.UPF
     MD5 check sum: 93aceff68ec27daa0acc11ebb2e245f0
     Pseudo is Projector augmented-wave + core cor, Zval = 13.0
     Generated using 'atomic' code by A. Dal Corso  v.7.3.1
     Shape of augmentation charge: PSQ
     Using radial grid of 1205 points,  6 beta functions with: 
                l(1) =   0
                l(2) =   0
                l(3) =   1
                l(4) =   1
                l(5) =   2
                l(6) =   2
     Q(r) pseudized with 0 coefficients 


     PseudoPot. # 2 for N  read from file:
     /data-fast/greenano/Students/cohort2/rojassan/Project_GaN/PSEUDO/N.pbe-n-kjpaw_psl.1.0.0.UPF
     MD5 check sum: 86f48117b7e7b472c01f85d0863ba463
     Pseudo is Projector augmented-wave + core cor, Zval =  5.0
     Generated using 'atomic' code by A. Dal Corso  v.7.3.1
     Shape of augmentation charge: PSQ
     Using radial grid of 1085 points,  4 beta functions with: 
                l(1) =   0
                l(2) =   0
                l(3) =   1
                l(4) =   1
     Q(r) pseudized with 0 coefficients 


     PseudoPot. # 3 for C  read from file:
     /data-fast/greenano/Students/cohort2/rojassan/Project_GaN/PSEUDO/C.pbe-n-kjpaw_psl.1.0.0.UPF
     MD5 check sum: 6e4988b7a1fe6f06f65aa0569fb69d66
     Pseudo is Projector augmented-wave + core cor, Zval =  4.0
     Generated using 'atomic' code by A. Dal Corso  v.7.3.1
     Shape of augmentation charge: PSQ
     Using radial grid of 1073 points,  4 beta functions with: 
                l(1) =   0
                l(2) =   0
                l(3) =   1
                l(4) =   1
     Q(r) pseudized with 0 coefficients 


     atomic species   valence    mass     pseudopotential
     Ga               13.00    69.72300     Ga( 1.00)
     N                 5.00    14.00700     N ( 1.00)
     C                 4.00    12.01100     C ( 1.00)

     Starting magnetic structure 
     atomic species   magnetization
     Ga              0.000
     N               0.000
     C               0.500

      6 Sym. Ops. (no inversion) found ( 4 have fractional translation)


                                    s                        frac. trans.

      isym =  1     identity                                     

 cryst.   s( 1) = (     1          0          0      )
                  (     0          1          0      )
                  (     0          0          1      )

 cart.    s( 1) = (  1.0000000  0.0000000  0.0000000 )
                  (  0.0000000  1.0000000  0.0000000 )
                  (  0.0000000  0.0000000  1.0000000 )


      isym =  2     120 deg rotation - cryst. axis [0,0,1]       

 cryst.   s( 2) = (     0          1          0      )    f =( -0.3333333 )
                  (    -1         -1          0      )       ( -0.3333333 )
                  (     0          0          1      )       (  0.0000000 )

 cart.    s( 2) = ( -0.5000000 -0.8660254  0.0000000 )    f =( -0.1666667 )
                  (  0.8660254 -0.5000000  0.0000000 )       ( -0.2886751 )
                  (  0.0000000  0.0000000  1.0000000 )       (  0.0000000 )


      isym =  3     120 deg rotation - cryst. axis [0,0,-1]      

 cryst.   s( 3) = (    -1         -1          0      )    f =(  0.0000000 )
                  (     1          0          0      )       ( -0.3333333 )
                  (     0          0          1      )       (  0.0000000 )

 cart.    s( 3) = ( -0.5000000  0.8660254  0.0000000 )    f =(  0.1666667 )
                  ( -0.8660254 -0.5000000  0.0000000 )       ( -0.2886751 )
                  (  0.0000000  0.0000000  1.0000000 )       (  0.0000000 )


      isym =  4     inv. 180 deg rotation - cart. axis [1,0,0]   

 cryst.   s( 4) = (    -1          0          0      )
                  (     1          1          0      )
                  (     0          0          1      )

 cart.    s( 4) = ( -1.0000000  0.0000000  0.0000000 )
                  (  0.0000000  1.0000000  0.0000000 )
                  (  0.0000000  0.0000000  1.0000000 )


      isym =  5     inv. 180 deg rotation - cryst. axis [0,1,0]  

 cryst.   s( 5) = (     1          1          0      )    f =(  0.0000000 )
                  (     0         -1          0      )       ( -0.3333333 )
                  (     0          0          1      )       (  0.0000000 )

 cart.    s( 5) = (  0.5000000  0.8660254  0.0000000 )    f =(  0.1666667 )
                  (  0.8660254 -0.5000000  0.0000000 )       ( -0.2886751 )
                  (  0.0000000  0.0000000  1.0000000 )       (  0.0000000 )


      isym =  6     inv. 180 deg rotation - cryst. axis [1,1,0]  

 cryst.   s( 6) = (     0         -1          0      )    f =( -0.3333333 )
                  (    -1          0          0      )       ( -0.3333333 )
                  (     0          0          1      )       (  0.0000000 )

 cart.    s( 6) = (  0.5000000 -0.8660254  0.0000000 )    f =( -0.1666667 )
                  ( -0.8660254 -0.5000000  0.0000000 )       ( -0.2886751 )
                  (  0.0000000  0.0000000  1.0000000 )       (  0.0000000 )


   Cartesian axes

     site n.     atom                  positions (alat units)
         1        Ga     tau(   1) = (   0.0000000   0.1924501   0.0000000  )
         2        Ga     tau(   2) = (   0.1666667   0.0962250   0.2717391  )
         3        C      tau(   3) = (   0.0000000   0.1924501   0.2045554  )
         4        N      tau(   4) = (   0.1666667   0.0962250   0.4762946  )
         5        Ga     tau(   5) = (   0.3333333   0.1924501   0.0000000  )
         6        Ga     tau(   6) = (   0.5000000   0.0962250   0.2717391  )
         7        N      tau(   7) = (   0.3333333   0.1924501   0.2045554  )
         8        N      tau(   8) = (   0.5000000   0.0962250   0.4762946  )
         9        Ga     tau(   9) = (   0.6666667   0.1924501   0.0000000  )
        10        Ga     tau(  10) = (   0.8333333   0.0962250   0.2717391  )
        11        N      tau(  11) = (   0.6666667   0.1924501   0.2045554  )
        12        N      tau(  12) = (   0.8333333   0.0962250   0.4762946  )
        13        Ga     tau(  13) = (  -0.1666667   0.4811252   0.0000000  )
        14        Ga     tau(  14) = (   0.0000000   0.3849002   0.2717391  )
        15        N      tau(  15) = (  -0.1666667   0.4811252   0.2045554  )
        16        N      tau(  16) = (   0.0000000   0.3849002   0.4762946  )
        17        Ga     tau(  17) = (   0.1666667   0.4811252   0.0000000  )
        18        Ga     tau(  18) = (   0.3333333   0.3849002   0.2717391  )
        19        N      tau(  19) = (   0.1666667   0.4811252   0.2045554  )
        20        N      tau(  20) = (   0.3333333   0.3849002   0.4762946  )
        21        Ga     tau(  21) = (   0.5000000   0.4811252   0.0000000  )
        22        Ga     tau(  22) = (   0.6666667   0.3849002   0.2717391  )
        23        N      tau(  23) = (   0.5000000   0.4811252   0.2045554  )
        24        N      tau(  24) = (   0.6666667   0.3849002   0.4762946  )
        25        Ga     tau(  25) = (  -0.3333333   0.7698004   0.0000000  )
        26        Ga     tau(  26) = (  -0.1666667   0.6735753   0.2717391  )
        27        N      tau(  27) = (  -0.3333333   0.7698004   0.2045554  )
        28        N      tau(  28) = (  -0.1666667   0.6735753   0.4762946  )
        29        Ga     tau(  29) = (   0.0000000   0.7698004   0.0000000  )
        30        Ga     tau(  30) = (   0.1666667   0.6735753   0.2717391  )
        31        N      tau(  31) = (   0.0000000   0.7698004   0.2045554  )
        32        N      tau(  32) = (   0.1666667   0.6735753   0.4762946  )
        33        Ga     tau(  33) = (   0.3333333   0.7698004   0.0000000  )
        34        Ga     tau(  34) = (   0.5000000   0.6735753   0.2717391  )
        35        N      tau(  35) = (   0.3333333   0.7698004   0.2045554  )
        36        N      tau(  36) = (   0.5000000   0.6735753   0.4762946  )
        37        Ga     tau(  37) = (   0.0000000   0.1924501   0.5434783  )
        38        Ga     tau(  38) = (   0.1666667   0.0962250   0.8152174  )
        39        N      tau(  39) = (   0.0000000   0.1924501   0.7480337  )
        40        N      tau(  40) = (   0.1666667   0.0962250   1.0197728  )
        41        Ga     tau(  41) = (   0.3333333   0.1924501   0.5434783  )
        42        Ga     tau(  42) = (   0.5000000   0.0962250   0.8152174  )
        43        N      tau(  43) = (   0.3333333   0.1924501   0.7480337  )
        44        N      tau(  44) = (   0.5000000   0.0962250   1.0197728  )
        45        Ga     tau(  45) = (   0.6666667   0.1924501   0.5434783  )
        46        Ga     tau(  46) = (   0.8333333   0.0962250   0.8152174  )
        47        N      tau(  47) = (   0.6666667   0.1924501   0.7480337  )
        48        N      tau(  48) = (   0.8333333   0.0962250   1.0197728  )
        49        Ga     tau(  49) = (  -0.1666667   0.4811252   0.5434783  )
        50        Ga     tau(  50) = (   0.0000000   0.3849002   0.8152174  )
        51        N      tau(  51) = (  -0.1666667   0.4811252   0.7480337  )
        52        N      tau(  52) = (   0.0000000   0.3849002   1.0197728  )
        53        Ga     tau(  53) = (   0.1666667   0.4811252   0.5434783  )
        54        Ga     tau(  54) = (   0.3333333   0.3849002   0.8152174  )
        55        N      tau(  55) = (   0.1666667   0.4811252   0.7480337  )
        56        N      tau(  56) = (   0.3333333   0.3849002   1.0197728  )
        57        Ga     tau(  57) = (   0.5000000   0.4811252   0.5434783  )
        58        Ga     tau(  58) = (   0.6666667   0.3849002   0.8152174  )
        59        N      tau(  59) = (   0.5000000   0.4811252   0.7480337  )
        60        N      tau(  60) = (   0.6666667   0.3849002   1.0197728  )
        61        Ga     tau(  61) = (  -0.3333333   0.7698004   0.5434783  )
        62        Ga     tau(  62) = (  -0.1666667   0.6735753   0.8152174  )
        63        N      tau(  63) = (  -0.3333333   0.7698004   0.7480337  )
        64        N      tau(  64) = (  -0.1666667   0.6735753   1.0197728  )
        65        Ga     tau(  65) = (   0.0000000   0.7698004   0.5434783  )
        66        Ga     tau(  66) = (   0.1666667   0.6735753   0.8152174  )
        67        N      tau(  67) = (   0.0000000   0.7698004   0.7480337  )
        68        N      tau(  68) = (   0.1666667   0.6735753   1.0197728  )
        69        Ga     tau(  69) = (   0.3333333   0.7698004   0.5434783  )
        70        Ga     tau(  70) = (   0.5000000   0.6735753   0.8152174  )
        71        N      tau(  71) = (   0.3333333   0.7698004   0.7480337  )
        72        N      tau(  72) = (   0.5000000   0.6735753   1.0197728  )
        73        Ga     tau(  73) = (   0.0000000   0.1924501   1.0869565  )
        74        Ga     tau(  74) = (   0.1666667   0.0962250   1.3586957  )
        75        N      tau(  75) = (   0.0000000   0.1924501   1.2915120  )
        76        N      tau(  76) = (   0.1666667   0.0962250   1.5632511  )
        77        Ga     tau(  77) = (   0.3333333   0.1924501   1.0869565  )
        78        Ga     tau(  78) = (   0.5000000   0.0962250   1.3586957  )
        79        N      tau(  79) = (   0.3333333   0.1924501   1.2915120  )
        80        N      tau(  80) = (   0.5000000   0.0962250   1.5632511  )
        81        Ga     tau(  81) = (   0.6666667   0.1924501   1.0869565  )
        82        Ga     tau(  82) = (   0.8333333   0.0962250   1.3586957  )
        83        N      tau(  83) = (   0.6666667   0.1924501   1.2915120  )
        84        N      tau(  84) = (   0.8333333   0.0962250   1.5632511  )
        85        Ga     tau(  85) = (  -0.1666667   0.4811252   1.0869565  )
        86        Ga     tau(  86) = (   0.0000000   0.3849002   1.3586957  )
        87        N      tau(  87) = (  -0.1666667   0.4811252   1.2915120  )
        88        N      tau(  88) = (   0.0000000   0.3849002   1.5632511  )
        89        Ga     tau(  89) = (   0.1666667   0.4811252   1.0869565  )
        90        Ga     tau(  90) = (   0.3333333   0.3849002   1.3586957  )
        91        N      tau(  91) = (   0.1666667   0.4811252   1.2915120  )
        92        N      tau(  92) = (   0.3333333   0.3849002   1.5632511  )
        93        Ga     tau(  93) = (   0.5000000   0.4811252   1.0869565  )
        94        Ga     tau(  94) = (   0.6666667   0.3849002   1.3586957  )
        95        N      tau(  95) = (   0.5000000   0.4811252   1.2915120  )
        96        N      tau(  96) = (   0.6666667   0.3849002   1.5632511  )
        97        Ga     tau(  97) = (  -0.3333333   0.7698004   1.0869565  )
        98        Ga     tau(  98) = (  -0.1666667   0.6735753   1.3586957  )
        99        N      tau(  99) = (  -0.3333333   0.7698004   1.2915120  )
       100        N      tau( 100) = (  -0.1666667   0.6735753   1.5632511  )
       101        Ga     tau( 101) = (   0.0000000   0.7698004   1.0869565  )
       102        Ga     tau( 102) = (   0.1666667   0.6735753   1.3586957  )
       103        N      tau( 103) = (   0.0000000   0.7698004   1.2915120  )
       104        N      tau( 104) = (   0.1666667   0.6735753   1.5632511  )
       105        Ga     tau( 105) = (   0.3333333   0.7698004   1.0869565  )
       106        Ga     tau( 106) = (   0.5000000   0.6735753   1.3586957  )
       107        N      tau( 107) = (   0.3333333   0.7698004   1.2915120  )
       108        N      tau( 108) = (   0.5000000   0.6735753   1.5632511  )

   Crystallographic axes

     site n.     atom                  positions (cryst. coord.)
         1        Ga     tau(   1) = (  0.1111111  0.2222222  0.0000000  )
         2        Ga     tau(   2) = (  0.2222222  0.1111111  0.1666667  )
         3        C      tau(   3) = (  0.1111111  0.2222222  0.1254607  )
         4        N      tau(   4) = (  0.2222222  0.1111111  0.2921273  )
         5        Ga     tau(   5) = (  0.4444444  0.2222222  0.0000000  )
         6        Ga     tau(   6) = (  0.5555556  0.1111111  0.1666667  )
         7        N      tau(   7) = (  0.4444444  0.2222222  0.1254607  )
         8        N      tau(   8) = (  0.5555556  0.1111111  0.2921273  )
         9        Ga     tau(   9) = (  0.7777778  0.2222222  0.0000000  )
        10        Ga     tau(  10) = (  0.8888889  0.1111111  0.1666667  )
        11        N      tau(  11) = (  0.7777778  0.2222222  0.1254607  )
        12        N      tau(  12) = (  0.8888889  0.1111111  0.2921273  )
        13        Ga     tau(  13) = (  0.1111111  0.5555556  0.0000000  )
        14        Ga     tau(  14) = (  0.2222222  0.4444444  0.1666667  )
        15        N      tau(  15) = (  0.1111111  0.5555556  0.1254607  )
        16        N      tau(  16) = (  0.2222222  0.4444444  0.2921273  )
        17        Ga     tau(  17) = (  0.4444444  0.5555556  0.0000000  )
        18        Ga     tau(  18) = (  0.5555556  0.4444444  0.1666667  )
        19        N      tau(  19) = (  0.4444444  0.5555556  0.1254607  )
        20        N      tau(  20) = (  0.5555556  0.4444444  0.2921273  )
        21        Ga     tau(  21) = (  0.7777778  0.5555556  0.0000000  )
        22        Ga     tau(  22) = (  0.8888889  0.4444444  0.1666667  )
        23        N      tau(  23) = (  0.7777778  0.5555556  0.1254607  )
        24        N      tau(  24) = (  0.8888889  0.4444444  0.2921273  )
        25        Ga     tau(  25) = (  0.1111111  0.8888889  0.0000000  )
        26        Ga     tau(  26) = (  0.2222222  0.7777778  0.1666667  )
        27        N      tau(  27) = (  0.1111111  0.8888889  0.1254607  )
        28        N      tau(  28) = (  0.2222222  0.7777778  0.2921273  )
        29        Ga     tau(  29) = (  0.4444444  0.8888889  0.0000000  )
        30        Ga     tau(  30) = (  0.5555556  0.7777778  0.1666667  )
        31        N      tau(  31) = (  0.4444444  0.8888889  0.1254607  )
        32        N      tau(  32) = (  0.5555556  0.7777778  0.2921273  )
        33        Ga     tau(  33) = (  0.7777778  0.8888889  0.0000000  )
        34        Ga     tau(  34) = (  0.8888889  0.7777778  0.1666667  )
        35        N      tau(  35) = (  0.7777778  0.8888889  0.1254607  )
        36        N      tau(  36) = (  0.8888889  0.7777778  0.2921273  )
        37        Ga     tau(  37) = (  0.1111111  0.2222222  0.3333333  )
        38        Ga     tau(  38) = (  0.2222222  0.1111111  0.5000000  )
        39        N      tau(  39) = (  0.1111111  0.2222222  0.4587940  )
        40        N      tau(  40) = (  0.2222222  0.1111111  0.6254607  )
        41        Ga     tau(  41) = (  0.4444444  0.2222222  0.3333333  )
        42        Ga     tau(  42) = (  0.5555556  0.1111111  0.5000000  )
        43        N      tau(  43) = (  0.4444444  0.2222222  0.4587940  )
        44        N      tau(  44) = (  0.5555556  0.1111111  0.6254607  )
        45        Ga     tau(  45) = (  0.7777778  0.2222222  0.3333333  )
        46        Ga     tau(  46) = (  0.8888889  0.1111111  0.5000000  )
        47        N      tau(  47) = (  0.7777778  0.2222222  0.4587940  )
        48        N      tau(  48) = (  0.8888889  0.1111111  0.6254607  )
        49        Ga     tau(  49) = (  0.1111111  0.5555556  0.3333333  )
        50        Ga     tau(  50) = (  0.2222222  0.4444444  0.5000000  )
        51        N      tau(  51) = (  0.1111111  0.5555556  0.4587940  )
        52        N      tau(  52) = (  0.2222222  0.4444444  0.6254607  )
        53        Ga     tau(  53) = (  0.4444444  0.5555556  0.3333333  )
        54        Ga     tau(  54) = (  0.5555556  0.4444444  0.5000000  )
        55        N      tau(  55) = (  0.4444444  0.5555556  0.4587940  )
        56        N      tau(  56) = (  0.5555556  0.4444444  0.6254607  )
        57        Ga     tau(  57) = (  0.7777778  0.5555556  0.3333333  )
        58        Ga     tau(  58) = (  0.8888889  0.4444444  0.5000000  )
        59        N      tau(  59) = (  0.7777778  0.5555556  0.4587940  )
        60        N      tau(  60) = (  0.8888889  0.4444444  0.6254607  )
        61        Ga     tau(  61) = (  0.1111111  0.8888889  0.3333333  )
        62        Ga     tau(  62) = (  0.2222222  0.7777778  0.5000000  )
        63        N      tau(  63) = (  0.1111111  0.8888889  0.4587940  )
        64        N      tau(  64) = (  0.2222222  0.7777778  0.6254607  )
        65        Ga     tau(  65) = (  0.4444444  0.8888889  0.3333333  )
        66        Ga     tau(  66) = (  0.5555556  0.7777778  0.5000000  )
        67        N      tau(  67) = (  0.4444444  0.8888889  0.4587940  )
        68        N      tau(  68) = (  0.5555556  0.7777778  0.6254607  )
        69        Ga     tau(  69) = (  0.7777778  0.8888889  0.3333333  )
        70        Ga     tau(  70) = (  0.8888889  0.7777778  0.5000000  )
        71        N      tau(  71) = (  0.7777778  0.8888889  0.4587940  )
        72        N      tau(  72) = (  0.8888889  0.7777778  0.6254607  )
        73        Ga     tau(  73) = (  0.1111111  0.2222222  0.6666667  )
        74        Ga     tau(  74) = (  0.2222222  0.1111111  0.8333333  )
        75        N      tau(  75) = (  0.1111111  0.2222222  0.7921273  )
        76        N      tau(  76) = (  0.2222222  0.1111111  0.9587940  )
        77        Ga     tau(  77) = (  0.4444444  0.2222222  0.6666667  )
        78        Ga     tau(  78) = (  0.5555556  0.1111111  0.8333333  )
        79        N      tau(  79) = (  0.4444444  0.2222222  0.7921273  )
        80        N      tau(  80) = (  0.5555556  0.1111111  0.9587940  )
        81        Ga     tau(  81) = (  0.7777778  0.2222222  0.6666667  )
        82        Ga     tau(  82) = (  0.8888889  0.1111111  0.8333333  )
        83        N      tau(  83) = (  0.7777778  0.2222222  0.7921273  )
        84        N      tau(  84) = (  0.8888889  0.1111111  0.9587940  )
        85        Ga     tau(  85) = (  0.1111111  0.5555556  0.6666667  )
        86        Ga     tau(  86) = (  0.2222222  0.4444444  0.8333333  )
        87        N      tau(  87) = (  0.1111111  0.5555556  0.7921273  )
        88        N      tau(  88) = (  0.2222222  0.4444444  0.9587940  )
        89        Ga     tau(  89) = (  0.4444444  0.5555556  0.6666667  )
        90        Ga     tau(  90) = (  0.5555556  0.4444444  0.8333333  )
        91        N      tau(  91) = (  0.4444444  0.5555556  0.7921273  )
        92        N      tau(  92) = (  0.5555556  0.4444444  0.9587940  )
        93        Ga     tau(  93) = (  0.7777778  0.5555556  0.6666667  )
        94        Ga     tau(  94) = (  0.8888889  0.4444444  0.8333333  )
        95        N      tau(  95) = (  0.7777778  0.5555556  0.7921273  )
        96        N      tau(  96) = (  0.8888889  0.4444444  0.9587940  )
        97        Ga     tau(  97) = (  0.1111111  0.8888889  0.6666667  )
        98        Ga     tau(  98) = (  0.2222222  0.7777778  0.8333333  )
        99        N      tau(  99) = (  0.1111111  0.8888889  0.7921273  )
       100        N      tau( 100) = (  0.2222222  0.7777778  0.9587940  )
       101        Ga     tau( 101) = (  0.4444444  0.8888889  0.6666667  )
       102        Ga     tau( 102) = (  0.5555556  0.7777778  0.8333333  )
       103        N      tau( 103) = (  0.4444444  0.8888889  0.7921273  )
       104        N      tau( 104) = (  0.5555556  0.7777778  0.9587940  )
       105        Ga     tau( 105) = (  0.7777778  0.8888889  0.6666667  )
       106        Ga     tau( 106) = (  0.8888889  0.7777778  0.8333333  )
       107        N      tau( 107) = (  0.7777778  0.8888889  0.7921273  )
       108        N      tau( 108) = (  0.8888889  0.7777778  0.9587940  )

     number of k points=     2  Gaussian smearing, width (Ry)=  0.0010
                       cart. coord. in units 2pi/alat
        k(    1) = (   0.0000000   0.0000000   0.0000000), wk =   0.2500000
        k(    2) = (   0.0000000  -0.5773503   0.0000000), wk =   0.7500000

                       cryst. coord.
        k(    1) = (   0.0000000   0.0000000   0.0000000), wk =   0.2500000
        k(    2) = (   0.0000000  -0.5000000   0.0000000), wk =   0.7500000

     Dense  grid:  2685887 G-vectors     FFT dimensions: ( 162, 162, 256)

     Smooth grid:   679695 G-vectors     FFT dimensions: ( 108, 108, 160)

     Dynamical RAM for                 wfc:      55.41 MB

     Dynamical RAM for     wfc (w. buffer):     277.06 MB

     Dynamical RAM for           str. fact:      10.25 MB

     Dynamical RAM for           local pot:       0.00 MB

     Dynamical RAM for          nlocal pot:     151.66 MB

     Dynamical RAM for                qrad:       6.37 MB

     Dynamical RAM for          rho,v,vnew:      46.92 MB

     Dynamical RAM for               rhoin:      15.64 MB

     Dynamical RAM for            rho*nmix:     109.29 MB

     Dynamical RAM for           G-vectors:      13.24 MB

     Dynamical RAM for          h,s,v(r/c):       5.35 MB

     Dynamical RAM for          <psi|beta>:      10.99 MB

     Dynamical RAM for                 psi:     110.83 MB

     Dynamical RAM for                hpsi:     110.83 MB

     Dynamical RAM for                spsi:     110.83 MB

     Dynamical RAM for      wfcinit/wfcrot:     162.94 MB

     Dynamical RAM for           addusdens:     823.08 MB

     Dynamical RAM for          addusforce:    1185.53 MB

     Estimated static dynamical RAM per process >     561.22 MB

     Estimated max dynamical RAM per process >       1.81 GB

     Estimated total dynamical RAM >      21.75 GB
     Generating pointlists ...
     new r_m :   0.0841 (alat units)  1.5349 (a.u.) for type    1
     new r_m :   0.0841 (alat units)  1.5349 (a.u.) for type    2
     new r_m :   0.0841 (alat units)  1.5349 (a.u.) for type    3

     Initial potential from superposition of free atoms

     starting charge     970.8401, renormalised to     971.0000
     Starting wfcs are  702 randomized atomic wfcs
     Checking if some PAW data can be deallocated... 
       PAW data deallocated on   11 nodes for type:  3

     total cpu time spent up to now is       55.1 secs

     Self-consistent Calculation

     iteration #  1     ecut=    70.00 Ry     beta= 0.70
     Davidson diagonalization with overlap

---- Real-time Memory Report at c_bands before calling an iterative solver
          1085 MiB given to the printing process from OS
             0 MiB allocation reported by mallinfo(arena+hblkhd)
         14271 MiB available memory on the node where the printing process lives
------------------
     ethr =  1.00E-02,  avg # of iterations =  2.0

     total cpu time spent up to now is      165.9 secs

     total energy              =  -16505.01588473 Ry
     estimated scf accuracy    <      30.05645156 Ry

     total magnetization       =     1.00 Bohr mag/cell
     absolute magnetization    =     2.60 Bohr mag/cell

     iteration #  2     ecut=    70.00 Ry     beta= 0.70
     Davidson diagonalization with overlap

---- Real-time Memory Report at c_bands before calling an iterative solver
          1656 MiB given to the printing process from OS
             0 MiB allocation reported by mallinfo(arena+hblkhd)
         14067 MiB available memory on the node where the printing process lives
------------------
     ethr =  3.10E-03,  avg # of iterations =  6.5

     total cpu time spent up to now is      335.7 secs

     total energy              =  -16516.93975407 Ry
     estimated scf accuracy    <      38.21974905 Ry

     total magnetization       =     0.15 Bohr mag/cell
     absolute magnetization    =     0.95 Bohr mag/cell

     iteration #  3     ecut=    70.00 Ry     beta= 0.70
     Davidson diagonalization with overlap

---- Real-time Memory Report at c_bands before calling an iterative solver
          1768 MiB given to the printing process from OS
             0 MiB allocation reported by mallinfo(arena+hblkhd)
         13128 MiB available memory on the node where the printing process lives
------------------
     ethr =  3.10E-03,  avg # of iterations =  2.0

     total cpu time spent up to now is      458.9 secs

     total energy              =  -16524.05503493 Ry
     estimated scf accuracy    <       1.34662750 Ry

     total magnetization       =     1.24 Bohr mag/cell
     absolute magnetization    =     1.68 Bohr mag/cell

     iteration #  4     ecut=    70.00 Ry     beta= 0.70
     Davidson diagonalization with overlap

---- Real-time Memory Report at c_bands before calling an iterative solver
          1771 MiB given to the printing process from OS
             0 MiB allocation reported by mallinfo(arena+hblkhd)
         13065 MiB available memory on the node where the printing process lives
------------------
     ethr =  1.39E-04,  avg # of iterations = 13.2

     total cpu time spent up to now is      697.8 secs

     total energy              =  -16525.43255905 Ry
     estimated scf accuracy    <       1.05058329 Ry

     total magnetization       =     0.00 Bohr mag/cell
     absolute magnetization    =     0.69 Bohr mag/cell

     iteration #  5     ecut=    70.00 Ry     beta= 0.70
     Davidson diagonalization with overlap

---- Real-time Memory Report at c_bands before calling an iterative solver
          1819 MiB given to the printing process from OS
             0 MiB allocation reported by mallinfo(arena+hblkhd)
         12615 MiB available memory on the node where the printing process lives
------------------
     ethr =  1.08E-04,  avg # of iterations =  2.0

     total cpu time spent up to now is      804.9 secs

     total energy              =  -16525.49740145 Ry
     estimated scf accuracy    <       0.45744083 Ry

     total magnetization       =     1.00 Bohr mag/cell
     absolute magnetization    =     1.34 Bohr mag/cell

     iteration #  6     ecut=    70.00 Ry     beta= 0.70
     Davidson diagonalization with overlap

---- Real-time Memory Report at c_bands before calling an iterative solver
          1819 MiB given to the printing process from OS
             0 MiB allocation reported by mallinfo(arena+hblkhd)
         12641 MiB available memory on the node where the printing process lives
------------------
     ethr =  4.71E-05,  avg # of iterations = 16.2

     total cpu time spent up to now is      973.9 secs

     total energy              =  -16525.54143013 Ry
     estimated scf accuracy    <       1.26712489 Ry

     total magnetization       =     0.00 Bohr mag/cell
     absolute magnetization    =     0.52 Bohr mag/cell

     iteration #  7     ecut=    70.00 Ry     beta= 0.70
     Davidson diagonalization with overlap

---- Real-time Memory Report at c_bands before calling an iterative solver
          1878 MiB given to the printing process from OS
             0 MiB allocation reported by mallinfo(arena+hblkhd)
         12111 MiB available memory on the node where the printing process lives
------------------
     c_bands:  1 eigenvalues not converged
     ethr =  4.71E-05,  avg # of iterations = 16.0

     total cpu time spent up to now is     1132.0 secs

     total energy              =  -16525.52865335 Ry
     estimated scf accuracy    <       0.91737106 Ry

     total magnetization       =     0.00 Bohr mag/cell
     absolute magnetization    =     0.56 Bohr mag/cell

     iteration #  8     ecut=    70.00 Ry     beta= 0.70
     Davidson diagonalization with overlap

---- Real-time Memory Report at c_bands before calling an iterative solver
          1902 MiB given to the printing process from OS
             0 MiB allocation reported by mallinfo(arena+hblkhd)
         11938 MiB available memory on the node where the printing process lives
------------------
     ethr =  4.71E-05,  avg # of iterations =  9.8

     total cpu time spent up to now is     1260.7 secs

     total energy              =  -16525.54228739 Ry
     estimated scf accuracy    <       0.44163699 Ry

     total magnetization       =     0.00 Bohr mag/cell
     absolute magnetization    =     0.56 Bohr mag/cell

     iteration #  9     ecut=    70.00 Ry     beta= 0.70
     Davidson diagonalization with overlap

---- Real-time Memory Report at c_bands before calling an iterative solver
          1902 MiB given to the printing process from OS
             0 MiB allocation reported by mallinfo(arena+hblkhd)
         12008 MiB available memory on the node where the printing process lives
------------------
     ethr =  4.55E-05,  avg # of iterations =  2.0

     total cpu time spent up to now is     1367.8 secs

     total energy              =  -16525.54334629 Ry
     estimated scf accuracy    <       0.16921662 Ry

     total magnetization       =     0.41 Bohr mag/cell
     absolute magnetization    =     0.80 Bohr mag/cell

     iteration # 10     ecut=    70.00 Ry     beta= 0.70
     Davidson diagonalization with overlap

---- Real-time Memory Report at c_bands before calling an iterative solver
          1902 MiB given to the printing process from OS
             0 MiB allocation reported by mallinfo(arena+hblkhd)
         12065 MiB available memory on the node where the printing process lives
------------------
     c_bands:  1 eigenvalues not converged
     ethr =  1.74E-05,  avg # of iterations = 16.0

     total cpu time spent up to now is     1494.2 secs

     total energy              =  -16525.54801259 Ry
     estimated scf accuracy    <       0.03406163 Ry

     total magnetization       =     0.99 Bohr mag/cell
     absolute magnetization    =     1.25 Bohr mag/cell

     iteration # 11     ecut=    70.00 Ry     beta= 0.70
     Davidson diagonalization with overlap

---- Real-time Memory Report at c_bands before calling an iterative solver
          1902 MiB given to the printing process from OS
             0 MiB allocation reported by mallinfo(arena+hblkhd)
         11964 MiB available memory on the node where the printing process lives
------------------
     c_bands:  2 eigenvalues not converged
     c_bands:  3 eigenvalues not converged
     ethr =  3.51E-06,  avg # of iterations = 18.0

     total cpu time spent up to now is     1691.4 secs

     total energy              =  -16525.56218328 Ry
     estimated scf accuracy    <       0.00767301 Ry

     total magnetization       =     1.00 Bohr mag/cell
     absolute magnetization    =     1.25 Bohr mag/cell

     iteration # 12     ecut=    70.00 Ry     beta= 0.70
     Davidson diagonalization with overlap

---- Real-time Memory Report at c_bands before calling an iterative solver
          1961 MiB given to the printing process from OS
             0 MiB allocation reported by mallinfo(arena+hblkhd)
         11435 MiB available memory on the node where the printing process lives
------------------
     c_bands:  1 eigenvalues not converged
     c_bands:  1 eigenvalues not converged
     ethr =  7.90E-07,  avg # of iterations = 12.5

     total cpu time spent up to now is     1818.1 secs

     total energy              =  -16525.56202464 Ry
     estimated scf accuracy    <       0.00631830 Ry

     total magnetization       =     1.00 Bohr mag/cell
     absolute magnetization    =     1.25 Bohr mag/cell

     iteration # 13     ecut=    70.00 Ry     beta= 0.70
     Davidson diagonalization with overlap

---- Real-time Memory Report at c_bands before calling an iterative solver
          1961 MiB given to the printing process from OS
             0 MiB allocation reported by mallinfo(arena+hblkhd)
         11695 MiB available memory on the node where the printing process lives
------------------
     c_bands:  1 eigenvalues not converged
     ethr =  6.51E-07,  avg # of iterations = 14.8

     total cpu time spent up to now is     1945.3 secs

     total energy              =  -16525.56237177 Ry
     estimated scf accuracy    <       0.00107080 Ry

     total magnetization       =     1.00 Bohr mag/cell
     absolute magnetization    =     1.24 Bohr mag/cell

     iteration # 14     ecut=    70.00 Ry     beta= 0.70
     Davidson diagonalization with overlap

---- Real-time Memory Report at c_bands before calling an iterative solver
          1961 MiB given to the printing process from OS
             0 MiB allocation reported by mallinfo(arena+hblkhd)
         11664 MiB available memory on the node where the printing process lives
------------------
     c_bands:  2 eigenvalues not converged
     ethr =  1.10E-07,  avg # of iterations = 12.2

     total cpu time spent up to now is     2188.0 secs

     total energy              =  -16525.56328840 Ry
     estimated scf accuracy    <       0.00019674 Ry

     total magnetization       =     1.00 Bohr mag/cell
     absolute magnetization    =     1.22 Bohr mag/cell

     iteration # 15     ecut=    70.00 Ry     beta= 0.70
     Davidson diagonalization with overlap

---- Real-time Memory Report at c_bands before calling an iterative solver
          1961 MiB given to the printing process from OS
             0 MiB allocation reported by mallinfo(arena+hblkhd)
         11300 MiB available memory on the node where the printing process lives
------------------
     c_bands:  1 eigenvalues not converged
     ethr =  2.03E-08,  avg # of iterations = 12.8

     total cpu time spent up to now is     2399.0 secs

     total energy              =  -16525.56341268 Ry
     estimated scf accuracy    <       0.00007189 Ry

     total magnetization       =     1.00 Bohr mag/cell
     absolute magnetization    =     1.21 Bohr mag/cell

     iteration # 16     ecut=    70.00 Ry     beta= 0.70
     Davidson diagonalization with overlap

---- Real-time Memory Report at c_bands before calling an iterative solver
          1961 MiB given to the printing process from OS
             0 MiB allocation reported by mallinfo(arena+hblkhd)
         11402 MiB available memory on the node where the printing process lives
------------------
     ethr =  7.40E-09,  avg # of iterations =  5.5

     total cpu time spent up to now is     2535.6 secs

     total energy              =  -16525.56342003 Ry
     estimated scf accuracy    <       0.00007281 Ry

     total magnetization       =     1.00 Bohr mag/cell
     absolute magnetization    =     1.21 Bohr mag/cell

     iteration # 17     ecut=    70.00 Ry     beta= 0.70
     Davidson diagonalization with overlap

---- Real-time Memory Report at c_bands before calling an iterative solver
          1961 MiB given to the printing process from OS
             0 MiB allocation reported by mallinfo(arena+hblkhd)
         11346 MiB available memory on the node where the printing process lives
------------------
     ethr =  7.40E-09,  avg # of iterations =  2.0

     total cpu time spent up to now is     2643.4 secs

     total energy              =  -16525.56341890 Ry
     estimated scf accuracy    <       0.00003687 Ry

     total magnetization       =     1.00 Bohr mag/cell
     absolute magnetization    =     1.20 Bohr mag/cell

     iteration # 18     ecut=    70.00 Ry     beta= 0.70
     Davidson diagonalization with overlap

---- Real-time Memory Report at c_bands before calling an iterative solver
          1961 MiB given to the printing process from OS
             0 MiB allocation reported by mallinfo(arena+hblkhd)
         11279 MiB available memory on the node where the printing process lives
------------------
     ethr =  3.80E-09,  avg # of iterations =  6.2

     total cpu time spent up to now is     2793.4 secs

     total energy              =  -16525.56342380 Ry
     estimated scf accuracy    <       0.00003453 Ry

     total magnetization       =     1.00 Bohr mag/cell
     absolute magnetization    =     1.20 Bohr mag/cell

     iteration # 19     ecut=    70.00 Ry     beta= 0.70
     Davidson diagonalization with overlap

---- Real-time Memory Report at c_bands before calling an iterative solver
          1961 MiB given to the printing process from OS
             0 MiB allocation reported by mallinfo(arena+hblkhd)
         11396 MiB available memory on the node where the printing process lives
------------------
     ethr =  3.56E-09,  avg # of iterations =  2.5

     total cpu time spent up to now is     2907.7 secs

     total energy              =  -16525.56342795 Ry
     estimated scf accuracy    <       0.00000965 Ry

     total magnetization       =     1.00 Bohr mag/cell
     absolute magnetization    =     1.19 Bohr mag/cell

     iteration # 20     ecut=    70.00 Ry     beta= 0.70
     Davidson diagonalization with overlap

---- Real-time Memory Report at c_bands before calling an iterative solver
          1961 MiB given to the printing process from OS
             0 MiB allocation reported by mallinfo(arena+hblkhd)
         11394 MiB available memory on the node where the printing process lives
------------------
     ethr =  9.94E-10,  avg # of iterations =  7.2

     total cpu time spent up to now is     3109.9 secs

     total energy              =  -16525.56343346 Ry
     estimated scf accuracy    <       0.00000374 Ry

     total magnetization       =     1.00 Bohr mag/cell
     absolute magnetization    =     1.19 Bohr mag/cell

     iteration # 21     ecut=    70.00 Ry     beta= 0.70
     Davidson diagonalization with overlap

---- Real-time Memory Report at c_bands before calling an iterative solver
          1961 MiB given to the printing process from OS
             0 MiB allocation reported by mallinfo(arena+hblkhd)
         11271 MiB available memory on the node where the printing process lives
------------------
     ethr =  3.85E-10,  avg # of iterations =  4.2

     total cpu time spent up to now is     3248.1 secs

     total energy              =  -16525.56343344 Ry
     estimated scf accuracy    <       0.00000266 Ry

     total magnetization       =     1.00 Bohr mag/cell
     absolute magnetization    =     1.19 Bohr mag/cell

     iteration # 22     ecut=    70.00 Ry     beta= 0.70
     Davidson diagonalization with overlap

---- Real-time Memory Report at c_bands before calling an iterative solver
          1961 MiB given to the printing process from OS
             0 MiB allocation reported by mallinfo(arena+hblkhd)
         11464 MiB available memory on the node where the printing process lives
------------------
     ethr =  2.74E-10,  avg # of iterations =  3.2

     total cpu time spent up to now is     3365.6 secs

     total energy              =  -16525.56343349 Ry
     estimated scf accuracy    <       0.00000056 Ry

     total magnetization       =     1.00 Bohr mag/cell
     absolute magnetization    =     1.19 Bohr mag/cell

     iteration # 23     ecut=    70.00 Ry     beta= 0.70
     Davidson diagonalization with overlap

---- Real-time Memory Report at c_bands before calling an iterative solver
          1961 MiB given to the printing process from OS
             0 MiB allocation reported by mallinfo(arena+hblkhd)
         11522 MiB available memory on the node where the printing process lives
------------------
     ethr =  5.81E-11,  avg # of iterations =  9.2

     total cpu time spent up to now is     3696.5 secs

     total energy              =  -16525.56343407 Ry
     estimated scf accuracy    <       0.00000099 Ry

     total magnetization       =     1.00 Bohr mag/cell
     absolute magnetization    =     1.19 Bohr mag/cell

     iteration # 24     ecut=    70.00 Ry     beta= 0.70
     Davidson diagonalization with overlap

---- Real-time Memory Report at c_bands before calling an iterative solver
          1970 MiB given to the printing process from OS
             0 MiB allocation reported by mallinfo(arena+hblkhd)
         11186 MiB available memory on the node where the printing process lives
------------------
     ethr =  5.81E-11,  avg # of iterations =  3.0

     total cpu time spent up to now is     3815.8 secs

     total energy              =  -16525.56343414 Ry
     estimated scf accuracy    <       0.00000018 Ry

     total magnetization       =     1.00 Bohr mag/cell
     absolute magnetization    =     1.19 Bohr mag/cell

     iteration # 25     ecut=    70.00 Ry     beta= 0.70
     Davidson diagonalization with overlap

---- Real-time Memory Report at c_bands before calling an iterative solver
          1970 MiB given to the printing process from OS
             0 MiB allocation reported by mallinfo(arena+hblkhd)
         11538 MiB available memory on the node where the printing process lives
------------------
     ethr =  1.82E-11,  avg # of iterations =  5.5

     total cpu time spent up to now is     3975.7 secs

     total energy              =  -16525.56343419 Ry
     estimated scf accuracy    <       0.00000001 Ry

     total magnetization       =     1.00 Bohr mag/cell
     absolute magnetization    =     1.19 Bohr mag/cell

     iteration # 26     ecut=    70.00 Ry     beta= 0.70
     Davidson diagonalization with overlap

---- Real-time Memory Report at c_bands before calling an iterative solver
          1970 MiB given to the printing process from OS
             0 MiB allocation reported by mallinfo(arena+hblkhd)
         11524 MiB available memory on the node where the printing process lives
------------------
     ethr =  1.17E-12,  avg # of iterations = 16.5

     total cpu time spent up to now is     4615.9 secs

     total energy              =  -16525.56343424 Ry
     estimated scf accuracy    <       0.00000003 Ry

     total magnetization       =     1.00 Bohr mag/cell
     absolute magnetization    =     1.19 Bohr mag/cell

     iteration # 27     ecut=    70.00 Ry     beta= 0.70
     Davidson diagonalization with overlap

---- Real-time Memory Report at c_bands before calling an iterative solver
          1970 MiB given to the printing process from OS
             0 MiB allocation reported by mallinfo(arena+hblkhd)
         11132 MiB available memory on the node where the printing process lives
------------------
     ethr =  1.17E-12,  avg # of iterations =  2.5

     total cpu time spent up to now is     4731.0 secs

     total energy              =  -16525.56343424 Ry
     estimated scf accuracy    <       0.00000002 Ry

     total magnetization       =     1.00 Bohr mag/cell
     absolute magnetization    =     1.19 Bohr mag/cell

     iteration # 28     ecut=    70.00 Ry     beta= 0.70
     Davidson diagonalization with overlap

---- Real-time Memory Report at c_bands before calling an iterative solver
          1970 MiB given to the printing process from OS
             0 MiB allocation reported by mallinfo(arena+hblkhd)
         11658 MiB available memory on the node where the printing process lives
------------------
     ethr =  1.17E-12,  avg # of iterations =  2.2
 
     Magnetic moment per site  (integrated on atomic sphere of radius R)
     atom   1 (R=0.084)  charge= 10.0917  magn=  0.0017
     atom   2 (R=0.084)  charge= 10.0886  magn=  0.0111
     atom   3 (R=0.084)  charge=  2.9893  magn=  0.2153
     atom   4 (R=0.084)  charge=  4.2568  magn=  0.0179
     atom   5 (R=0.084)  charge= 10.0769  magn=  0.0002
     atom   6 (R=0.084)  charge= 10.0772  magn=  0.0023
     atom   7 (R=0.084)  charge=  4.2526  magn=  0.0496
     atom   8 (R=0.084)  charge=  4.2571  magn=  0.0087
     atom   9 (R=0.084)  charge= 10.0769  magn=  0.0002
     atom  10 (R=0.084)  charge= 10.0886  magn=  0.0111
     atom  11 (R=0.084)  charge=  4.2526  magn=  0.0496
     atom  12 (R=0.084)  charge=  4.2568  magn=  0.0179
     atom  13 (R=0.084)  charge= 10.0769  magn=  0.0002
     atom  14 (R=0.084)  charge= 10.0886  magn=  0.0111
     atom  15 (R=0.084)  charge=  4.2526  magn=  0.0496
     atom  16 (R=0.084)  charge=  4.2568  magn=  0.0179
     atom  17 (R=0.084)  charge= 10.0769  magn=  0.0002
     atom  18 (R=0.084)  charge= 10.0763  magn=  0.0002
     atom  19 (R=0.084)  charge=  4.2526  magn=  0.0496
     atom  20 (R=0.084)  charge=  4.2580  magn=  0.0017
     atom  21 (R=0.084)  charge= 10.0774  magn=  0.0000
     atom  22 (R=0.084)  charge= 10.0763  magn=  0.0002
     atom  23 (R=0.084)  charge=  4.2570  magn=  0.0106
     atom  24 (R=0.084)  charge=  4.2580  magn=  0.0017
     atom  25 (R=0.084)  charge= 10.0769  magn=  0.0002
     atom  26 (R=0.084)  charge= 10.0772  magn=  0.0023
     atom  27 (R=0.084)  charge=  4.2526  magn=  0.0496
     atom  28 (R=0.084)  charge=  4.2571  magn=  0.0087
     atom  29 (R=0.084)  charge= 10.0771  magn=  0.0001
     atom  30 (R=0.084)  charge= 10.0772  magn=  0.0023
     atom  31 (R=0.084)  charge=  4.2572  magn=  0.0092
     atom  32 (R=0.084)  charge=  4.2571  magn=  0.0087
     atom  33 (R=0.084)  charge= 10.0769  magn=  0.0002
     atom  34 (R=0.084)  charge= 10.0763  magn=  0.0002
     atom  35 (R=0.084)  charge=  4.2526  magn=  0.0496
     atom  36 (R=0.084)  charge=  4.2580  magn=  0.0017
     atom  37 (R=0.084)  charge= 10.0753  magn=  0.0011
     atom  38 (R=0.084)  charge= 10.0771  magn=  0.0001
     atom  39 (R=0.084)  charge=  4.2578  magn=  0.0021
     atom  40 (R=0.084)  charge=  4.2584  magn=  0.0006
     atom  41 (R=0.084)  charge= 10.0769  magn=  0.0005
     atom  42 (R=0.084)  charge= 10.0773  magn=  0.0001
     atom  43 (R=0.084)  charge=  4.2580  magn=  0.0017
     atom  44 (R=0.084)  charge=  4.2584  magn=  0.0011
     atom  45 (R=0.084)  charge= 10.0769  magn=  0.0005
     atom  46 (R=0.084)  charge= 10.0771  magn=  0.0001
     atom  47 (R=0.084)  charge=  4.2580  magn=  0.0017
     atom  48 (R=0.084)  charge=  4.2584  magn=  0.0006
     atom  49 (R=0.084)  charge= 10.0769  magn=  0.0005
     atom  50 (R=0.084)  charge= 10.0771  magn=  0.0001
     atom  51 (R=0.084)  charge=  4.2580  magn=  0.0017
     atom  52 (R=0.084)  charge=  4.2584  magn=  0.0006
     atom  53 (R=0.084)  charge= 10.0769  magn=  0.0005
     atom  54 (R=0.084)  charge= 10.0773  magn=  0.0000
     atom  55 (R=0.084)  charge=  4.2580  magn=  0.0017
     atom  56 (R=0.084)  charge=  4.2586  magn=  0.0000
     atom  57 (R=0.084)  charge= 10.0771  magn=  0.0000
     atom  58 (R=0.084)  charge= 10.0773  magn=  0.0000
     atom  59 (R=0.084)  charge=  4.2581  magn=  0.0007
     atom  60 (R=0.084)  charge=  4.2586  magn=  0.0000
     atom  61 (R=0.084)  charge= 10.0769  magn=  0.0005
     atom  62 (R=0.084)  charge= 10.0773  magn=  0.0001
     atom  63 (R=0.084)  charge=  4.2580  magn=  0.0017
     atom  64 (R=0.084)  charge=  4.2584  magn=  0.0011
     atom  65 (R=0.084)  charge= 10.0768  magn=  0.0001
     atom  66 (R=0.084)  charge= 10.0773  magn=  0.0001
     atom  67 (R=0.084)  charge=  4.2580  magn=  0.0005
     atom  68 (R=0.084)  charge=  4.2584  magn=  0.0011
     atom  69 (R=0.084)  charge= 10.0769  magn=  0.0005
     atom  70 (R=0.084)  charge= 10.0773  magn=  0.0000
     atom  71 (R=0.084)  charge=  4.2580  magn=  0.0017
     atom  72 (R=0.084)  charge=  4.2586  magn=  0.0000
     atom  73 (R=0.084)  charge= 10.0770  magn=  0.0000
     atom  74 (R=0.084)  charge= 10.0774  magn=  0.0001
     atom  75 (R=0.084)  charge=  4.2579  magn=  0.0023
     atom  76 (R=0.084)  charge=  4.2563  magn=  0.0177
     atom  77 (R=0.084)  charge= 10.0770  magn=  0.0000
     atom  78 (R=0.084)  charge= 10.0768  magn=  0.0000
     atom  79 (R=0.084)  charge=  4.2582  magn=  0.0017
     atom  80 (R=0.084)  charge=  4.2568  magn=  0.0094
     atom  81 (R=0.084)  charge= 10.0770  magn=  0.0000
     atom  82 (R=0.084)  charge= 10.0774  magn=  0.0001
     atom  83 (R=0.084)  charge=  4.2582  magn=  0.0017
     atom  84 (R=0.084)  charge=  4.2563  magn=  0.0177
     atom  85 (R=0.084)  charge= 10.0770  magn=  0.0000
     atom  86 (R=0.084)  charge= 10.0774  magn=  0.0001
     atom  87 (R=0.084)  charge=  4.2582  magn=  0.0017
     atom  88 (R=0.084)  charge=  4.2563  magn=  0.0177
     atom  89 (R=0.084)  charge= 10.0770  magn=  0.0000
     atom  90 (R=0.084)  charge= 10.0768  magn= -0.0000
     atom  91 (R=0.084)  charge=  4.2582  magn=  0.0017
     atom  92 (R=0.084)  charge=  4.2578  magn=  0.0020
     atom  93 (R=0.084)  charge= 10.0769  magn=  0.0000
     atom  94 (R=0.084)  charge= 10.0768  magn= -0.0000
     atom  95 (R=0.084)  charge=  4.2583  magn=  0.0008
     atom  96 (R=0.084)  charge=  4.2578  magn=  0.0020
     atom  97 (R=0.084)  charge= 10.0770  magn=  0.0000
     atom  98 (R=0.084)  charge= 10.0768  magn=  0.0000
     atom  99 (R=0.084)  charge=  4.2582  magn=  0.0017
     atom 100 (R=0.084)  charge=  4.2568  magn=  0.0094
     atom 101 (R=0.084)  charge= 10.0769  magn=  0.0000
     atom 102 (R=0.084)  charge= 10.0768  magn=  0.0000
     atom 103 (R=0.084)  charge=  4.2583  magn=  0.0005
     atom 104 (R=0.084)  charge=  4.2568  magn=  0.0094
     atom 105 (R=0.084)  charge= 10.0770  magn=  0.0000
     atom 106 (R=0.084)  charge= 10.0768  magn= -0.0000
     atom 107 (R=0.084)  charge=  4.2582  magn=  0.0017
     atom 108 (R=0.084)  charge=  4.2578  magn=  0.0020

     total cpu time spent up to now is     4854.9 secs

     End of self-consistent calculation

 ------ SPIN UP ------------


          k = 0.0000 0.0000 0.0000 ( 84961 PWs)   bands (ev):

    -6.4749  -6.2096  -6.2037  -5.8593  -5.8544  -5.8544  -5.8382  -5.8382
    -5.8066  -5.7982  -5.7931  -5.7408  -5.7348  -5.7348  -5.7333  -5.7333
    -5.7289  -5.7274  -5.7274  -5.6997  -5.6997  -5.6931  -5.6855  -5.6716
    -5.6129  -5.6102  -5.6102  -5.6051  -5.5976  -5.5976  -5.5944  -5.5918
    -5.5897  -5.5897  -5.5766  -5.5766  -5.5687  -5.5687  -5.5675  -5.5630
    -5.5610  -5.5610  -5.5573  -5.5547  -5.5488  -5.5488  -5.5468  -5.5353
    -5.5331  -5.5260  -5.5260  -5.4947  -5.4947  -4.3025  -4.2231  -4.2184
    -4.2184  -4.2065  -4.2065  -4.1985  -4.1985  -4.1911  -4.1911  -4.1861
    -4.1861  -4.1841  -4.1746  -4.1745  -4.1745  -4.1661  -4.1661  -4.1627
    -4.1627  -4.1618  -4.1565  -4.1565  -4.1553  -4.1553  -4.1544  -4.1538
    -4.1538  -4.1527  -4.1527  -4.1513  -4.1504  -4.1470  -4.1470  -4.1453
    -4.1453  -4.1423  -4.1409  -4.1409  -4.1373  -4.1373  -4.1264  -4.1215
    -4.1215  -4.1190  -4.1190  -4.1179  -4.1176  -4.1166  -4.1166  -4.1163
    -4.1149  -4.1149  -4.1130  -4.1121  -4.1121  -4.1096  -4.1069  -4.1064
    -4.1064  -4.1043  -4.1043  -4.1007  -4.0913  -4.0901  -4.0856  -4.0856
    -4.0849  -4.0827  -4.0759  -4.0759  -4.0753  -4.0726  -4.0726  -4.0724
    -4.0670  -4.0644  -4.0644  -4.0566  -4.0559  -4.0559  -4.0511  -4.0511
    -4.0481  -4.0471  -4.0471  -4.0431  -4.0431  -4.0421  -4.0346  -4.0346
    -4.0343  -4.0322  -4.0322  -4.0283  -4.0260  -4.0255  -4.0255  -4.0210
    -4.0193  -4.0193  -4.0158  -4.0158  -4.0148  -4.0148  -4.0148  -4.0143
    -4.0139  -4.0097  -4.0090  -4.0090  -4.0051  -4.0051  -4.0039  -4.0039
    -4.0028  -4.0015  -4.0012  -4.0012  -3.9973  -3.9973  -3.9940  -3.9932
    -3.9925  -3.9925  -3.9906  -3.9906  -3.9860  -3.9860  -3.9860  -3.9783
    -3.9783  -3.9757  -3.9757  -3.9735  -3.9732  -3.9697  -3.9697  -3.9683
    -3.9668  -3.9668  -3.9659  -3.9655  -3.9655  -3.9634  -3.9634  -3.9628
    -3.9621  -3.9621  -3.9618  -3.9553  -3.9553  -3.9536  -3.9536  -3.9528
    -3.9482  -3.9482  -3.9476  -3.9476  -3.9442  -3.9442  -3.9407  -3.9407
    -3.9397  -3.9353  -3.9353  -3.9339  -3.9336  -3.9314  -3.9314  -3.9292
    -3.9292  -3.9271  -3.9248  -3.9231  -3.9231  -3.9227  -3.9227  -3.9202
    -3.9202  -3.9112  -3.9112  -3.9093  -3.9093  -3.9090  -3.9061  -3.9061
    -3.9043  -3.9043  -3.9023  -3.9023  -3.9019  -3.8947  -3.8914  -3.8914
    -3.8873  -3.8865  -3.8865  -3.8855  -3.8855  -3.8805  -3.8748  -3.8748
    -3.8743  -3.8735  -3.8735  -3.8662  -3.8662  -3.8585  -3.8383  -3.7920
    -3.7920  -3.7862  -3.7862  -3.7515  -3.7515  -3.7499  -3.7151  -3.5897
    -3.5897  -3.5354  -3.5146  -3.5146  -3.5005  -3.5005  -3.4773  -3.4029
    -3.3977  -3.3274  -3.3170  -3.3144  -3.3144  -3.3098  -3.3098  -3.3005
    -3.3005  -3.2823  -3.2691  -3.2691  -3.1374  -2.6517  -2.6425  -2.6401
    -2.6400  -2.6400  -2.6363  -2.6363  -2.6261  -2.6261  -2.6051  -2.6051
    -2.6000  -2.4820  -2.2383  -2.2110  -2.2110  -2.2086  -2.2071  -2.2022
    -2.2022  -2.1960  -2.1949  -2.1837  -2.1837  -2.1443  -2.1174  -2.1135
    -2.1135  -2.0840  -2.0840  -0.2496   2.3932   3.3583   3.3583   3.3679
     3.3718   3.3759   3.3782   3.3782   3.3839   3.4023   3.4087   3.4087
     3.4410   3.4410   3.4569   3.5035   3.5035   3.5044   3.5067   3.5163
     3.5163   3.5208   3.5208   3.5747   3.5747   3.5988   3.6368   3.9927
     3.9955   3.9987   3.9987   4.0257   4.0389   4.1721   4.1721   4.3636
     4.3636   4.3639   4.3694   4.3824   4.3824   4.3848   4.3848   4.4225
     4.4225   4.4324   4.4826   4.5128   4.5128   4.5418   4.5418   4.5709
     4.6661   4.6661   4.6795   4.6926   4.6926   5.3883   5.3883   5.3955
     5.4234   5.4234   5.5107   5.8508   5.8508   5.8577   5.8577   6.1452
     6.1503   6.1520   6.1520   6.1576   6.1576   6.1656   6.1656   6.2031
     6.2031   6.2058   6.2526   6.3618   6.3854   6.3854   6.4828   6.6286
     6.6286   6.9375   6.9433   6.9433   6.9589   6.9782   7.0124   7.0124
     7.0172   7.2785   7.2834   7.2834   7.2902   7.2984   7.3044   7.3044
     7.3220   7.3220   7.3263   7.4103   7.4103   7.4498   7.4825   7.4847
     7.4847   7.4886   7.5104   7.5104   7.5527   7.9456   7.9509   7.9509
     7.9545   7.9582   7.9582   7.9619   7.9619   7.9962   7.9976   7.9976
     8.0152   8.0213   8.0219   8.0219   8.0412   8.0412   8.0475   8.0541
     8.0541   8.0622   8.0718   8.0779   8.0779   8.0961   8.0961   8.1016
     8.1783   8.1783   8.3052   8.3052   8.4899   8.4899   8.4937   8.4937
     8.5007   8.5064   8.5064   8.5194   8.7082   8.7322   8.7322   8.9888
     8.9888   9.1092   9.1092   9.3277   9.3551   9.3551  11.0151  12.6858
    12.7043  13.3311  13.4627  13.4695  13.5312  13.5343  13.5343  13.5402
    13.5402  13.5436  13.5463  13.5463  13.5643  13.5643  13.5789  13.7450
    13.9463  13.9487  13.9487  13.9923  13.9923  14.1977  14.4296  14.4297
    14.6664

     occupation numbers 
     1.0000   1.0000   1.0000   1.0000   1.0000   1.0000   1.0000   1.0000
     1.0000   1.0000   1.0000   1.0000   1.0000   1.0000   1.0000   1.0000
     1.0000   1.0000   1.0000   1.0000   1.0000   1.0000   1.0000   1.0000
     1.0000   1.0000   1.0000   1.0000   1.0000   1.0000   1.0000   1.0000
     1.0000   1.0000   1.0000   1.0000   1.0000   1.0000   1.0000   1.0000
     1.0000   1.0000   1.0000   1.0000   1.0000   1.0000   1.0000   1.0000
     1.0000   1.0000   1.0000   1.0000   1.0000   1.0000   1.0000   1.0000
     1.0000   1.0000   1.0000   1.0000   1.0000   1.0000   1.0000   1.0000
     1.0000   1.0000   1.0000   1.0000   1.0000   1.0000   1.0000   1.0000
     1.0000   1.0000   1.0000   1.0000   1.0000   1.0000   1.0000   1.0000
     1.0000   1.0000   1.0000   1.0000   1.0000   1.0000   1.0000   1.0000
     1.0000   1.0000   1.0000   1.0000   1.0000   1.0000   1.0000   1.0000
     1.0000   1.0000   1.0000   1.0000   1.0000   1.0000   1.0000   1.0000
     1.0000   1.0000   1.0000   1.0000   1.0000   1.0000   1.0000   1.0000
     1.0000   1.0000   1.0000   1.0000   1.0000   1.0000   1.0000   1.0000
     1.0000   1.0000   1.0000   1.0000   1.0000   1.0000   1.0000   1.0000
     1.0000   1.0000   1.0000   1.0000   1.0000   1.0000   1.0000   1.0000
     1.0000   1.0000   1.0000   1.0000   1.0000   1.0000   1.0000   1.0000
     1.0000   1.0000   1.0000   1.0000   1.0000   1.0000   1.0000   1.0000
     1.0000   1.0000   1.0000   1.0000   1.0000   1.0000   1.0000   1.0000
     1.0000   1.0000   1.0000   1.0000   1.0000   1.0000   1.0000   1.0000
     1.0000   1.0000   1.0000   1.0000   1.0000   1.0000   1.0000   1.0000
     1.0000   1.0000   1.0000   1.0000   1.0000   1.0000   1.0000   1.0000
     1.0000   1.0000   1.0000   1.0000   1.0000   1.0000   1.0000   1.0000
     1.0000   1.0000   1.0000   1.0000   1.0000   1.0000   1.0000   1.0000
     1.0000   1.0000   1.0000   1.0000   1.0000   1.0000   1.0000   1.0000
     1.0000   1.0000   1.0000   1.0000   1.0000   1.0000   1.0000   1.0000
     1.0000   1.0000   1.0000   1.0000   1.0000   1.0000   1.0000   1.0000
     1.0000   1.0000   1.0000   1.0000   1.0000   1.0000   1.0000   1.0000
     1.0000   1.0000   1.0000   1.0000   1.0000   1.0000   1.0000   1.0000
     1.0000   1.0000   1.0000   1.0000   1.0000   1.0000   1.0000   1.0000
     1.0000   1.0000   1.0000   1.0000   1.0000   1.0000   1.0000   1.0000
     1.0000   1.0000   1.0000   1.0000   1.0000   1.0000   1.0000   1.0000
     1.0000   1.0000   1.0000   1.0000   1.0000   1.0000   1.0000   1.0000
     1.0000   1.0000   1.0000   1.0000   1.0000   1.0000   1.0000   1.0000
     1.0000   1.0000   1.0000   1.0000   1.0000   1.0000   1.0000   1.0000
     1.0000   1.0000   1.0000   1.0000   1.0000   1.0000   1.0000   1.0000
     1.0000   1.0000   1.0000   1.0000   1.0000   1.0000   1.0000   1.0000
     1.0000   1.0000   1.0000   1.0000   1.0000   1.0000   1.0000   1.0000
     1.0000   1.0000   1.0000   1.0000   1.0000   1.0000   1.0000   1.0000
     1.0000   1.0000   1.0000   1.0000   1.0000   1.0000   1.0000   1.0000
     1.0000   1.0000   1.0000   1.0000   1.0000   1.0000   1.0000   1.0000
     1.0000   1.0000   1.0000   1.0000   1.0000   1.0000   1.0000   1.0000
     1.0000   1.0000   1.0000   1.0000   1.0000   1.0000   1.0000   1.0000
     1.0000   1.0000   1.0000   1.0000   1.0000   1.0000   1.0000   1.0000
     1.0000   1.0000   1.0000   1.0000   1.0000   1.0000   1.0000   1.0000
     1.0000   1.0000   1.0000   1.0000   1.0000   1.0000   1.0000   1.0000
     1.0000   1.0000   1.0000   1.0000   1.0000   1.0000   1.0000   1.0000
     1.0000   1.0000   1.0000   1.0000   1.0000   1.0000   1.0000   1.0000
     1.0000   1.0000   1.0000   1.0000   1.0000   1.0000   1.0000   1.0000
     1.0000   1.0000   1.0000   1.0000   1.0000   1.0000   1.0000   1.0000
     1.0000   1.0000   1.0000   1.0000   1.0000   1.0000   1.0000   1.0000
     1.0000   1.0000   1.0000   1.0000   1.0000   1.0000   1.0000   1.0000
     1.0000   1.0000   1.0000   1.0000   1.0000   1.0000   1.0000   1.0000
     1.0000   1.0000   1.0000   1.0000   1.0000   1.0000   1.0000   1.0000
     1.0000   1.0000   1.0000   1.0000   1.0000   1.0000   1.0000   1.0000
     1.0000   1.0000   1.0000   1.0000   1.0000   1.0000   1.0000   1.0000
     1.0000   1.0000   1.0000   1.0000   1.0000   1.0000   1.0000   1.0000
     1.0000   1.0000   1.0000   1.0000   1.0000   1.0000   1.0000   1.0000
     1.0000   1.0000   1.0000   1.0000   1.0000   1.0000   1.0000   1.0000
     1.0000   1.0000   1.0000   1.0000   1.0000   1.0000   0.0000   0.0000
     0.0000   0.0000   0.0000   0.0000   0.0000   0.0000   0.0000   0.0000
     0.0000   0.0000   0.0000   0.0000   0.0000   0.0000   0.0000   0.0000
     0.0000   0.0000   0.0000   0.0000   0.0000   0.0000   0.0000   0.0000
     0.0000

          k = 0.0000-0.5774 0.0000 ( 84970 PWs)   bands (ev):

    -6.2620  -6.2273  -6.0408  -6.0242  -6.0136  -6.0059  -5.9352  -5.9077
    -5.7967  -5.7809  -5.7759  -5.7758  -5.7295  -5.7122  -5.7108  -5.7037
    -5.6962  -5.6929  -5.6885  -5.6830  -5.6534  -5.6388  -5.6351  -5.6327
    -5.6286  -5.6258  -5.6250  -5.6238  -5.6216  -5.6185  -5.6139  -5.6089
    -5.6085  -5.5935  -5.5900  -5.5808  -5.5803  -5.5773  -5.5770  -5.5712
    -5.5680  -5.5517  -5.5483  -5.5435  -5.5407  -5.5405  -5.5387  -5.5383
    -5.5272  -5.5256  -5.5244  -5.4942  -5.4926  -4.2968  -4.2095  -4.2046
    -4.1965  -4.1928  -4.1909  -4.1896  -4.1862  -4.1824  -4.1792  -4.1770
    -4.1721  -4.1699  -4.1697  -4.1676  -4.1666  -4.1636  -4.1622  -4.1611
    -4.1595  -4.1558  -4.1545  -4.1542  -4.1522  -4.1519  -4.1504  -4.1486
    -4.1467  -4.1448  -4.1444  -4.1434  -4.1428  -4.1410  -4.1407  -4.1400
    -4.1392  -4.1358  -4.1351  -4.1351  -4.1322  -4.1314  -4.1309  -4.1286
    -4.1280  -4.1261  -4.1255  -4.1249  -4.1232  -4.1219  -4.1207  -4.1184
    -4.1170  -4.1169  -4.1139  -4.1135  -4.1100  -4.1083  -4.1081  -4.1076
    -4.1062  -4.1060  -4.1038  -4.1035  -4.1019  -4.0998  -4.0977  -4.0971
    -4.0969  -4.0965  -4.0949  -4.0924  -4.0920  -4.0900  -4.0898  -4.0888
    -4.0858  -4.0853  -4.0801  -4.0798  -4.0773  -4.0763  -4.0749  -4.0698
    -4.0673  -4.0571  -4.0566  -4.0533  -4.0529  -4.0479  -4.0459  -4.0424
    -4.0401  -4.0392  -4.0375  -4.0348  -4.0325  -4.0323  -4.0282  -4.0278
    -4.0264  -4.0238  -4.0231  -4.0214  -4.0214  -4.0191  -4.0190  -4.0164
    -4.0146  -4.0133  -4.0100  -4.0091  -4.0075  -4.0057  -4.0053  -4.0053
    -4.0036  -4.0001  -3.9998  -3.9986  -3.9984  -3.9962  -3.9938  -3.9930
    -3.9928  -3.9908  -3.9904  -3.9889  -3.9882  -3.9876  -3.9876  -3.9842
    -3.9831  -3.9811  -3.9803  -3.9792  -3.9781  -3.9762  -3.9751  -3.9711
    -3.9676  -3.9669  -3.9658  -3.9655  -3.9649  -3.9627  -3.9622  -3.9615
    -3.9601  -3.9590  -3.9589  -3.9579  -3.9560  -3.9545  -3.9533  -3.9531
    -3.9499  -3.9488  -3.9478  -3.9451  -3.9435  -3.9400  -3.9390  -3.9374
    -3.9365  -3.9341  -3.9285  -3.9278  -3.9264  -3.9239  -3.9233  -3.9227
    -3.9202  -3.9180  -3.9174  -3.9173  -3.9141  -3.9135  -3.9132  -3.9108
    -3.9095  -3.9088  -3.9082  -3.9061  -3.9057  -3.9057  -3.9037  -3.9030
    -3.9022  -3.9007  -3.8992  -3.8987  -3.8982  -3.8963  -3.8956  -3.8932
    -3.8906  -3.8898  -3.8874  -3.8861  -3.8846  -3.8825  -3.8804  -3.8789
    -3.8752  -3.8731  -3.8713  -3.8615  -3.8609  -3.8590  -3.8539  -3.8480
    -3.8371  -3.8276  -3.7909  -3.7894  -3.7848  -3.7598  -3.7572  -3.7526
    -3.7475  -3.7030  -3.6887  -3.6840  -3.5898  -3.5837  -3.4922  -3.4904
    -3.4781  -3.4670  -3.1913  -3.1871  -3.1669  -3.1491  -2.8842  -2.8786
    -2.8677  -2.8569  -2.7826  -2.7787  -2.7739  -2.7726  -2.7350  -2.7258
    -2.7218  -2.7206  -2.7148  -2.7139  -2.7011  -2.6821  -2.6588  -2.6180
    -2.5284  -2.4663  -2.4344  -2.3549  -2.3510  -2.2934  -2.2903  -2.2882
    -2.2830  -2.2782  -2.2598  -2.2540  -2.2096  -2.1825  -2.1699  -2.0671
    -2.0224  -2.0075  -1.9991  -0.2423   2.6622   2.6637   2.7429   2.7839
     2.9436   3.0687   3.0806   3.0850   3.0887   3.0943   3.0996   3.1211
     3.1258   3.2381   3.2426   3.3473   3.3561   3.3567   3.3702   3.3960
     3.4039   3.6062   3.6183   3.6196   3.6314   3.6432   3.6495   3.6537
     3.6708   3.9568   3.9792   3.9796   3.9863   4.0668   4.1167   4.1263
     4.1902   4.2074   4.2731   4.2879   4.3044   4.3663   5.0393   5.0498
     5.0554   5.1140   5.1728   5.1880   5.2021   5.2034   5.2503   5.3377
     5.3450   5.6357   5.6591   5.7403   5.7438   5.7659   5.7776   5.8056
     5.8156   5.8183   5.8217   5.8270   5.8347   5.8674   5.8733   6.3076
     6.3182   6.3278   6.3535   6.3593   6.3818   6.3870   6.4219   6.5524
     6.5532   6.6043   6.6202   6.6225   6.7343   6.7351   6.7400   6.7456
     6.7489   6.7576   6.7814   6.8186   6.8927   6.9081   6.9119   6.9160
     6.9239   6.9263   6.9324   6.9405   6.9569   6.9656   6.9680   6.9865
     6.9910   7.0013   7.0436   7.0547   7.1212   7.1316   7.1423   7.1514
     7.2572   7.3100   7.3338   7.3343   7.4101   7.5017   7.5113   7.5156
     7.5370   7.5588   7.5910   7.7346   7.7437   7.7481   7.7508   7.7735
     7.7809   7.7812   7.8120   7.8439   7.8645   7.9029   7.9046   7.9047
     7.9111   7.9149   7.9437   7.9981   8.0262   8.0268   8.0462   8.0623
     8.1246   8.1515   8.1742   8.2109   8.2195   8.2528   8.2552   8.2792
     8.2812   8.3341   8.3498   8.3808   8.5998   8.6471   8.6573   8.6672
     8.6845   8.8384   8.9174   8.9992   9.2046   9.2156  12.5183  12.5631
    13.2776  13.2885  13.4566  13.4704  13.5081  13.5523  14.0009  14.0010
    14.1403  14.1419  14.1707  14.1931  14.1938  14.1955  14.2400  14.2655
    14.2690  14.2790  14.2792  14.2881  14.3050  14.3078  14.4487  14.6020
    14.6170

     occupation numbers 
     1.0000   1.0000   1.0000   1.0000   1.0000   1.0000   1.0000   1.0000
     1.0000   1.0000   1.0000   1.0000   1.0000   1.0000   1.0000   1.0000
     1.0000   1.0000   1.0000   1.0000   1.0000   1.0000   1.0000   1.0000
     1.0000   1.0000   1.0000   1.0000   1.0000   1.0000   1.0000   1.0000
     1.0000   1.0000   1.0000   1.0000   1.0000   1.0000   1.0000   1.0000
     1.0000   1.0000   1.0000   1.0000   1.0000   1.0000   1.0000   1.0000
     1.0000   1.0000   1.0000   1.0000   1.0000   1.0000   1.0000   1.0000
     1.0000   1.0000   1.0000   1.0000   1.0000   1.0000   1.0000   1.0000
     1.0000   1.0000   1.0000   1.0000   1.0000   1.0000   1.0000   1.0000
     1.0000   1.0000   1.0000   1.0000   1.0000   1.0000   1.0000   1.0000
     1.0000   1.0000   1.0000   1.0000   1.0000   1.0000   1.0000   1.0000
     1.0000   1.0000   1.0000   1.0000   1.0000   1.0000   1.0000   1.0000
     1.0000   1.0000   1.0000   1.0000   1.0000   1.0000   1.0000   1.0000
     1.0000   1.0000   1.0000   1.0000   1.0000   1.0000   1.0000   1.0000
     1.0000   1.0000   1.0000   1.0000   1.0000   1.0000   1.0000   1.0000
     1.0000   1.0000   1.0000   1.0000   1.0000   1.0000   1.0000   1.0000
     1.0000   1.0000   1.0000   1.0000   1.0000   1.0000   1.0000   1.0000
     1.0000   1.0000   1.0000   1.0000   1.0000   1.0000   1.0000   1.0000
     1.0000   1.0000   1.0000   1.0000   1.0000   1.0000   1.0000   1.0000
     1.0000   1.0000   1.0000   1.0000   1.0000   1.0000   1.0000   1.0000
     1.0000   1.0000   1.0000   1.0000   1.0000   1.0000   1.0000   1.0000
     1.0000   1.0000   1.0000   1.0000   1.0000   1.0000   1.0000   1.0000
     1.0000   1.0000   1.0000   1.0000   1.0000   1.0000   1.0000   1.0000
     1.0000   1.0000   1.0000   1.0000   1.0000   1.0000   1.0000   1.0000
     1.0000   1.0000   1.0000   1.0000   1.0000   1.0000   1.0000   1.0000
     1.0000   1.0000   1.0000   1.0000   1.0000   1.0000   1.0000   1.0000
     1.0000   1.0000   1.0000   1.0000   1.0000   1.0000   1.0000   1.0000
     1.0000   1.0000   1.0000   1.0000   1.0000   1.0000   1.0000   1.0000
     1.0000   1.0000   1.0000   1.0000   1.0000   1.0000   1.0000   1.0000
     1.0000   1.0000   1.0000   1.0000   1.0000   1.0000   1.0000   1.0000
     1.0000   1.0000   1.0000   1.0000   1.0000   1.0000   1.0000   1.0000
     1.0000   1.0000   1.0000   1.0000   1.0000   1.0000   1.0000   1.0000
     1.0000   1.0000   1.0000   1.0000   1.0000   1.0000   1.0000   1.0000
     1.0000   1.0000   1.0000   1.0000   1.0000   1.0000   1.0000   1.0000
     1.0000   1.0000   1.0000   1.0000   1.0000   1.0000   1.0000   1.0000
     1.0000   1.0000   1.0000   1.0000   1.0000   1.0000   1.0000   1.0000
     1.0000   1.0000   1.0000   1.0000   1.0000   1.0000   1.0000   1.0000
     1.0000   1.0000   1.0000   1.0000   1.0000   1.0000   1.0000   1.0000
     1.0000   1.0000   1.0000   1.0000   1.0000   1.0000   1.0000   1.0000
     1.0000   1.0000   1.0000   1.0000   1.0000   1.0000   1.0000   1.0000
     1.0000   1.0000   1.0000   1.0000   1.0000   1.0000   1.0000   1.0000
     1.0000   1.0000   1.0000   1.0000   1.0000   1.0000   1.0000   1.0000
     1.0000   1.0000   1.0000   1.0000   1.0000   1.0000   1.0000   1.0000
     1.0000   1.0000   1.0000   1.0000   1.0000   1.0000   1.0000   1.0000
     1.0000   1.0000   1.0000   1.0000   1.0000   1.0000   1.0000   1.0000
     1.0000   1.0000   1.0000   1.0000   1.0000   1.0000   1.0000   1.0000
     1.0000   1.0000   1.0000   1.0000   1.0000   1.0000   1.0000   1.0000
     1.0000   1.0000   1.0000   1.0000   1.0000   1.0000   1.0000   1.0000
     1.0000   1.0000   1.0000   1.0000   1.0000   1.0000   1.0000   1.0000
     1.0000   1.0000   1.0000   1.0000   1.0000   1.0000   1.0000   1.0000
     1.0000   1.0000   1.0000   1.0000   1.0000   1.0000   1.0000   1.0000
     1.0000   1.0000   1.0000   1.0000   1.0000   1.0000   1.0000   1.0000
     1.0000   1.0000   1.0000   1.0000   1.0000   1.0000   1.0000   1.0000
     1.0000   1.0000   1.0000   1.0000   1.0000   1.0000   1.0000   1.0000
     1.0000   1.0000   1.0000   1.0000   1.0000   1.0000   1.0000   1.0000
     1.0000   1.0000   1.0000   1.0000   1.0000   1.0000   1.0000   1.0000
     1.0000   1.0000   1.0000   1.0000   1.0000   1.0000   1.0000   1.0000
     1.0000   1.0000   1.0000   1.0000   1.0000   1.0000   1.0000   1.0000
     1.0000   1.0000   1.0000   1.0000   1.0000   1.0000   1.0000   1.0000
     1.0000   1.0000   1.0000   1.0000   1.0000   1.0000   1.0000   1.0000
     1.0000   1.0000   1.0000   1.0000   1.0000   1.0000   0.0000   0.0000
     0.0000   0.0000   0.0000   0.0000   0.0000   0.0000   0.0000   0.0000
     0.0000   0.0000   0.0000   0.0000   0.0000   0.0000   0.0000   0.0000
     0.0000   0.0000   0.0000   0.0000   0.0000   0.0000   0.0000   0.0000
     0.0000

 ------ SPIN DOWN ----------


          k = 0.0000 0.0000 0.0000 ( 84961 PWs)   bands (ev):

    -6.4635  -6.1979  -6.1914  -5.8537  -5.8393  -5.8393  -5.8210  -5.8210
    -5.7960  -5.7896  -5.7879  -5.7367  -5.7256  -5.7232  -5.7232  -5.7164
    -5.7164  -5.7129  -5.7129  -5.6942  -5.6942  -5.6860  -5.6791  -5.6563
    -5.6070  -5.5907  -5.5907  -5.5892  -5.5855  -5.5855  -5.5826  -5.5824
    -5.5824  -5.5739  -5.5739  -5.5713  -5.5662  -5.5662  -5.5660  -5.5610
    -5.5589  -5.5589  -5.5502  -5.5464  -5.5464  -5.5436  -5.5420  -5.5332
    -5.5299  -5.5113  -5.5113  -5.4803  -5.4803  -4.2366  -4.2208  -4.2156
    -4.2156  -4.2045  -4.2045  -4.1976  -4.1976  -4.1907  -4.1907  -4.1852
    -4.1852  -4.1832  -4.1735  -4.1735  -4.1735  -4.1654  -4.1654  -4.1622
    -4.1622  -4.1584  -4.1557  -4.1557  -4.1544  -4.1544  -4.1543  -4.1535
    -4.1535  -4.1518  -4.1518  -4.1506  -4.1498  -4.1467  -4.1467  -4.1440
    -4.1440  -4.1413  -4.1403  -4.1403  -4.1365  -4.1365  -4.1257  -4.1206
    -4.1206  -4.1186  -4.1186  -4.1176  -4.1166  -4.1157  -4.1157  -4.1157
    -4.1144  -4.1144  -4.1118  -4.1116  -4.1116  -4.1090  -4.1060  -4.1056
    -4.1056  -4.1039  -4.1039  -4.0997  -4.0907  -4.0890  -4.0845  -4.0845
    -4.0837  -4.0813  -4.0754  -4.0754  -4.0749  -4.0721  -4.0717  -4.0717
    -4.0660  -4.0638  -4.0638  -4.0548  -4.0547  -4.0547  -4.0497  -4.0497
    -4.0476  -4.0458  -4.0458  -4.0425  -4.0425  -4.0413  -4.0338  -4.0336
    -4.0336  -4.0313  -4.0313  -4.0276  -4.0252  -4.0245  -4.0245  -4.0202
    -4.0190  -4.0190  -4.0155  -4.0155  -4.0143  -4.0143  -4.0140  -4.0139
    -4.0134  -4.0093  -4.0084  -4.0084  -4.0042  -4.0042  -4.0033  -4.0033
    -4.0024  -4.0007  -4.0005  -4.0005  -3.9968  -3.9968  -3.9935  -3.9925
    -3.9922  -3.9922  -3.9899  -3.9899  -3.9857  -3.9856  -3.9856  -3.9770
    -3.9770  -3.9749  -3.9749  -3.9730  -3.9716  -3.9690  -3.9690  -3.9679
    -3.9664  -3.9664  -3.9657  -3.9651  -3.9651  -3.9630  -3.9630  -3.9625
    -3.9616  -3.9616  -3.9610  -3.9545  -3.9545  -3.9526  -3.9526  -3.9525
    -3.9480  -3.9480  -3.9471  -3.9471  -3.9433  -3.9433  -3.9404  -3.9404
    -3.9391  -3.9345  -3.9345  -3.9333  -3.9333  -3.9296  -3.9296  -3.9287
    -3.9287  -3.9268  -3.9247  -3.9229  -3.9221  -3.9221  -3.9197  -3.9165
    -3.9165  -3.9109  -3.9109  -3.9088  -3.9082  -3.9082  -3.9057  -3.9057
    -3.9031  -3.9031  -3.9016  -3.8978  -3.8978  -3.8942  -3.8910  -3.8910
    -3.8864  -3.8858  -3.8858  -3.8850  -3.8850  -3.8773  -3.8741  -3.8734
    -3.8734  -3.8723  -3.8723  -3.8571  -3.8557  -3.8557  -3.8309  -3.7855
    -3.7855  -3.7801  -3.7801  -3.7453  -3.7453  -3.7433  -3.7105  -3.5869
    -3.5869  -3.5336  -3.5107  -3.5107  -3.4943  -3.4943  -3.4738  -3.4007
    -3.3921  -3.3254  -3.3156  -3.3122  -3.3122  -3.3005  -3.3005  -3.2920
    -3.2920  -3.2781  -3.2642  -3.2642  -3.1219  -2.6484  -2.6380  -2.6372
    -2.6337  -2.6337  -2.6268  -2.6268  -2.6135  -2.6135  -2.6001  -2.6001
    -2.5938  -2.4679  -2.2075  -2.2067  -2.2050  -2.2050  -2.1998  -2.1998
    -2.1983  -2.1948  -2.1930  -2.1756  -2.1756  -2.1353  -2.1139  -2.1045
    -2.1045  -2.0711  -2.0711  -0.0047   2.3964   3.3730   3.3730   3.3743
     3.3777   3.3800   3.3831   3.3831   3.3876   3.4063   3.4145   3.4145
     3.4484   3.4484   3.4616   3.5071   3.5113   3.5114   3.5114   3.5214
     3.5214   3.5258   3.5258   3.6021   3.6021   3.6143   3.6580   3.9993
     4.0012   4.0173   4.0173   4.0334   4.0478   4.1840   4.1840   4.3718
     4.3727   4.3763   4.3763   4.3880   4.3880   4.3914   4.3914   4.4422
     4.4422   4.4436   4.4868   4.5203   4.5203   4.5581   4.5581   4.5854
     4.6722   4.6722   4.7300   4.7300   4.7321   5.3995   5.3995   5.4064
     5.4440   5.4440   5.5540   5.8579   5.8579   5.8844   5.8844   6.1501
     6.1559   6.1605   6.1605   6.1636   6.1636   6.1752   6.1752   6.2230
     6.2235   6.2235   6.2606   6.3708   6.3914   6.3914   6.4953   6.6493
     6.6493   6.9526   6.9568   6.9568   6.9839   6.9870   7.0283   7.0283
     7.0302   7.2984   7.3021   7.3021   7.3061   7.3101   7.3101   7.3322
     7.3347   7.3356   7.3356   7.4422   7.4422   7.4678   7.4851   7.4875
     7.4875   7.4921   7.5375   7.5375   7.5648   7.9496   7.9628   7.9629
     7.9629   7.9653   7.9653   7.9729   7.9729   8.0067   8.0142   8.0142
     8.0173   8.0232   8.0256   8.0256   8.0493   8.0493   8.0718   8.0756
     8.0756   8.0796   8.0841   8.0841   8.1038   8.1111   8.1119   8.1119
     8.2060   8.2060   8.3230   8.3230   8.5031   8.5031   8.5117   8.5117
     8.5154   8.5217   8.5217   8.5465   8.7659   8.7892   8.7892   9.0003
     9.0003   9.1547   9.1547   9.3608   9.5442   9.5442  11.0247  12.6927
    12.7124  13.3330  13.4654  13.4735  13.5332  13.5360  13.5360  13.5439
    13.5470  13.5470  13.5539  13.5539  13.5690  13.5690  13.5840  13.7498
    13.9508  13.9561  13.9561  14.0074  14.0074  14.2147  14.4312  14.4312
    14.6706

     occupation numbers 
     1.0000   1.0000   1.0000   1.0000   1.0000   1.0000   1.0000   1.0000
     1.0000   1.0000   1.0000   1.0000   1.0000   1.0000   1.0000   1.0000
     1.0000   1.0000   1.0000   1.0000   1.0000   1.0000   1.0000   1.0000
     1.0000   1.0000   1.0000   1.0000   1.0000   1.0000   1.0000   1.0000
     1.0000   1.0000   1.0000   1.0000   1.0000   1.0000   1.0000   1.0000
     1.0000   1.0000   1.0000   1.0000   1.0000   1.0000   1.0000   1.0000
     1.0000   1.0000   1.0000   1.0000   1.0000   1.0000   1.0000   1.0000
     1.0000   1.0000   1.0000   1.0000   1.0000   1.0000   1.0000   1.0000
     1.0000   1.0000   1.0000   1.0000   1.0000   1.0000   1.0000   1.0000
     1.0000   1.0000   1.0000   1.0000   1.0000   1.0000   1.0000   1.0000
     1.0000   1.0000   1.0000   1.0000   1.0000   1.0000   1.0000   1.0000
     1.0000   1.0000   1.0000   1.0000   1.0000   1.0000   1.0000   1.0000
     1.0000   1.0000   1.0000   1.0000   1.0000   1.0000   1.0000   1.0000
     1.0000   1.0000   1.0000   1.0000   1.0000   1.0000   1.0000   1.0000
     1.0000   1.0000   1.0000   1.0000   1.0000   1.0000   1.0000   1.0000
     1.0000   1.0000   1.0000   1.0000   1.0000   1.0000   1.0000   1.0000
     1.0000   1.0000   1.0000   1.0000   1.0000   1.0000   1.0000   1.0000
     1.0000   1.0000   1.0000   1.0000   1.0000   1.0000   1.0000   1.0000
     1.0000   1.0000   1.0000   1.0000   1.0000   1.0000   1.0000   1.0000
     1.0000   1.0000   1.0000   1.0000   1.0000   1.0000   1.0000   1.0000
     1.0000   1.0000   1.0000   1.0000   1.0000   1.0000   1.0000   1.0000
     1.0000   1.0000   1.0000   1.0000   1.0000   1.0000   1.0000   1.0000
     1.0000   1.0000   1.0000   1.0000   1.0000   1.0000   1.0000   1.0000
     1.0000   1.0000   1.0000   1.0000   1.0000   1.0000   1.0000   1.0000
     1.0000   1.0000   1.0000   1.0000   1.0000   1.0000   1.0000   1.0000
     1.0000   1.0000   1.0000   1.0000   1.0000   1.0000   1.0000   1.0000
     1.0000   1.0000   1.0000   1.0000   1.0000   1.0000   1.0000   1.0000
     1.0000   1.0000   1.0000   1.0000   1.0000   1.0000   1.0000   1.0000
     1.0000   1.0000   1.0000   1.0000   1.0000   1.0000   1.0000   1.0000
     1.0000   1.0000   1.0000   1.0000   1.0000   1.0000   1.0000   1.0000
     1.0000   1.0000   1.0000   1.0000   1.0000   1.0000   1.0000   1.0000
     1.0000   1.0000   1.0000   1.0000   1.0000   1.0000   1.0000   1.0000
     1.0000   1.0000   1.0000   1.0000   1.0000   1.0000   1.0000   1.0000
     1.0000   1.0000   1.0000   1.0000   1.0000   1.0000   1.0000   1.0000
     1.0000   1.0000   1.0000   1.0000   1.0000   1.0000   1.0000   1.0000
     1.0000   1.0000   1.0000   1.0000   1.0000   1.0000   1.0000   1.0000
     1.0000   1.0000   1.0000   1.0000   1.0000   1.0000   1.0000   1.0000
     1.0000   1.0000   1.0000   1.0000   1.0000   1.0000   1.0000   1.0000
     1.0000   1.0000   1.0000   1.0000   1.0000   1.0000   1.0000   1.0000
     1.0000   1.0000   1.0000   1.0000   1.0000   1.0000   1.0000   1.0000
     1.0000   1.0000   1.0000   1.0000   1.0000   1.0000   1.0000   1.0000
     1.0000   1.0000   1.0000   1.0000   1.0000   1.0000   1.0000   1.0000
     1.0000   1.0000   1.0000   1.0000   1.0000   1.0000   1.0000   1.0000
     1.0000   1.0000   1.0000   1.0000   1.0000   1.0000   1.0000   1.0000
     1.0000   1.0000   1.0000   1.0000   1.0000   1.0000   1.0000   1.0000
     1.0000   1.0000   1.0000   1.0000   1.0000   1.0000   1.0000   1.0000
     1.0000   1.0000   1.0000   1.0000   1.0000   1.0000   1.0000   1.0000
     1.0000   1.0000   1.0000   1.0000   1.0000   1.0000   1.0000   1.0000
     1.0000   1.0000   1.0000   1.0000   1.0000   1.0000   1.0000   1.0000
     1.0000   1.0000   1.0000   1.0000   1.0000   1.0000   1.0000   1.0000
     1.0000   1.0000   1.0000   1.0000   1.0000   1.0000   1.0000   1.0000
     1.0000   1.0000   1.0000   1.0000   1.0000   1.0000   1.0000   1.0000
     1.0000   1.0000   1.0000   1.0000   1.0000   1.0000   1.0000   1.0000
     1.0000   1.0000   1.0000   1.0000   1.0000   1.0000   1.0000   1.0000
     1.0000   1.0000   1.0000   1.0000   1.0000   1.0000   1.0000   1.0000
     1.0000   1.0000   1.0000   1.0000   1.0000   1.0000   1.0000   1.0000
     1.0000   1.0000   1.0000   1.0000   1.0000   1.0000   1.0000   1.0000
     1.0000   1.0000   1.0000   1.0000   1.0000   1.0000   1.0000   1.0000
     1.0000   1.0000   1.0000   1.0000   1.0000   1.0000   1.0000   1.0000
     1.0000   1.0000   1.0000   1.0000   1.0000   1.0000   1.0000   1.0000
     1.0000   1.0000   1.0000   1.0000   0.0000   0.0000   0.0000   0.0000
     0.0000   0.0000   0.0000   0.0000   0.0000   0.0000   0.0000   0.0000
     0.0000   0.0000   0.0000   0.0000   0.0000   0.0000   0.0000   0.0000
     0.0000   0.0000   0.0000   0.0000   0.0000   0.0000   0.0000   0.0000
     0.0000

          k = 0.0000-0.5774 0.0000 ( 84970 PWs)   bands (ev):

    -6.2496  -6.2163  -6.0257  -6.0191  -5.9997  -5.9952  -5.9189  -5.8969
    -5.7768  -5.7708  -5.7704  -5.7676  -5.7155  -5.7068  -5.6969  -5.6889
    -5.6873  -5.6804  -5.6737  -5.6637  -5.6499  -5.6346  -5.6305  -5.6219
    -5.6208  -5.6170  -5.6162  -5.6117  -5.6072  -5.6061  -5.6060  -5.5991
    -5.5942  -5.5891  -5.5841  -5.5761  -5.5760  -5.5689  -5.5636  -5.5615
    -5.5542  -5.5489  -5.5451  -5.5422  -5.5392  -5.5383  -5.5367  -5.5359
    -5.5232  -5.5096  -5.5092  -5.4798  -5.4786  -4.2304  -4.2076  -4.2026
    -4.1944  -4.1905  -4.1888  -4.1876  -4.1851  -4.1806  -4.1783  -4.1765
    -4.1710  -4.1688  -4.1686  -4.1664  -4.1654  -4.1630  -4.1611  -4.1605
    -4.1583  -4.1551  -4.1535  -4.1534  -4.1517  -4.1509  -4.1493  -4.1479
    -4.1461  -4.1442  -4.1439  -4.1424  -4.1422  -4.1400  -4.1400  -4.1394
    -4.1382  -4.1355  -4.1345  -4.1345  -4.1312  -4.1309  -4.1302  -4.1278
    -4.1272  -4.1256  -4.1250  -4.1240  -4.1221  -4.1213  -4.1200  -4.1177
    -4.1165  -4.1163  -4.1133  -4.1129  -4.1096  -4.1078  -4.1077  -4.1072
    -4.1057  -4.1048  -4.1030  -4.1030  -4.1015  -4.0991  -4.0970  -4.0965
    -4.0964  -4.0957  -4.0943  -4.0916  -4.0910  -4.0892  -4.0891  -4.0881
    -4.0850  -4.0850  -4.0794  -4.0792  -4.0765  -4.0755  -4.0745  -4.0682
    -4.0658  -4.0563  -4.0553  -4.0526  -4.0521  -4.0470  -4.0447  -4.0407
    -4.0393  -4.0378  -4.0362  -4.0335  -4.0318  -4.0315  -4.0275  -4.0270
    -4.0258  -4.0225  -4.0224  -4.0209  -4.0206  -4.0182  -4.0180  -4.0147
    -4.0140  -4.0127  -4.0091  -4.0086  -4.0068  -4.0050  -4.0047  -4.0044
    -4.0030  -3.9997  -3.9990  -3.9982  -3.9979  -3.9956  -3.9934  -3.9926
    -3.9925  -3.9904  -3.9900  -3.9885  -3.9878  -3.9869  -3.9865  -3.9835
    -3.9825  -3.9806  -3.9800  -3.9783  -3.9777  -3.9750  -3.9745  -3.9707
    -3.9671  -3.9655  -3.9647  -3.9645  -3.9638  -3.9622  -3.9617  -3.9610
    -3.9592  -3.9587  -3.9585  -3.9568  -3.9556  -3.9539  -3.9526  -3.9525
    -3.9484  -3.9478  -3.9470  -3.9429  -3.9413  -3.9394  -3.9374  -3.9365
    -3.9345  -3.9332  -3.9276  -3.9272  -3.9254  -3.9227  -3.9226  -3.9223
    -3.9199  -3.9176  -3.9167  -3.9165  -3.9133  -3.9131  -3.9110  -3.9100
    -3.9091  -3.9083  -3.9070  -3.9057  -3.9054  -3.9051  -3.9034  -3.9022
    -3.9018  -3.9002  -3.8986  -3.8983  -3.8974  -3.8956  -3.8954  -3.8920
    -3.8901  -3.8896  -3.8859  -3.8838  -3.8830  -3.8812  -3.8796  -3.8781
    -3.8722  -3.8708  -3.8700  -3.8595  -3.8588  -3.8502  -3.8444  -3.8404
    -3.8328  -3.8200  -3.7857  -3.7810  -3.7771  -3.7534  -3.7514  -3.7479
    -3.7411  -3.6989  -3.6844  -3.6796  -3.5869  -3.5813  -3.4880  -3.4853
    -3.4741  -3.4598  -3.1858  -3.1838  -3.1635  -3.1389  -2.8775  -2.8727
    -2.8596  -2.8531  -2.7764  -2.7706  -2.7691  -2.7669  -2.7286  -2.7189
    -2.7169  -2.7110  -2.7102  -2.7000  -2.6976  -2.6755  -2.6496  -2.6139
    -2.5203  -2.4602  -2.4258  -2.3476  -2.3430  -2.2852  -2.2819  -2.2781
    -2.2746  -2.2690  -2.2528  -2.2471  -2.2050  -2.1723  -2.1599  -2.0631
    -2.0135  -1.9995  -1.9865   0.0050   2.6671   2.6762   2.7455   2.7882
     2.9544   3.0759   3.0834   3.0892   3.0990   3.1008   3.1131   3.1276
     3.1434   3.2439   3.2578   3.3524   3.3606   3.3626   3.3817   3.4135
     3.4173   3.6148   3.6217   3.6240   3.6377   3.6573   3.6699   3.6844
     3.6860   3.9625   3.9856   3.9943   3.9957   4.0809   4.1220   4.1313
     4.2017   4.2170   4.2815   4.3080   4.3237   4.3917   5.0461   5.0567
     5.0717   5.1356   5.1782   5.1950   5.2109   5.2133   5.2602   5.3524
     5.3599   5.6489   5.6813   5.7551   5.7614   5.7741   5.7830   5.8205
     5.8238   5.8287   5.8301   5.8347   5.8431   5.8980   5.9151   6.3147
     6.3285   6.3364   6.3675   6.3696   6.3968   6.4029   6.4401   6.5598
     6.5631   6.6203   6.6371   6.6391   6.7475   6.7477   6.7509   6.7533
     6.7639   6.7720   6.7961   6.8338   6.9109   6.9177   6.9293   6.9326
     6.9357   6.9382   6.9414   6.9636   6.9663   6.9727   6.9919   6.9947
     7.0018   7.0128   7.0620   7.0887   7.1385   7.1431   7.1530   7.1638
     7.2951   7.3177   7.3428   7.3471   7.4197   7.5109   7.5264   7.5283
     7.5621   7.5936   7.6138   7.7443   7.7529   7.7608   7.7839   7.7895
     7.7917   7.7949   7.8215   7.8637   7.8844   7.9107   7.9129   7.9137
     7.9222   7.9236   7.9590   8.0242   8.0442   8.0462   8.0531   8.0756
     8.1516   8.1633   8.1862   8.2278   8.2353   8.2654   8.2724   8.2911
     8.2984   8.3402   8.3839   8.3939   8.6680   8.6737   8.6745   8.6993
     8.8247   8.8795   8.9237   9.0121   9.2732   9.4116  12.5338  12.5750
    13.2795  13.2942  13.4620  13.4830  13.5154  13.5642  14.0104  14.0128
    14.1430  14.1459  14.1756  14.1985  14.2027  14.2097  14.2419  14.2707
    14.2752  14.2825  14.2883  14.2919  14.3127  14.3145  14.4597  14.6007
    14.6124

     occupation numbers 
     1.0000   1.0000   1.0000   1.0000   1.0000   1.0000   1.0000   1.0000
     1.0000   1.0000   1.0000   1.0000   1.0000   1.0000   1.0000   1.0000
     1.0000   1.0000   1.0000   1.0000   1.0000   1.0000   1.0000   1.0000
     1.0000   1.0000   1.0000   1.0000   1.0000   1.0000   1.0000   1.0000
     1.0000   1.0000   1.0000   1.0000   1.0000   1.0000   1.0000   1.0000
     1.0000   1.0000   1.0000   1.0000   1.0000   1.0000   1.0000   1.0000
     1.0000   1.0000   1.0000   1.0000   1.0000   1.0000   1.0000   1.0000
     1.0000   1.0000   1.0000   1.0000   1.0000   1.0000   1.0000   1.0000
     1.0000   1.0000   1.0000   1.0000   1.0000   1.0000   1.0000   1.0000
     1.0000   1.0000   1.0000   1.0000   1.0000   1.0000   1.0000   1.0000
     1.0000   1.0000   1.0000   1.0000   1.0000   1.0000   1.0000   1.0000
     1.0000   1.0000   1.0000   1.0000   1.0000   1.0000   1.0000   1.0000
     1.0000   1.0000   1.0000   1.0000   1.0000   1.0000   1.0000   1.0000
     1.0000   1.0000   1.0000   1.0000   1.0000   1.0000   1.0000   1.0000
     1.0000   1.0000   1.0000   1.0000   1.0000   1.0000   1.0000   1.0000
     1.0000   1.0000   1.0000   1.0000   1.0000   1.0000   1.0000   1.0000
     1.0000   1.0000   1.0000   1.0000   1.0000   1.0000   1.0000   1.0000
     1.0000   1.0000   1.0000   1.0000   1.0000   1.0000   1.0000   1.0000
     1.0000   1.0000   1.0000   1.0000   1.0000   1.0000   1.0000   1.0000
     1.0000   1.0000   1.0000   1.0000   1.0000   1.0000   1.0000   1.0000
     1.0000   1.0000   1.0000   1.0000   1.0000   1.0000   1.0000   1.0000
     1.0000   1.0000   1.0000   1.0000   1.0000   1.0000   1.0000   1.0000
     1.0000   1.0000   1.0000   1.0000   1.0000   1.0000   1.0000   1.0000
     1.0000   1.0000   1.0000   1.0000   1.0000   1.0000   1.0000   1.0000
     1.0000   1.0000   1.0000   1.0000   1.0000   1.0000   1.0000   1.0000
     1.0000   1.0000   1.0000   1.0000   1.0000   1.0000   1.0000   1.0000
     1.0000   1.0000   1.0000   1.0000   1.0000   1.0000   1.0000   1.0000
     1.0000   1.0000   1.0000   1.0000   1.0000   1.0000   1.0000   1.0000
     1.0000   1.0000   1.0000   1.0000   1.0000   1.0000   1.0000   1.0000
     1.0000   1.0000   1.0000   1.0000   1.0000   1.0000   1.0000   1.0000
     1.0000   1.0000   1.0000   1.0000   1.0000   1.0000   1.0000   1.0000
     1.0000   1.0000   1.0000   1.0000   1.0000   1.0000   1.0000   1.0000
     1.0000   1.0000   1.0000   1.0000   1.0000   1.0000   1.0000   1.0000
     1.0000   1.0000   1.0000   1.0000   1.0000   1.0000   1.0000   1.0000
     1.0000   1.0000   1.0000   1.0000   1.0000   1.0000   1.0000   1.0000
     1.0000   1.0000   1.0000   1.0000   1.0000   1.0000   1.0000   1.0000
     1.0000   1.0000   1.0000   1.0000   1.0000   1.0000   1.0000   1.0000
     1.0000   1.0000   1.0000   1.0000   1.0000   1.0000   1.0000   1.0000
     1.0000   1.0000   1.0000   1.0000   1.0000   1.0000   1.0000   1.0000
     1.0000   1.0000   1.0000   1.0000   1.0000   1.0000   1.0000   1.0000
     1.0000   1.0000   1.0000   1.0000   1.0000   1.0000   1.0000   1.0000
     1.0000   1.0000   1.0000   1.0000   1.0000   1.0000   1.0000   1.0000
     1.0000   1.0000   1.0000   1.0000   1.0000   1.0000   1.0000   1.0000
     1.0000   1.0000   1.0000   1.0000   1.0000   1.0000   1.0000   1.0000
     1.0000   1.0000   1.0000   1.0000   1.0000   1.0000   1.0000   1.0000
     1.0000   1.0000   1.0000   1.0000   1.0000   1.0000   1.0000   1.0000
     1.0000   1.0000   1.0000   1.0000   1.0000   1.0000   1.0000   1.0000
     1.0000   1.0000   1.0000   1.0000   1.0000   1.0000   1.0000   1.0000
     1.0000   1.0000   1.0000   1.0000   1.0000   1.0000   1.0000   1.0000
     1.0000   1.0000   1.0000   1.0000   1.0000   1.0000   1.0000   1.0000
     1.0000   1.0000   1.0000   1.0000   1.0000   1.0000   1.0000   1.0000
     1.0000   1.0000   1.0000   1.0000   1.0000   1.0000   1.0000   1.0000
     1.0000   1.0000   1.0000   1.0000   1.0000   1.0000   1.0000   1.0000
     1.0000   1.0000   1.0000   1.0000   1.0000   1.0000   1.0000   1.0000
     1.0000   1.0000   1.0000   1.0000   1.0000   1.0000   1.0000   1.0000
     1.0000   1.0000   1.0000   1.0000   1.0000   1.0000   1.0000   1.0000
     1.0000   1.0000   1.0000   1.0000   1.0000   1.0000   1.0000   1.0000
     1.0000   1.0000   1.0000   1.0000   1.0000   1.0000   1.0000   1.0000
     1.0000   1.0000   1.0000   1.0000   1.0000   1.0000   1.0000   1.0000
     1.0000   1.0000   1.0000   1.0000   1.0000   1.0000   1.0000   1.0000
     1.0000   1.0000   1.0000   1.0000   1.0000   0.3333   0.0000   0.0000
     0.0000   0.0000   0.0000   0.0000   0.0000   0.0000   0.0000   0.0000
     0.0000   0.0000   0.0000   0.0000   0.0000   0.0000   0.0000   0.0000
     0.0000   0.0000   0.0000   0.0000   0.0000   0.0000   0.0000   0.0000
     0.0000

     the Fermi energy is     9.4075 ev

!    total energy              =  -16525.56343424 Ry
     total all-electron energy =   -215841.055534 Ry
     estimated scf accuracy    <          1.6E-09 Ry
     smearing contrib. (-TS)   =      -0.00019283 Ry
     internal energy E=F+TS    =  -16525.56324141 Ry

     The total energy is F=E-TS. E is the sum of the following terms:
     one-electron contribution =   -4987.28857599 Ry
     hartree contribution      =    3542.68483115 Ry
     xc contribution           =   -2384.65682664 Ry
     ewald contribution        =   -6224.65797914 Ry
     one-center paw contrib.   =   -6471.64469079 Ry
      -> PAW hartree energy AE =     783.28489736 Ry
      -> PAW hartree energy PS =    -777.90836298 Ry
      -> PAW xc energy AE      =    -805.93416183 Ry
      -> PAW xc energy PS      =     210.99974294 Ry
      -> total E_H with PAW    =    3548.06136553 Ry
      -> total E_XC with PAW   =   -2979.59124553 Ry

     total magnetization       =     1.00 Bohr mag/cell
     absolute magnetization    =     1.19 Bohr mag/cell

     convergence has been achieved in  28 iterations

     Forces acting on atoms (cartesian axes, Ry/au):

     atom    1 type  1   force =     0.00000000    0.00000000    0.01594334
     atom    2 type  1   force =    -0.00349003    0.00201497    0.00744135
     atom    3 type  3   force =     0.00000000    0.00000000   -0.01667874
     atom    4 type  2   force =     0.00908332   -0.00524426    0.00901183
     atom    5 type  1   force =    -0.00492366   -0.00097691   -0.00166829
     atom    6 type  1   force =    -0.00000000   -0.00061280    0.00216954
     atom    7 type  2   force =     0.00997197    0.00117909   -0.00080642
     atom    8 type  2   force =    -0.00000000   -0.00087460   -0.00179445
     atom    9 type  1   force =     0.00492366   -0.00097691   -0.00166829
     atom   10 type  1   force =     0.00349003    0.00201497    0.00744135
     atom   11 type  2   force =    -0.00997197    0.00117909   -0.00080642
     atom   12 type  2   force =    -0.00908332   -0.00524426    0.00901183
     atom   13 type  1   force =     0.00330786   -0.00377556   -0.00166829
     atom   14 type  1   force =    -0.00000000   -0.00402994    0.00744135
     atom   15 type  2   force =    -0.00600711    0.00804644   -0.00080642
     atom   16 type  2   force =    -0.00000000    0.01048852    0.00901183
     atom   17 type  1   force =    -0.00330786   -0.00377556   -0.00166829
     atom   18 type  1   force =    -0.00184942   -0.00106776    0.00108567
     atom   19 type  2   force =     0.00600711    0.00804644   -0.00080642
     atom   20 type  2   force =     0.00088789    0.00051263   -0.00044094
     atom   21 type  1   force =     0.00000000    0.00000000   -0.00240532
     atom   22 type  1   force =     0.00184942   -0.00106776    0.00108567
     atom   23 type  2   force =     0.00000000   -0.00000000    0.00031773
     atom   24 type  2   force =    -0.00088789    0.00051263   -0.00044094
     atom   25 type  1   force =    -0.00161580    0.00475247   -0.00166829
     atom   26 type  1   force =     0.00053070    0.00030640    0.00216954
     atom   27 type  2   force =     0.00396487   -0.00922553   -0.00080642
     atom   28 type  2   force =     0.00075743    0.00043730   -0.00179445
     atom   29 type  1   force =     0.00000000    0.00000000   -0.00193033
     atom   30 type  1   force =    -0.00053070    0.00030640    0.00216954
     atom   31 type  2   force =     0.00000000    0.00000000    0.00031626
     atom   32 type  2   force =    -0.00075743    0.00043730   -0.00179445
     atom   33 type  1   force =     0.00161580    0.00475247   -0.00166829
     atom   34 type  1   force =     0.00000000    0.00213552    0.00108567
     atom   35 type  2   force =    -0.00396487   -0.00922553   -0.00080642
     atom   36 type  2   force =     0.00000000   -0.00102525   -0.00044094
     atom   37 type  1   force =     0.00000000    0.00000000   -0.00646533
     atom   38 type  1   force =    -0.00005822    0.00003361   -0.00075160
     atom   39 type  2   force =     0.00000000   -0.00000000    0.00091015
     atom   40 type  2   force =     0.00014834   -0.00008564    0.00012336
     atom   41 type  1   force =    -0.00331288   -0.00081160    0.00040177
     atom   42 type  1   force =    -0.00000000    0.00031800    0.00002734
     atom   43 type  2   force =     0.00071514    0.00048701    0.00067577
     atom   44 type  2   force =     0.00000000   -0.00034179    0.00012496
     atom   45 type  1   force =     0.00331288   -0.00081160    0.00040177
     atom   46 type  1   force =     0.00005822    0.00003361   -0.00075160
     atom   47 type  2   force =    -0.00071514    0.00048701    0.00067577
     atom   48 type  2   force =    -0.00014834   -0.00008564    0.00012336
     atom   49 type  1   force =     0.00235931   -0.00246324    0.00040177
     atom   50 type  1   force =    -0.00000000   -0.00006723   -0.00075160
     atom   51 type  2   force =    -0.00077933    0.00037582    0.00067577
     atom   52 type  2   force =    -0.00000000    0.00017129    0.00012336
     atom   53 type  1   force =    -0.00235931   -0.00246324    0.00040177
     atom   54 type  1   force =    -0.00007223   -0.00004170    0.00001604
     atom   55 type  2   force =     0.00077933    0.00037582    0.00067577
     atom   56 type  2   force =     0.00006195    0.00003577    0.00018558
     atom   57 type  1   force =     0.00000000    0.00000000    0.00017742
     atom   58 type  1   force =     0.00007223   -0.00004170    0.00001604
     atom   59 type  2   force =     0.00000000   -0.00000000   -0.00012429
     atom   60 type  2   force =    -0.00006195    0.00003577    0.00018558
     atom   61 type  1   force =    -0.00095357    0.00327484    0.00040177
     atom   62 type  1   force =    -0.00027539   -0.00015900    0.00002734
     atom   63 type  2   force =    -0.00006419   -0.00086283    0.00067577
     atom   64 type  2   force =     0.00029600    0.00017089    0.00012496
     atom   65 type  1   force =     0.00000000    0.00000000    0.00094607
     atom   66 type  1   force =     0.00027539   -0.00015900    0.00002734
     atom   67 type  2   force =     0.00000000   -0.00000000   -0.00035063
     atom   68 type  2   force =    -0.00029600    0.00017089    0.00012496
     atom   69 type  1   force =     0.00095357    0.00327484    0.00040177
     atom   70 type  1   force =     0.00000000    0.00008341    0.00001604
     atom   71 type  2   force =     0.00006419   -0.00086283    0.00067577
     atom   72 type  2   force =    -0.00000000   -0.00007153    0.00018558
     atom   73 type  1   force =     0.00000000   -0.00000000    0.00024901
     atom   74 type  1   force =     0.00074393   -0.00042951    0.00311727
     atom   75 type  2   force =     0.00000000   -0.00000000   -0.00116461
     atom   76 type  2   force =     0.00912251   -0.00526688   -0.01347357
     atom   77 type  1   force =     0.00002187    0.00027419   -0.00005448
     atom   78 type  1   force =     0.00000000    0.00031854   -0.00145266
     atom   79 type  2   force =     0.00093262    0.00053721   -0.00052807
     atom   80 type  2   force =    -0.00000000   -0.00060967    0.00132269
     atom   81 type  1   force =    -0.00002187    0.00027419   -0.00005448
     atom   82 type  1   force =    -0.00074393   -0.00042951    0.00311727
     atom   83 type  2   force =    -0.00093262    0.00053721   -0.00052807
     atom   84 type  2   force =    -0.00912251   -0.00526688   -0.01347357
     atom   85 type  1   force =    -0.00024839   -0.00011816   -0.00005448
     atom   86 type  1   force =     0.00000000    0.00085902    0.00311727
     atom   87 type  2   force =    -0.00093154    0.00053907   -0.00052807
     atom   88 type  2   force =    -0.00000000    0.01053376   -0.01347357
     atom   89 type  1   force =     0.00024839   -0.00011816   -0.00005448
     atom   90 type  1   force =    -0.00031322   -0.00018084   -0.00104627
     atom   91 type  2   force =     0.00093154    0.00053907   -0.00052807
     atom   92 type  2   force =     0.00089024    0.00051398    0.00145487
     atom   93 type  1   force =     0.00000000   -0.00000000   -0.00037207
     atom   94 type  1   force =     0.00031322   -0.00018084   -0.00104627
     atom   95 type  2   force =     0.00000000   -0.00000000    0.00071273
     atom   96 type  2   force =    -0.00089024    0.00051398    0.00145487
     atom   97 type  1   force =    -0.00022652   -0.00015603   -0.00005448
     atom   98 type  1   force =    -0.00027587   -0.00015927   -0.00145266
     atom   99 type  2   force =     0.00000107   -0.00107627   -0.00052807
     atom  100 type  2   force =     0.00052799    0.00030483    0.00132269
     atom  101 type  1   force =     0.00000000    0.00000000   -0.00046928
     atom  102 type  1   force =     0.00027587   -0.00015927   -0.00145266
     atom  103 type  2   force =     0.00000000    0.00000000    0.00090318
     atom  104 type  2   force =    -0.00052799    0.00030483    0.00132269
     atom  105 type  1   force =     0.00022652   -0.00015603   -0.00005448
     atom  106 type  1   force =     0.00000000    0.00036167   -0.00104627
     atom  107 type  2   force =    -0.00000107   -0.00107627   -0.00052807
     atom  108 type  2   force =     0.00000000   -0.00102797    0.00145487
     The non-local contrib.  to forces
     atom    1 type  1   force =     0.00000000    0.00000000   -0.37313708
     atom    2 type  1   force =     0.22126195   -0.12774565    0.04230669
     atom    3 type  3   force =     0.00000000    0.00000000    0.01800516
     atom    4 type  2   force =     0.02844281   -0.01642146    0.07069580
     atom    5 type  1   force =     0.02349422    0.00656325    0.01408447
     atom    6 type  1   force =     0.00000000   -0.00831354   -0.00296121
     atom    7 type  2   force =     0.04650052    0.00625907    0.01117944
     atom    8 type  2   force =     0.00000000   -0.00208743    0.00987373
     atom    9 type  1   force =    -0.02349422    0.00656325    0.01408447
     atom   10 type  1   force =    -0.22126195   -0.12774565    0.04230669
     atom   11 type  2   force =    -0.04650052    0.00625907    0.01117944
     atom   12 type  2   force =    -0.02844281   -0.01642146    0.07069580
     atom   13 type  1   force =    -0.01743105    0.01706496    0.01408447
     atom   14 type  1   force =     0.00000000    0.25549129    0.04230669
     atom   15 type  2   force =    -0.02867078    0.03714110    0.01117944
     atom   16 type  2   force =     0.00000000    0.03284292    0.07069580
     atom   17 type  1   force =     0.01743105    0.01706496    0.01408447
     atom   18 type  1   force =     0.00390553    0.00225486   -0.00839498
     atom   19 type  2   force =     0.02867078    0.03714110    0.01117944
     atom   20 type  2   force =     0.00318117    0.00183665    0.01086554
     atom   21 type  1   force =     0.00000000    0.00000000    0.01599362
     atom   22 type  1   force =    -0.00390553    0.00225486   -0.00839498
     atom   23 type  2   force =     0.00000000   -0.00000000    0.01594580
     atom   24 type  2   force =    -0.00318117    0.00183665    0.01086554
     atom   25 type  1   force =     0.00606317   -0.02362821    0.01408447
     atom   26 type  1   force =     0.00719973    0.00415677   -0.00296121
     atom   27 type  2   force =     0.01782974   -0.04340017    0.01117944
     atom   28 type  2   force =     0.00180777    0.00104371    0.00987373
     atom   29 type  1   force =     0.00000000    0.00000000    0.01129597
     atom   30 type  1   force =    -0.00719973    0.00415677   -0.00296121
     atom   31 type  2   force =     0.00000000   -0.00000000    0.01694932
     atom   32 type  2   force =    -0.00180777    0.00104371    0.00987373
     atom   33 type  1   force =    -0.00606317   -0.02362821    0.01408447
     atom   34 type  1   force =    -0.00000000   -0.00450971   -0.00839498
     atom   35 type  2   force =    -0.01782974   -0.04340017    0.01117944
     atom   36 type  2   force =     0.00000000   -0.00367330    0.01086554
     atom   37 type  1   force =     0.00000000    0.00000000    0.01928555
     atom   38 type  1   force =     0.00092730   -0.00053538    0.00331138
     atom   39 type  2   force =     0.00000000    0.00000000    0.01968425
     atom   40 type  2   force =     0.00061249   -0.00035362    0.01389621
     atom   41 type  1   force =     0.02270402    0.00871792   -0.00107442
     atom   42 type  1   force =     0.00000000   -0.00233231    0.00119424
     atom   43 type  2   force =     0.00278986    0.00188397    0.01762186
     atom   44 type  2   force =     0.00000000   -0.00114431    0.01395633
     atom   45 type  1   force =    -0.02270402    0.00871792   -0.00107442
     atom   46 type  1   force =    -0.00092730   -0.00053538    0.00331138
     atom   47 type  2   force =    -0.00278986    0.00188397    0.01762186
     atom   48 type  2   force =    -0.00061249   -0.00035362    0.01389621
     atom   49 type  1   force =    -0.01890194    0.01530330   -0.00107442
     atom   50 type  1   force =    -0.00000000    0.00107076    0.00331138
     atom   51 type  2   force =    -0.00302650    0.00147410    0.01762186
     atom   52 type  2   force =    -0.00000000    0.00070724    0.01389621
     atom   53 type  1   force =     0.01890194    0.01530330   -0.00107442
     atom   54 type  1   force =     0.00088498    0.00051094    0.00105547
     atom   55 type  2   force =     0.00302650    0.00147410    0.01762186
     atom   56 type  2   force =     0.00026152    0.00015099    0.01398311
     atom   57 type  1   force =     0.00000000    0.00000000    0.00139335
     atom   58 type  1   force =    -0.00088498    0.00051094    0.00105547
     atom   59 type  2   force =     0.00000000    0.00000000    0.01237718
     atom   60 type  2   force =    -0.00026152    0.00015099    0.01398311
     atom   61 type  1   force =     0.00380207   -0.02402121   -0.00107442
     atom   62 type  1   force =     0.00201984    0.00116615    0.00119424
     atom   63 type  2   force =    -0.00023664   -0.00335807    0.01762186
     atom   64 type  2   force =     0.00099100    0.00057216    0.01395633
     atom   65 type  1   force =     0.00000000    0.00000000   -0.00510020
     atom   66 type  1   force =    -0.00201984    0.00116615    0.00119424
     atom   67 type  2   force =     0.00000000    0.00000000    0.01150928
     atom   68 type  2   force =    -0.00099100    0.00057216    0.01395633
     atom   69 type  1   force =    -0.00380207   -0.02402121   -0.00107442
     atom   70 type  1   force =    -0.00000000   -0.00102189    0.00105547
     atom   71 type  2   force =     0.00023664   -0.00335807    0.01762186
     atom   72 type  2   force =     0.00000000   -0.00030198    0.01398311
     atom   73 type  1   force =     0.00000000   -0.00000000   -0.00195295
     atom   74 type  1   force =    -0.00593898    0.00342887   -0.02959071
     atom   75 type  2   force =     0.00000000    0.00000000    0.00870432
     atom   76 type  2   force =     0.04476744   -0.02584649   -0.03452288
     atom   77 type  1   force =    -0.00015043   -0.00161334    0.00044920
     atom   78 type  1   force =     0.00000000   -0.00201907    0.01087431
     atom   79 type  2   force =     0.00491882    0.00314863    0.01085204
     atom   80 type  2   force =     0.00000000   -0.00301495    0.01819934
     atom   81 type  1   force =     0.00015043   -0.00161334    0.00044920
     atom   82 type  1   force =     0.00593898    0.00342887   -0.02959071
     atom   83 type  2   force =    -0.00491882    0.00314863    0.01085204
     atom   84 type  2   force =    -0.04476744   -0.02584649   -0.03452288
     atom   85 type  1   force =     0.00147240    0.00067639    0.00044920
     atom   86 type  1   force =     0.00000000   -0.00685775   -0.02959071
     atom   87 type  2   force =    -0.00518620    0.00268550    0.01085204
     atom   88 type  2   force =    -0.00000000    0.05169298   -0.03452288
     atom   89 type  1   force =    -0.00147240    0.00067639    0.00044920
     atom   90 type  1   force =     0.00108709    0.00062763    0.00781400
     atom   91 type  2   force =     0.00518620    0.00268550    0.01085204
     atom   92 type  2   force =     0.00382625    0.00220908    0.01825770
     atom   93 type  1   force =     0.00000000   -0.00000000    0.00370672
     atom   94 type  1   force =    -0.00108709    0.00062763    0.00781400
     atom   95 type  2   force =     0.00000000   -0.00000000    0.01595144
     atom   96 type  2   force =    -0.00382625    0.00220908    0.01825770
     atom   97 type  1   force =     0.00132197    0.00093694    0.00044920
     atom   98 type  1   force =     0.00174856    0.00100953    0.01087431
     atom   99 type  2   force =    -0.00026739   -0.00583413    0.01085204
     atom  100 type  2   force =     0.00261102    0.00150747    0.01819934
     atom  101 type  1   force =     0.00000000   -0.00000000    0.00420423
     atom  102 type  1   force =    -0.00174856    0.00100953    0.01087431
     atom  103 type  2   force =     0.00000000    0.00000000    0.01641094
     atom  104 type  2   force =    -0.00261102    0.00150747    0.01819934
     atom  105 type  1   force =    -0.00132197    0.00093694    0.00044920
     atom  106 type  1   force =     0.00000000   -0.00125526    0.00781400
     atom  107 type  2   force =     0.00026739   -0.00583413    0.01085204
     atom  108 type  2   force =     0.00000000   -0.00441817    0.01825770
     The ionic contribution  to forces
     atom    1 type  1   force =     0.00000000   -0.00000020    2.04963769
     atom    2 type  1   force =    -1.46298672    0.84465575   -0.47540403
     atom    3 type  3   force =     0.00000000   -0.00000008   -0.12598438
     atom    4 type  2   force =    -0.11263123    0.06502765   -0.39371126
     atom    5 type  1   force =    -0.29585915   -0.00000020    0.47906860
     atom    6 type  1   force =    -0.00000000    0.04452445    0.07450488
     atom    7 type  2   force =    -0.20803577   -0.00000010   -0.15748047
     atom    8 type  2   force =     0.00000000    0.00940947   -0.24594237
     atom    9 type  1   force =     0.29585915   -0.00000020    0.47906860
     atom   10 type  1   force =     1.46298672    0.84465575   -0.47540403
     atom   11 type  2   force =     0.20803577   -0.00000010   -0.15748047
     atom   12 type  2   force =     0.11263123    0.06502765   -0.39371126
     atom   13 type  1   force =     0.14792958   -0.25622174    0.47906859
     atom   14 type  1   force =    -0.00000000   -1.68931161   -0.47540400
     atom   15 type  2   force =     0.10401789   -0.18016436   -0.15748046
     atom   16 type  2   force =     0.00000000   -0.13005533   -0.39371131
     atom   17 type  1   force =    -0.14792958   -0.25622174    0.47906859
     atom   18 type  1   force =    -0.28796156   -0.16625473    0.04478687
     atom   19 type  2   force =    -0.10401789   -0.18016436   -0.15748046
     atom   20 type  2   force =    -0.05057982   -0.02920226   -0.26306085
     atom   21 type  1   force =     0.00000000   -0.00000020    0.34204980
     atom   22 type  1   force =     0.28796156   -0.16625473    0.04478687
     atom   23 type  2   force =     0.00000000   -0.00000010   -0.15748046
     atom   24 type  2   force =     0.05057982   -0.02920226   -0.26306085
     atom   25 type  1   force =    -0.14792958    0.25622183    0.47906859
     atom   26 type  1   force =    -0.03855933   -0.02226207    0.07450497
     atom   27 type  2   force =    -0.10401788    0.18016437   -0.15748047
     atom   28 type  2   force =    -0.00814886   -0.00470464   -0.24594246
     atom   29 type  1   force =     0.00000000    0.00000029    0.34204980
     atom   30 type  1   force =     0.03855933   -0.02226207    0.07450497
     atom   31 type  2   force =    -0.00000000    0.00000011   -0.15748047
     atom   32 type  2   force =     0.00814886   -0.00470464   -0.24594246
     atom   33 type  1   force =     0.14792958    0.25622183    0.47906859
     atom   34 type  1   force =     0.00000000    0.33250954    0.04478691
     atom   35 type  2   force =     0.10401788    0.18016437   -0.15748047
     atom   36 type  2   force =     0.00000000    0.05840465   -0.26306089
     atom   37 type  1   force =     0.00000000   -0.00000020   -0.55068265
     atom   38 type  1   force =    -0.02085400    0.01204004   -0.00625619
     atom   39 type  2   force =     0.00000000   -0.00000010   -0.25688313
     atom   40 type  2   force =    -0.00336171    0.00194086   -0.15748042
     atom   41 type  1   force =    -0.13235983   -0.00000020   -0.15099521
     atom   42 type  1   force =    -0.00000000    0.00372700    0.02942063
     atom   43 type  2   force =    -0.01265757   -0.00000010   -0.22935684
     atom   44 type  2   force =    -0.00000000    0.00067097   -0.15748042
     atom   45 type  1   force =     0.13235983   -0.00000020   -0.15099521
     atom   46 type  1   force =     0.02085400    0.01204004   -0.00625619
     atom   47 type  2   force =     0.01265757   -0.00000010   -0.22935684
     atom   48 type  2   force =     0.00336171    0.00194086   -0.15748042
     atom   49 type  1   force =     0.06617992   -0.11462717   -0.15099522
     atom   50 type  1   force =    -0.00000000   -0.02408017   -0.00625614
     atom   51 type  2   force =     0.00632878   -0.01096187   -0.22935683
     atom   52 type  2   force =     0.00000000   -0.00388175   -0.15748047
     atom   53 type  1   force =    -0.06617992   -0.11462717   -0.15099522
     atom   54 type  1   force =    -0.01556431   -0.00898610    0.02316790
     atom   55 type  2   force =    -0.00632878   -0.01096187   -0.22935683
     atom   56 type  2   force =    -0.00265993   -0.00153570   -0.15748047
     atom   57 type  1   force =     0.00000000   -0.00000020   -0.06090352
     atom   58 type  1   force =     0.01556431   -0.00898610    0.02316790
     atom   59 type  2   force =     0.00000000   -0.00000010   -0.21877207
     atom   60 type  2   force =     0.00265993   -0.00153570   -0.15748047
     atom   61 type  1   force =    -0.06617991    0.11462726   -0.15099521
     atom   62 type  1   force =    -0.00322771   -0.00186334    0.02942072
     atom   63 type  2   force =    -0.00632878    0.01096188   -0.22935684
     atom   64 type  2   force =    -0.00058109   -0.00033539   -0.15748051
     atom   65 type  1   force =     0.00000000    0.00000029   -0.06090351
     atom   66 type  1   force =     0.00322771   -0.00186334    0.02942072
     atom   67 type  2   force =    -0.00000000    0.00000011   -0.21877208
     atom   68 type  2   force =     0.00058109   -0.00033539   -0.15748051
     atom   69 type  1   force =     0.06617991    0.11462726   -0.15099521
     atom   70 type  1   force =     0.00000000    0.01797229    0.02316794
     atom   71 type  2   force =     0.00632878    0.01096188   -0.22935684
     atom   72 type  2   force =     0.00000000    0.00307153   -0.15748051
     atom   73 type  1   force =     0.00000000   -0.00000020    0.21371832
     atom   74 type  1   force =    -0.05573622    0.03217929    0.45234148
     atom   75 type  2   force =    -0.00000000   -0.00000010   -0.05807781
     atom   76 type  2   force =    -0.11263123    0.06502765    0.07875042
     atom   77 type  1   force =    -0.01024306   -0.00000020    0.20401723
     atom   78 type  1   force =     0.00000000    0.00833312    0.35506323
     atom   79 type  2   force =    -0.01265757   -0.00000010   -0.08560410
     atom   80 type  2   force =     0.00000000    0.00940947   -0.06901847
     atom   81 type  1   force =     0.01024306   -0.00000020    0.20401723
     atom   82 type  1   force =     0.05573622    0.03217929    0.45234148
     atom   83 type  2   force =     0.01265757   -0.00000010   -0.08560410
     atom   84 type  2   force =     0.11263123    0.06502765    0.07875042
     atom   85 type  1   force =     0.00512153   -0.00887094    0.20401722
     atom   86 type  1   force =    -0.00000000   -0.06435869    0.45234153
     atom   87 type  2   force =     0.00632878   -0.01096187   -0.08560409
     atom   88 type  2   force =     0.00000000   -0.13005533    0.07875037
     atom   89 type  1   force =    -0.00512153   -0.00887094    0.20401722
     atom   90 type  1   force =    -0.03744694   -0.02162004    0.37090012
     atom   91 type  2   force =    -0.00632878   -0.01096187   -0.08560409
     atom   92 type  2   force =    -0.05057982   -0.02920226   -0.05190008
     atom   93 type  1   force =     0.00000000   -0.00000020    0.19968204
     atom   94 type  1   force =     0.03744694   -0.02162004    0.37090012
     atom   95 type  2   force =     0.00000000   -0.00000010   -0.09618885
     atom   96 type  2   force =     0.05057982   -0.02920226   -0.05190008
     atom   97 type  1   force =    -0.00512153    0.00887104    0.20401722
     atom   98 type  1   force =    -0.00721672   -0.00416640    0.35506331
     atom   99 type  2   force =    -0.00632878    0.01096188   -0.08560410
     atom  100 type  2   force =    -0.00814886   -0.00470464   -0.06901856
     atom  101 type  1   force =     0.00000000    0.00000029    0.19968204
     atom  102 type  1   force =     0.00721672   -0.00416640    0.35506331
     atom  103 type  2   force =    -0.00000000    0.00000011   -0.09618886
     atom  104 type  2   force =     0.00814886   -0.00470464   -0.06901856
     atom  105 type  1   force =     0.00512153    0.00887104    0.20401722
     atom  106 type  1   force =     0.00000000    0.04324017    0.37090016
     atom  107 type  2   force =     0.00632878    0.01096188   -0.08560410
     atom  108 type  2   force =     0.00000000    0.05840465   -0.05190012
     The local contribution  to forces
     atom    1 type  1   force =    -0.00000000    0.00000000   -1.66910223
     atom    2 type  1   force =     1.24356768   -0.71797184    0.44232820
     atom    3 type  3   force =     0.00000000    0.00000000    0.09163034
     atom    4 type  2   force =     0.09376729   -0.05413639    0.33329590
     atom    5 type  1   force =     0.26748319   -0.00741898   -0.49497167
     atom    6 type  1   force =     0.00000000   -0.03707927   -0.06953512
     atom    7 type  2   force =     0.17232892   -0.00496550    0.14565917
     atom    8 type  2   force =    -0.00000000   -0.00822994    0.23443025
     atom    9 type  1   force =    -0.26748319   -0.00741898   -0.49497167
     atom   10 type  1   force =    -1.24356768   -0.71797184    0.44232820
     atom   11 type  2   force =    -0.17232892   -0.00496550    0.14565917
     atom   12 type  2   force =    -0.09376729   -0.05413639    0.33329590
     atom   13 type  1   force =    -0.12731657    0.23535673   -0.49497167
     atom   14 type  1   force =    -0.00000000    1.43595059    0.44232821
     atom   15 type  2   force =    -0.08186421    0.15172397    0.14565917
     atom   16 type  2   force =    -0.00000000    0.10827333    0.33329590
     atom   17 type  1   force =     0.12731657    0.23535673   -0.49497167
     atom   18 type  1   force =     0.28212657    0.16288816   -0.03556271
     atom   19 type  2   force =     0.08186421    0.15172397    0.14565917
     atom   20 type  2   force =     0.04833955    0.02790903    0.25192190
     atom   21 type  1   force =     0.00000000    0.00000000   -0.36060251
     atom   22 type  1   force =    -0.28212657    0.16288816   -0.03556271
     atom   23 type  2   force =     0.00000000    0.00000000    0.14210476
     atom   24 type  2   force =    -0.04833955    0.02790903    0.25192190
     atom   25 type  1   force =     0.14016662   -0.22793429   -0.49497167
     atom   26 type  1   force =     0.03211358    0.01854309   -0.06953512
     atom   27 type  2   force =     0.09046471   -0.14675819    0.14565917
     atom   28 type  2   force =     0.00712750    0.00411525    0.23443025
     atom   29 type  1   force =    -0.00000000    0.00000346   -0.35545250
     atom   30 type  1   force =    -0.03211358    0.01854309   -0.06953512
     atom   31 type  2   force =     0.00000000    0.00000028    0.14111562
     atom   32 type  2   force =    -0.00712750    0.00411525    0.23443025
     atom   33 type  1   force =    -0.14016662   -0.22793429   -0.49497167
     atom   34 type  1   force =     0.00000000   -0.32576940   -0.03556271
     atom   35 type  2   force =    -0.09046471   -0.14675819    0.14565917
     atom   36 type  2   force =    -0.00000000   -0.05581752    0.25192190
     atom   37 type  1   force =    -0.00000000    0.00000000    0.52441855
     atom   38 type  1   force =     0.01988078   -0.01147587    0.00192519
     atom   39 type  2   force =     0.00000000    0.00000000    0.23843580
     atom   40 type  2   force =     0.00290726   -0.00167833    0.14393686
     atom   41 type  1   force =     0.10654012   -0.00941107    0.15225150
     atom   42 type  1   force =     0.00000000   -0.00109517   -0.03082443
     atom   43 type  2   force =     0.01063179   -0.00136208    0.21270150
     atom   44 type  2   force =    -0.00000000    0.00011153    0.14387859
     atom   45 type  1   force =    -0.10654012   -0.00941107    0.15225150
     atom   46 type  1   force =    -0.01988078   -0.01147587    0.00192519
     atom   47 type  2   force =    -0.01063179   -0.00136208    0.21270150
     atom   48 type  2   force =    -0.00290726   -0.00167833    0.14393686
     atom   49 type  1   force =    -0.04511984    0.09697199    0.15225150
     atom   50 type  1   force =     0.00000000    0.02295864    0.00192519
     atom   51 type  2   force =    -0.00413630    0.00988844    0.21270150
     atom   52 type  2   force =    -0.00000000    0.00335720    0.14393686
     atom   53 type  1   force =     0.04511984    0.09697199    0.15225150
     atom   54 type  1   force =     0.01462006    0.00844320   -0.02444355
     atom   55 type  2   force =     0.00413630    0.00988844    0.21270150
     atom   56 type  2   force =     0.00246430    0.00142295    0.14391222
     atom   57 type  1   force =    -0.00000000    0.00000000    0.05947216
     atom   58 type  1   force =    -0.01462006    0.00844320   -0.02444355
     atom   59 type  2   force =     0.00000000    0.00000000    0.20646268
     atom   60 type  2   force =    -0.00246430    0.00142295    0.14391222
     atom   61 type  1   force =     0.06142028   -0.08755746    0.15225150
     atom   62 type  1   force =     0.00095044    0.00055104   -0.03082443
     atom   63 type  2   force =     0.00649549   -0.00852608    0.21270150
     atom   64 type  2   force =    -0.00009643   -0.00005549    0.14387859
     atom   65 type  1   force =    -0.00000000    0.00000346    0.06670572
     atom   66 type  1   force =    -0.00095044    0.00055104   -0.03082443
     atom   67 type  2   force =     0.00000000    0.00000028    0.20709128
     atom   68 type  2   force =     0.00009643   -0.00005549    0.14387859
     atom   69 type  1   force =    -0.06142028   -0.08755746    0.15225150
     atom   70 type  1   force =     0.00000000   -0.01687949   -0.02444355
     atom   71 type  2   force =    -0.00649549   -0.00852608    0.21270150
     atom   72 type  2   force =    -0.00000000   -0.00284535    0.14391222
     atom   73 type  1   force =    -0.00000000    0.00000000   -0.21178152
     atom   74 type  1   force =     0.06234459   -0.03599236   -0.42023274
     atom   75 type  2   force =     0.00000000    0.00000000    0.04836012
     atom   76 type  2   force =     0.07778863   -0.04491110   -0.05833912
     atom   77 type  1   force =     0.01040988    0.00188037   -0.20476225
     atom   78 type  1   force =     0.00000000   -0.00601899   -0.36752531
     atom   79 type  2   force =     0.00875838   -0.00255372    0.07440612
     atom   80 type  2   force =    -0.00000000   -0.00705818    0.05243501
     atom   81 type  1   force =    -0.01040988    0.00188037   -0.20476225
     atom   82 type  1   force =    -0.06234459   -0.03599236   -0.42023274
     atom   83 type  2   force =    -0.00875838   -0.00255372    0.07440612
     atom   84 type  2   force =    -0.07778863   -0.04491110   -0.05833912
     atom   85 type  1   force =    -0.00683339    0.00807504   -0.20476225
     atom   86 type  1   force =     0.00000000    0.07199163   -0.42023274
     atom   87 type  2   force =    -0.00216760    0.00886184    0.07440612
     atom   88 type  2   force =    -0.00000000    0.08982275   -0.05833912
     atom   89 type  1   force =     0.00683339    0.00807504   -0.20476225
     atom   90 type  1   force =     0.03603610    0.02080776   -0.37991429
     atom   91 type  2   force =     0.00216760    0.00886184    0.07440612
     atom   92 type  2   force =     0.04770536    0.02754288    0.03539157
     atom   93 type  1   force =    -0.00000000    0.00000000   -0.20396289
     atom   94 type  1   force =    -0.03603610    0.02080776   -0.37991429
     atom   95 type  2   force =     0.00000000    0.00000000    0.08122200
     atom   96 type  2   force =    -0.04770536    0.02754288    0.03539157
     atom   97 type  1   force =     0.00357649   -0.00995195   -0.20476225
     atom   98 type  1   force =     0.00521459    0.00301295   -0.36752531
     atom   99 type  2   force =     0.00659077   -0.00630784    0.07440612
     atom  100 type  2   force =     0.00611272    0.00352937    0.05243501
     atom  101 type  1   force =    -0.00000000    0.00000346   -0.20454580
     atom  102 type  1   force =    -0.00521459    0.00301295   -0.36752531
     atom  103 type  2   force =     0.00000000    0.00000028    0.08096140
     atom  104 type  2   force =    -0.00611272    0.00352937    0.05243501
     atom  105 type  1   force =    -0.00357649   -0.00995195   -0.20476225
     atom  106 type  1   force =     0.00000000   -0.04160860   -0.37991429
     atom  107 type  2   force =    -0.00659077   -0.00630784    0.07440612
     atom  108 type  2   force =    -0.00000000   -0.05508522    0.03539157
     The core correction contribution to forces
     atom    1 type  1   force =    -0.00000000    0.00000000    0.00852030
     atom    2 type  1   force =    -0.00534753    0.00308757   -0.00181775
     atom    3 type  3   force =    -0.00000000   -0.00000000   -0.00034188
     atom    4 type  2   force =    -0.00049842    0.00028776   -0.00127003
     atom    5 type  1   force =    -0.00005461   -0.00012121    0.00012598
     atom    6 type  1   force =     0.00000000    0.00025669    0.00013858
     atom    7 type  2   force =    -0.00082541   -0.00011333   -0.00017672
     atom    8 type  2   force =    -0.00000000    0.00003542   -0.00015631
     atom    9 type  1   force =     0.00005461   -0.00012121    0.00012598
     atom   10 type  1   force =     0.00534753    0.00308757   -0.00181775
     atom   11 type  2   force =     0.00082541   -0.00011333   -0.00017672
     atom   12 type  2   force =     0.00049842    0.00028776   -0.00127003
     atom   13 type  1   force =     0.00013227    0.00001331    0.00012598
     atom   14 type  1   force =     0.00000000   -0.00617463   -0.00181775
     atom   15 type  2   force =     0.00051085   -0.00065816   -0.00017672
     atom   16 type  2   force =    -0.00000000   -0.00057553   -0.00127003
     atom   17 type  1   force =    -0.00013227    0.00001331    0.00012598
     atom   18 type  1   force =     0.00007721    0.00004475    0.00023630
     atom   19 type  2   force =    -0.00051085   -0.00065816   -0.00017672
     atom   20 type  2   force =    -0.00005336   -0.00003081   -0.00016792
     atom   21 type  1   force =    -0.00000000    0.00000000    0.00013477
     atom   22 type  1   force =    -0.00007721    0.00004475    0.00023630
     atom   23 type  2   force =    -0.00000000   -0.00000000   -0.00026225
     atom   24 type  2   force =     0.00005336   -0.00003081   -0.00016792
     atom   25 type  1   force =     0.00007767    0.00010815    0.00012598
     atom   26 type  1   force =    -0.00022215   -0.00012809    0.00013858
     atom   27 type  2   force =    -0.00031455    0.00077149   -0.00017672
     atom   28 type  2   force =    -0.00003068   -0.00001772   -0.00015631
     atom   29 type  1   force =    -0.00000000    0.00000026    0.00015554
     atom   30 type  1   force =     0.00022215   -0.00012809    0.00013858
     atom   31 type  2   force =    -0.00000000   -0.00000000   -0.00028058
     atom   32 type  2   force =     0.00003068   -0.00001772   -0.00015631
     atom   33 type  1   force =    -0.00007767    0.00010815    0.00012598
     atom   34 type  1   force =     0.00000000   -0.00008899    0.00023630
     atom   35 type  2   force =     0.00031455    0.00077149   -0.00017672
     atom   36 type  2   force =    -0.00000000    0.00006161   -0.00016792
     atom   37 type  1   force =    -0.00000000    0.00000000    0.00051286
     atom   38 type  1   force =    -0.00001534    0.00000903    0.00026451
     atom   39 type  2   force =    -0.00000000   -0.00000000   -0.00032940
     atom   40 type  2   force =    -0.00001101    0.00000636   -0.00022327
     atom   41 type  1   force =    -0.00019908   -0.00011206    0.00022182
     atom   42 type  1   force =     0.00000000    0.00002246    0.00023445
     atom   43 type  2   force =    -0.00004978   -0.00003380   -0.00029287
     atom   44 type  2   force =    -0.00000000    0.00002012   -0.00022426
     atom   45 type  1   force =     0.00019908   -0.00011206    0.00022182
     atom   46 type  1   force =     0.00001534    0.00000903    0.00026451
     atom   47 type  2   force =     0.00004978   -0.00003380   -0.00029287
     atom   48 type  2   force =     0.00001101    0.00000636   -0.00022327
     atom   49 type  1   force =     0.00019659   -0.00011638    0.00022182
     atom   50 type  1   force =     0.00000000   -0.00001754    0.00026451
     atom   51 type  2   force =     0.00005416   -0.00002622   -0.00029287
     atom   52 type  2   force =    -0.00000000   -0.00001272   -0.00022327
     atom   53 type  1   force =    -0.00019659   -0.00011638    0.00022182
     atom   54 type  1   force =    -0.00001339   -0.00000756    0.00023122
     atom   55 type  2   force =    -0.00005416   -0.00002622   -0.00029287
     atom   56 type  2   force =    -0.00000494   -0.00000285   -0.00022448
     atom   57 type  1   force =    -0.00000000    0.00000000    0.00021692
     atom   58 type  1   force =     0.00001339   -0.00000756    0.00023122
     atom   59 type  2   force =    -0.00000000   -0.00000000   -0.00019522
     atom   60 type  2   force =     0.00000494   -0.00000285   -0.00022448
     atom   61 type  1   force =    -0.00000249    0.00022870    0.00022182
     atom   62 type  1   force =    -0.00001930   -0.00001097    0.00023445
     atom   63 type  2   force =     0.00000438    0.00006001   -0.00029287
     atom   64 type  2   force =    -0.00001743   -0.00001006   -0.00022426
     atom   65 type  1   force =    -0.00000000    0.00000026    0.00024991
     atom   66 type  1   force =     0.00001930   -0.00001097    0.00023445
     atom   67 type  2   force =    -0.00000000   -0.00000000   -0.00018014
     atom   68 type  2   force =     0.00001743   -0.00001006   -0.00022426
     atom   69 type  1   force =     0.00000249    0.00022870    0.00022182
     atom   70 type  1   force =     0.00000000    0.00001563    0.00023122
     atom   71 type  2   force =    -0.00000438    0.00006001   -0.00029287
     atom   72 type  2   force =    -0.00000000    0.00000570   -0.00022448
     atom   73 type  1   force =    -0.00000000    0.00000000    0.00028507
     atom   74 type  1   force =     0.00006686   -0.00003843    0.00063362
     atom   75 type  2   force =    -0.00000000   -0.00000000   -0.00013383
     atom   76 type  2   force =    -0.00080852    0.00046679    0.00063360
     atom   77 type  1   force =     0.00000276    0.00000720    0.00025915
     atom   78 type  1   force =     0.00000000    0.00002656    0.00016240
     atom   79 type  2   force =    -0.00008972   -0.00005804   -0.00016751
     atom   80 type  2   force =    -0.00000000    0.00005438   -0.00029905
     atom   81 type  1   force =    -0.00000276    0.00000720    0.00025915
     atom   82 type  1   force =    -0.00006686   -0.00003843    0.00063362
     atom   83 type  2   force =     0.00008972   -0.00005804   -0.00016751
     atom   84 type  2   force =     0.00080852    0.00046679    0.00063360
     atom   85 type  1   force =    -0.00000762   -0.00000121    0.00025915
     atom   86 type  1   force =     0.00000000    0.00007737    0.00063362
     atom   87 type  2   force =     0.00009512   -0.00004868   -0.00016751
     atom   88 type  2   force =    -0.00000000   -0.00093360    0.00063360
     atom   89 type  1   force =     0.00000762   -0.00000121    0.00025915
     atom   90 type  1   force =     0.00000255    0.00000165    0.00018436
     atom   91 type  2   force =    -0.00009512   -0.00004868   -0.00016751
     atom   92 type  2   force =    -0.00006558   -0.00003787   -0.00029969
     atom   93 type  1   force =    -0.00000000    0.00000000    0.00021847
     atom   94 type  1   force =    -0.00000255    0.00000165    0.00018436
     atom   95 type  2   force =    -0.00000000   -0.00000000   -0.00025873
     atom   96 type  2   force =     0.00006558   -0.00003787   -0.00029969
     atom   97 type  1   force =    -0.00000486   -0.00000573    0.00025915
     atom   98 type  1   force =    -0.00002285   -0.00001302    0.00016240
     atom   99 type  2   force =     0.00000540    0.00010671   -0.00016751
     atom  100 type  2   force =    -0.00004710   -0.00002719   -0.00029905
     atom  101 type  1   force =    -0.00000000    0.00000026    0.00020905
     atom  102 type  1   force =     0.00002285   -0.00001302    0.00016240
     atom  103 type  2   force =    -0.00000000   -0.00000000   -0.00026678
     atom  104 type  2   force =     0.00004710   -0.00002719   -0.00029905
     atom  105 type  1   force =     0.00000486   -0.00000573    0.00025915
     atom  106 type  1   force =     0.00000000   -0.00000278    0.00018436
     atom  107 type  2   force =    -0.00000540    0.00010671   -0.00016751
     atom  108 type  2   force =    -0.00000000    0.00007572   -0.00029969
     The Hubbard contrib.    to forces
     atom    1 type  1   force =     0.00000000    0.00000000    0.00000000
     atom    2 type  1   force =     0.00000000    0.00000000    0.00000000
     atom    3 type  3   force =     0.00000000    0.00000000    0.00000000
     atom    4 type  2   force =     0.00000000    0.00000000    0.00000000
     atom    5 type  1   force =     0.00000000    0.00000000    0.00000000
     atom    6 type  1   force =     0.00000000    0.00000000    0.00000000
     atom    7 type  2   force =     0.00000000    0.00000000    0.00000000
     atom    8 type  2   force =     0.00000000    0.00000000    0.00000000
     atom    9 type  1   force =     0.00000000    0.00000000    0.00000000
     atom   10 type  1   force =     0.00000000    0.00000000    0.00000000
     atom   11 type  2   force =     0.00000000    0.00000000    0.00000000
     atom   12 type  2   force =     0.00000000    0.00000000    0.00000000
     atom   13 type  1   force =     0.00000000    0.00000000    0.00000000
     atom   14 type  1   force =     0.00000000    0.00000000    0.00000000
     atom   15 type  2   force =     0.00000000    0.00000000    0.00000000
     atom   16 type  2   force =     0.00000000    0.00000000    0.00000000
     atom   17 type  1   force =     0.00000000    0.00000000    0.00000000
     atom   18 type  1   force =     0.00000000    0.00000000    0.00000000
     atom   19 type  2   force =     0.00000000    0.00000000    0.00000000
     atom   20 type  2   force =     0.00000000    0.00000000    0.00000000
     atom   21 type  1   force =     0.00000000    0.00000000    0.00000000
     atom   22 type  1   force =     0.00000000    0.00000000    0.00000000
     atom   23 type  2   force =     0.00000000    0.00000000    0.00000000
     atom   24 type  2   force =     0.00000000    0.00000000    0.00000000
     atom   25 type  1   force =     0.00000000    0.00000000    0.00000000
     atom   26 type  1   force =     0.00000000    0.00000000    0.00000000
     atom   27 type  2   force =     0.00000000    0.00000000    0.00000000
     atom   28 type  2   force =     0.00000000    0.00000000    0.00000000
     atom   29 type  1   force =     0.00000000    0.00000000    0.00000000
     atom   30 type  1   force =     0.00000000    0.00000000    0.00000000
     atom   31 type  2   force =     0.00000000    0.00000000    0.00000000
     atom   32 type  2   force =     0.00000000    0.00000000    0.00000000
     atom   33 type  1   force =     0.00000000    0.00000000    0.00000000
     atom   34 type  1   force =     0.00000000    0.00000000    0.00000000
     atom   35 type  2   force =     0.00000000    0.00000000    0.00000000
     atom   36 type  2   force =     0.00000000    0.00000000    0.00000000
     atom   37 type  1   force =     0.00000000    0.00000000    0.00000000
     atom   38 type  1   force =     0.00000000    0.00000000    0.00000000
     atom   39 type  2   force =     0.00000000    0.00000000    0.00000000
     atom   40 type  2   force =     0.00000000    0.00000000    0.00000000
     atom   41 type  1   force =     0.00000000    0.00000000    0.00000000
     atom   42 type  1   force =     0.00000000    0.00000000    0.00000000
     atom   43 type  2   force =     0.00000000    0.00000000    0.00000000
     atom   44 type  2   force =     0.00000000    0.00000000    0.00000000
     atom   45 type  1   force =     0.00000000    0.00000000    0.00000000
     atom   46 type  1   force =     0.00000000    0.00000000    0.00000000
     atom   47 type  2   force =     0.00000000    0.00000000    0.00000000
     atom   48 type  2   force =     0.00000000    0.00000000    0.00000000
     atom   49 type  1   force =     0.00000000    0.00000000    0.00000000
     atom   50 type  1   force =     0.00000000    0.00000000    0.00000000
     atom   51 type  2   force =     0.00000000    0.00000000    0.00000000
     atom   52 type  2   force =     0.00000000    0.00000000    0.00000000
     atom   53 type  1   force =     0.00000000    0.00000000    0.00000000
     atom   54 type  1   force =     0.00000000    0.00000000    0.00000000
     atom   55 type  2   force =     0.00000000    0.00000000    0.00000000
     atom   56 type  2   force =     0.00000000    0.00000000    0.00000000
     atom   57 type  1   force =     0.00000000    0.00000000    0.00000000
     atom   58 type  1   force =     0.00000000    0.00000000    0.00000000
     atom   59 type  2   force =     0.00000000    0.00000000    0.00000000
     atom   60 type  2   force =     0.00000000    0.00000000    0.00000000
     atom   61 type  1   force =     0.00000000    0.00000000    0.00000000
     atom   62 type  1   force =     0.00000000    0.00000000    0.00000000
     atom   63 type  2   force =     0.00000000    0.00000000    0.00000000
     atom   64 type  2   force =     0.00000000    0.00000000    0.00000000
     atom   65 type  1   force =     0.00000000    0.00000000    0.00000000
     atom   66 type  1   force =     0.00000000    0.00000000    0.00000000
     atom   67 type  2   force =     0.00000000    0.00000000    0.00000000
     atom   68 type  2   force =     0.00000000    0.00000000    0.00000000
     atom   69 type  1   force =     0.00000000    0.00000000    0.00000000
     atom   70 type  1   force =     0.00000000    0.00000000    0.00000000
     atom   71 type  2   force =     0.00000000    0.00000000    0.00000000
     atom   72 type  2   force =     0.00000000    0.00000000    0.00000000
     atom   73 type  1   force =     0.00000000    0.00000000    0.00000000
     atom   74 type  1   force =     0.00000000    0.00000000    0.00000000
     atom   75 type  2   force =     0.00000000    0.00000000    0.00000000
     atom   76 type  2   force =     0.00000000    0.00000000    0.00000000
     atom   77 type  1   force =     0.00000000    0.00000000    0.00000000
     atom   78 type  1   force =     0.00000000    0.00000000    0.00000000
     atom   79 type  2   force =     0.00000000    0.00000000    0.00000000
     atom   80 type  2   force =     0.00000000    0.00000000    0.00000000
     atom   81 type  1   force =     0.00000000    0.00000000    0.00000000
     atom   82 type  1   force =     0.00000000    0.00000000    0.00000000
     atom   83 type  2   force =     0.00000000    0.00000000    0.00000000
     atom   84 type  2   force =     0.00000000    0.00000000    0.00000000
     atom   85 type  1   force =     0.00000000    0.00000000    0.00000000
     atom   86 type  1   force =     0.00000000    0.00000000    0.00000000
     atom   87 type  2   force =     0.00000000    0.00000000    0.00000000
     atom   88 type  2   force =     0.00000000    0.00000000    0.00000000
     atom   89 type  1   force =     0.00000000    0.00000000    0.00000000
     atom   90 type  1   force =     0.00000000    0.00000000    0.00000000
     atom   91 type  2   force =     0.00000000    0.00000000    0.00000000
     atom   92 type  2   force =     0.00000000    0.00000000    0.00000000
     atom   93 type  1   force =     0.00000000    0.00000000    0.00000000
     atom   94 type  1   force =     0.00000000    0.00000000    0.00000000
     atom   95 type  2   force =     0.00000000    0.00000000    0.00000000
     atom   96 type  2   force =     0.00000000    0.00000000    0.00000000
     atom   97 type  1   force =     0.00000000    0.00000000    0.00000000
     atom   98 type  1   force =     0.00000000    0.00000000    0.00000000
     atom   99 type  2   force =     0.00000000    0.00000000    0.00000000
     atom  100 type  2   force =     0.00000000    0.00000000    0.00000000
     atom  101 type  1   force =     0.00000000    0.00000000    0.00000000
     atom  102 type  1   force =     0.00000000    0.00000000    0.00000000
     atom  103 type  2   force =     0.00000000    0.00000000    0.00000000
     atom  104 type  2   force =     0.00000000    0.00000000    0.00000000
     atom  105 type  1   force =     0.00000000    0.00000000    0.00000000
     atom  106 type  1   force =     0.00000000    0.00000000    0.00000000
     atom  107 type  2   force =     0.00000000    0.00000000    0.00000000
     atom  108 type  2   force =     0.00000000    0.00000000    0.00000000
     The SCF correction term to forces
     atom    1 type  1   force =     0.00000000   -0.00000000    0.00002456
     atom    2 type  1   force =     0.00001459   -0.00000843    0.00002812
     atom    3 type  3   force =    -0.00000000   -0.00000000    0.00001192
     atom    4 type  2   force =     0.00000286   -0.00000165    0.00000133
     atom    5 type  1   force =     0.00001391    0.00000073    0.00002424
     atom    6 type  1   force =    -0.00000000    0.00000137    0.00002226
     atom    7 type  2   force =     0.00000385   -0.00000107    0.00001206
     atom    8 type  2   force =     0.00000000   -0.00000192    0.00000021
     atom    9 type  1   force =    -0.00001391    0.00000073    0.00002424
     atom   10 type  1   force =    -0.00001459   -0.00000843    0.00002812
     atom   11 type  2   force =    -0.00000385   -0.00000107    0.00001206
     atom   12 type  2   force =    -0.00000286   -0.00000165    0.00000133
     atom   13 type  1   force =    -0.00000759    0.00001168    0.00002424
     atom   14 type  1   force =    -0.00000000    0.00001685    0.00002812
     atom   15 type  2   force =    -0.00000100    0.00000387    0.00001206
     atom   16 type  2   force =     0.00000000    0.00000331    0.00000133
     atom   17 type  1   force =     0.00000759    0.00001168    0.00002424
     atom   18 type  1   force =     0.00000289    0.00000167    0.00002009
     atom   19 type  2   force =     0.00000100    0.00000387    0.00001206
     atom   20 type  2   force =     0.00000038    0.00000022    0.00000032
     atom   21 type  1   force =     0.00000000   -0.00000000    0.00001891
     atom   22 type  1   force =    -0.00000289    0.00000167    0.00002009
     atom   23 type  2   force =    -0.00000000   -0.00000000    0.00000978
     atom   24 type  2   force =    -0.00000038    0.00000022    0.00000032
     atom   25 type  1   force =     0.00000632   -0.00001241    0.00002424
     atom   26 type  1   force =    -0.00000119   -0.00000069    0.00002226
     atom   27 type  2   force =     0.00000285   -0.00000280    0.00001206
     atom   28 type  2   force =     0.00000166    0.00000096    0.00000021
     atom   29 type  1   force =     0.00000000   -0.00000000    0.00002076
     atom   30 type  1   force =     0.00000119   -0.00000069    0.00002226
     atom   31 type  2   force =    -0.00000000    0.00000000    0.00001226
     atom   32 type  2   force =    -0.00000166    0.00000096    0.00000021
     atom   33 type  1   force =    -0.00000632   -0.00001241    0.00002424
     atom   34 type  1   force =     0.00000000   -0.00000334    0.00002009
     atom   35 type  2   force =    -0.00000285   -0.00000280    0.00001206
     atom   36 type  2   force =     0.00000000   -0.00000044    0.00000032
     atom   37 type  1   force =     0.00000000   -0.00000000    0.00000026
     atom   38 type  1   force =     0.00000305   -0.00000176    0.00000339
     atom   39 type  2   force =    -0.00000000   -0.00000000    0.00000253
     atom   40 type  2   force =     0.00000130   -0.00000075   -0.00000611
     atom   41 type  1   force =     0.00000310   -0.00000569   -0.00000202
     atom   42 type  1   force =    -0.00000000   -0.00000148    0.00000229
     atom   43 type  2   force =     0.00000098   -0.00000100    0.00000200
     atom   44 type  2   force =     0.00000000    0.00000011   -0.00000531
     atom   45 type  1   force =    -0.00000310   -0.00000569   -0.00000202
     atom   46 type  1   force =    -0.00000305   -0.00000176    0.00000339
     atom   47 type  2   force =    -0.00000098   -0.00000100    0.00000200
     atom   48 type  2   force =    -0.00000130   -0.00000075   -0.00000611
     atom   49 type  1   force =     0.00000338    0.00000553   -0.00000202
     atom   50 type  1   force =    -0.00000000    0.00000352    0.00000339
     atom   51 type  2   force =     0.00000038    0.00000135    0.00000200
     atom   52 type  2   force =     0.00000000    0.00000150   -0.00000611
     atom   53 type  1   force =    -0.00000338    0.00000553   -0.00000202
     atom   54 type  1   force =     0.00000049    0.00000028    0.00000489
     atom   55 type  2   force =    -0.00000038    0.00000135    0.00000200
     atom   56 type  2   force =     0.00000102    0.00000059   -0.00000488
     atom   57 type  1   force =     0.00000000   -0.00000000   -0.00000160
     atom   58 type  1   force =    -0.00000049    0.00000028    0.00000489
     atom   59 type  2   force =    -0.00000000   -0.00000000    0.00000304
     atom   60 type  2   force =    -0.00000102    0.00000059   -0.00000488
     atom   61 type  1   force =     0.00000648    0.00000016   -0.00000202
     atom   62 type  1   force =     0.00000128    0.00000074    0.00000229
     atom   63 type  2   force =     0.00000136   -0.00000035    0.00000200
     atom   64 type  2   force =    -0.00000009   -0.00000005   -0.00000531
     atom   65 type  1   force =     0.00000000   -0.00000000   -0.00000596
     atom   66 type  1   force =    -0.00000128    0.00000074    0.00000229
     atom   67 type  2   force =    -0.00000000   -0.00000000    0.00000093
     atom   68 type  2   force =     0.00000009   -0.00000005   -0.00000531
     atom   69 type  1   force =    -0.00000648    0.00000016   -0.00000202
     atom   70 type  1   force =    -0.00000000   -0.00000056    0.00000489
     atom   71 type  2   force =    -0.00000136   -0.00000035    0.00000200
     atom   72 type  2   force =     0.00000000   -0.00000118   -0.00000488
     atom   73 type  1   force =     0.00000000   -0.00000000   -0.00002002
     atom   74 type  1   force =     0.00000769   -0.00000444   -0.00003450
     atom   75 type  2   force =    -0.00000000   -0.00000000   -0.00001751
     atom   76 type  2   force =     0.00000618   -0.00000357    0.00000433
     atom   77 type  1   force =     0.00000392    0.00000065   -0.00001792
     atom   78 type  1   force =    -0.00000000   -0.00000057   -0.00002744
     atom   79 type  2   force =     0.00000284    0.00000041   -0.00001473
     atom   80 type  2   force =     0.00000000   -0.00000019    0.00000582
     atom   81 type  1   force =    -0.00000392    0.00000065   -0.00001792
     atom   82 type  1   force =    -0.00000769   -0.00000444   -0.00003450
     atom   83 type  2   force =    -0.00000284    0.00000041   -0.00001473
     atom   84 type  2   force =    -0.00000618   -0.00000357    0.00000433
     atom   85 type  1   force =    -0.00000253    0.00000307   -0.00001792
     atom   86 type  1   force =    -0.00000000    0.00000888   -0.00003450
     atom   87 type  2   force =    -0.00000178    0.00000226   -0.00001473
     atom   88 type  2   force =     0.00000000    0.00000714    0.00000433
     atom   89 type  1   force =     0.00000253    0.00000307   -0.00001792
     atom   90 type  1   force =     0.00000804    0.00000464   -0.00003056
     atom   91 type  2   force =     0.00000178    0.00000226   -0.00001473
     atom   92 type  2   force =     0.00000407    0.00000235    0.00000529
     atom   93 type  1   force =     0.00000000   -0.00000000   -0.00001651
     atom   94 type  1   force =    -0.00000804    0.00000464   -0.00003056
     atom   95 type  2   force =    -0.00000000   -0.00000000   -0.00001322
     atom   96 type  2   force =    -0.00000407    0.00000235    0.00000529
     atom   97 type  1   force =     0.00000140   -0.00000372   -0.00001792
     atom   98 type  1   force =     0.00000049    0.00000028   -0.00002744
     atom   99 type  2   force =     0.00000107   -0.00000267   -0.00001473
     atom  100 type  2   force =     0.00000017    0.00000010    0.00000582
     atom  101 type  1   force =     0.00000000   -0.00000000   -0.00001891
     atom  102 type  1   force =    -0.00000049    0.00000028   -0.00002744
     atom  103 type  2   force =    -0.00000000    0.00000000   -0.00001364
     atom  104 type  2   force =    -0.00000017    0.00000010    0.00000582
     atom  105 type  1   force =    -0.00000140   -0.00000372   -0.00001792
     atom  106 type  1   force =    -0.00000000   -0.00000929   -0.00003056
     atom  107 type  2   force =    -0.00000107   -0.00000267   -0.00001473
     atom  108 type  2   force =     0.00000000   -0.00000470    0.00000529

     Total force =     0.056808     Total SCF correction =     0.000170

     Writing all to output data dir ./tmp/GaN.save/ :
     XML data file, charge density, pseudopotentials, collected wavefunctions
 
     init_run     :     52.19s CPU     54.74s WALL (       1 calls)
     electrons    :   4658.91s CPU   4800.39s WALL (       1 calls)
     forces       :     25.48s CPU     27.54s WALL (       1 calls)

     Called by init_run:
     wfcinit      :     44.24s CPU     45.59s WALL (       1 calls)
     wfcinit:atom :      0.15s CPU      0.29s WALL (       4 calls)
     wfcinit:wfcr :     42.86s CPU     43.79s WALL (       4 calls)
     potinit      :      2.55s CPU      2.69s WALL (       1 calls)
     hinit0       :      1.77s CPU      1.81s WALL (       1 calls)

     Called by electrons:
     c_bands      :   4030.99s CPU   4117.61s WALL (      28 calls)
     sum_band     :    499.16s CPU    526.95s WALL (      28 calls)
     v_of_rho     :     23.30s CPU     26.05s WALL (      29 calls)
     v_h          :      1.10s CPU      1.12s WALL (      29 calls)
     v_xc         :     22.99s CPU     25.79s WALL (      30 calls)
     newd         :     55.63s CPU     79.30s WALL (      29 calls)
     PAW_pot      :     46.95s CPU     47.36s WALL (      29 calls)
     mix_rho      :      4.96s CPU      5.42s WALL (      28 calls)

     Called by c_bands:
     init_us_2    :     21.34s CPU     21.49s WALL (     232 calls)
     cegterg      :   3990.41s CPU   4076.37s WALL (     112 calls)

     Called by sum_band:
     sum_band:wei :      0.04s CPU      0.04s WALL (      28 calls)
     sum_band:loo :    405.77s CPU    410.24s WALL (      28 calls)
     sum_band:buf :      2.66s CPU      2.67s WALL (     112 calls)
     sum_band:ini :     10.19s CPU     10.23s WALL (     112 calls)
     sum_band:cal :    123.96s CPU    124.59s WALL (     112 calls)
     sum_band:bec :      0.72s CPU      0.72s WALL (     112 calls)
     addusdens    :     87.99s CPU    110.19s WALL (      28 calls)
                                        0.00s GPU  (      28 calls)
     addusd:skk   :      3.77s CPU      8.76s WALL (      84 calls)
                                        0.00s GPU  (      84 calls)

     Called by *egterg:
     cdiaghg      :    381.04s CPU    396.07s WALL (    1016 calls)
     cegterg:over :    371.87s CPU    379.56s WALL (     904 calls)
     cegterg:upda :    249.03s CPU    257.29s WALL (     904 calls)
     cegterg:last :    598.30s CPU    601.21s WALL (     331 calls)
     cdiaghg:chol :     10.15s CPU     13.51s WALL (    1016 calls)
     cdiaghg:inve :      4.33s CPU      5.40s WALL (    1016 calls)
     cdiaghg:para :     69.68s CPU     71.91s WALL (    2032 calls)
     h_psi        :   1931.50s CPU   1962.95s WALL (    1020 calls)
     s_psi        :    403.80s CPU    406.65s WALL (    1020 calls)
     g_psi        :      3.83s CPU      3.87s WALL (     904 calls)

     Called by h_psi:
     h_psi:calbec :    414.03s CPU    416.26s WALL (    1020 calls)
     vloc_psi     :   1105.86s CPU   1125.74s WALL (    1020 calls)
     add_vuspsi   :    404.76s CPU    407.92s WALL (    1020 calls)

     General routines
     calbec       :    556.16s CPU    559.26s WALL (    1148 calls)
     fft          :     14.57s CPU     15.51s WALL (     738 calls)
     ffts         :      0.38s CPU      0.40s WALL (     114 calls)
     fftw         :    698.24s CPU    711.54s WALL (  428856 calls)
     interpolate  :      1.39s CPU      1.76s WALL (      58 calls)
 
     Parallel routines

     PAW routines
     PAW_pot      :     46.95s CPU     47.36s WALL (      29 calls)
     PAW_symme    :      0.06s CPU      0.06s WALL (      57 calls)
 
     PWSCF        :      1h18m CPU      1h21m WALL

 
   This run was terminated on:   4:10:50   6Aug2026            

=------------------------------------------------------------------------------=
   JOB DONE.
=------------------------------------------------------------------------------=
