
     Program PWSCF v.7.3.1 starts on 26May2026 at 23: 9:21 

     This program is part of the open-source Quantum ESPRESSO suite
     for quantum simulation of materials; please cite
         "P. Giannozzi et al., J. Phys.:Condens. Matter 21 395502 (2009);
         "P. Giannozzi et al., J. Phys.:Condens. Matter 29 465901 (2017);
         "P. Giannozzi et al., J. Chem. Phys. 152 154105 (2020);
          URL http://www.quantum-espresso.org", 
     in publications or presentations arising from this work. More details at
     http://www.quantum-espresso.org/quote

     Parallel version (MPI & OpenMP), running on       1 processor cores
     Number of MPI processes:                 1
     Threads/MPI process:                     1

     MPI processes distributed on     1 nodes
     31549 MiB available memory on the printing compute node when the environment starts
 
     Waiting for input...
     Reading input from standard input

     Current dimensions of program PWSCF are:
     Max number of different atomic species (ntypx) = 10
     Max number of k-points (npk) =  40000
     Max angular momentum in pseudopotentials (lmaxx) =  4
     file Ga.pbe-dn-kjpaw_psl.1.0.0.UPF: wavefunction(s)  4S renormalized
     file N.pbe-n-kjpaw_psl.1.0.0.UPF: wavefunction(s)  2S renormalized
 
     Subspace diagonalization in iterative solution of the eigenvalue problem:
     a serial algorithm will be used

 
     G-vector sticks info
     --------------------
     sticks:   dense  smooth     PW     G-vecs:    dense   smooth      PW
     Sum         499     199     73                14595     3717     761
 
     Using Slab Decomposition
 


     bravais-lattice index     =            4
     lattice parameter (alat)  =       6.0093  a.u.
     unit-cell volume          =     306.1338 (a.u.)^3
     number of atoms/cell      =            4
     number of atomic types    =            2
     number of electrons       =        36.00
     number of Kohn-Sham states=           22
     kinetic-energy cutoff     =      20.0000  Ry
     charge density cutoff     =     200.0000  Ry
     scf convergence threshold =      1.0E-08
     mixing beta               =       0.7000
     number of iterations used =            8  plain     mixing
     Exchange-correlation= SLA  PW   PBX  PBC
                           (   1   4   3   4   0   0   0)

     celldm(1)=   6.009329  celldm(2)=   0.000000  celldm(3)=   1.628931
     celldm(4)=   0.000000  celldm(5)=   0.000000  celldm(6)=   0.000000

     crystal axes: (cart. coord. in units of alat)
               a(1) = (   1.000000   0.000000   0.000000 )  
               a(2) = (  -0.500000   0.866025   0.000000 )  
               a(3) = (   0.000000   0.000000   1.628931 )  

     reciprocal axes: (cart. coord. in units 2 pi/alat)
               b(1) = (  1.000000  0.577350  0.000000 )  
               b(2) = (  0.000000  1.154701  0.000000 )  
               b(3) = (  0.000000  0.000000  0.613900 )  


     PseudoPot. # 1 for Ga read from file:
     ../PSEUDO/Ga.pbe-dn-kjpaw_psl.1.0.0.UPF
     MD5 check sum: 93aceff68ec27daa0acc11ebb2e245f0
     Pseudo is Projector augmented-wave + core cor, Zval = 13.0
     Generated using 'atomic' code by A. Dal Corso  v.7.3.1
     Shape of augmentation charge: PSQ
     Using radial grid of 1205 points,  6 beta functions with: 
                l(1) =   0
                l(2) =   0
                l(3) =   1
                l(4) =   1
                l(5) =   2
                l(6) =   2
     Q(r) pseudized with 0 coefficients 


     PseudoPot. # 2 for N  read from file:
     ../PSEUDO/N.pbe-n-kjpaw_psl.1.0.0.UPF
     MD5 check sum: 86f48117b7e7b472c01f85d0863ba463
     Pseudo is Projector augmented-wave + core cor, Zval =  5.0
     Generated using 'atomic' code by A. Dal Corso  v.7.3.1
     Shape of augmentation charge: PSQ
     Using radial grid of 1085 points,  4 beta functions with: 
                l(1) =   0
                l(2) =   0
                l(3) =   1
                l(4) =   1
     Q(r) pseudized with 0 coefficients 


     atomic species   valence    mass     pseudopotential
     Ga               13.00    69.72300     Ga( 1.00)
     N                 5.00    14.00700     N ( 1.00)

      2 Sym. Ops. (no inversion) found ( 1 have fractional translation)


                                    s                        frac. trans.

      isym =  1     identity                                     

 cryst.   s( 1) = (     1          0          0      )
                  (     0          1          0      )
                  (     0          0          1      )

 cart.    s( 1) = (  1.0000000  0.0000000  0.0000000 )
                  (  0.0000000  1.0000000  0.0000000 )
                  (  0.0000000  0.0000000  1.0000000 )


      isym =  2     inv. 180 deg rotation - cryst. axis [1,-1,0] 

 cryst.   s( 2) = (     0          1          0      )    f =(  0.0000000 )
                  (     1          0          0      )       (  0.0000000 )
                  (     0          0          1      )       ( -0.5000000 )

 cart.    s( 2) = ( -0.5000000  0.8660254  0.0000000 )    f =(  0.0000000 )
                  (  0.8660254  0.5000000  0.0000000 )       (  0.0000000 )
                  (  0.0000000  0.0000000  1.0000000 )       ( -0.8144654 )


     point group C_s (m)    
     there are  2 classes
     the character table:

       E     s    
A'     1.00  1.00
A''    1.00 -1.00

     the symmetry operations in each class and the name of the first element:

     E        1
          identity                                               
     s        2
          inv. 180 deg rotation - cryst. axis [1,-1,0]           

   Cartesian axes

     site n.     atom                  positions (alat units)
         1        Ga     tau(   1) = (   0.0000000   0.5767729   0.0000000  )
         2        Ga     tau(   2) = (   0.4995000   0.2883865   0.8144654  )
         3        N      tau(   3) = (   0.0000000   0.5767729   0.6108491  )
         4        N      tau(   4) = (   0.4995000   0.2883865   1.4253145  )

   Crystallographic axes

     site n.     atom                  positions (cryst. coord.)
         1        Ga     tau(   1) = (  0.3330000  0.6660000  0.0000000  )
         2        Ga     tau(   2) = (  0.6660000  0.3330000  0.5000000  )
         3        N      tau(   3) = (  0.3330000  0.6660000  0.3750000  )
         4        N      tau(   4) = (  0.6660000  0.3330000  0.8750000  )

     number of k points=    52
                       cart. coord. in units 2pi/alat
        k(    1) = (   0.1250000   0.2165064   0.0767375), wk =   0.0208333
        k(    2) = (   0.1250000   0.2165064   0.2302124), wk =   0.0208333
        k(    3) = (   0.1250000   0.5051815   0.0767375), wk =   0.0416667
        k(    4) = (   0.1250000   0.5051815   0.2302124), wk =   0.0416667
        k(    5) = (   0.1250000  -0.3608439   0.0767375), wk =   0.0416667
        k(    6) = (   0.1250000  -0.3608439   0.2302124), wk =   0.0416667
        k(    7) = (   0.1250000  -0.0721688   0.0767375), wk =   0.0416667
        k(    8) = (   0.1250000  -0.0721688   0.2302124), wk =   0.0416667
        k(    9) = (   0.3750000   0.6495191   0.0767375), wk =   0.0208333
        k(   10) = (   0.3750000   0.6495191   0.2302124), wk =   0.0208333
        k(   11) = (   0.3750000  -0.2165064   0.0767375), wk =   0.0416667
        k(   12) = (   0.3750000  -0.2165064   0.2302124), wk =   0.0416667
        k(   13) = (  -0.1250000   0.2165064  -0.0767375), wk =   0.0416667
        k(   14) = (   0.1250000  -0.2165064  -0.0767375), wk =   0.0416667
        k(   15) = (   0.1250000   0.2165064  -0.0767375), wk =   0.0208333
        k(   16) = (  -0.1250000   0.2165064  -0.2302124), wk =   0.0416667
        k(   17) = (   0.1250000  -0.2165064  -0.2302124), wk =   0.0416667
        k(   18) = (   0.1250000   0.2165064  -0.2302124), wk =   0.0208333
        k(   19) = (  -0.1250000   0.5051815  -0.0767375), wk =   0.0416667
        k(   20) = (   0.1250000  -0.5051815  -0.0767375), wk =   0.0416667
        k(   21) = (  -0.3750000   0.3608439   0.0767375), wk =   0.0416667
        k(   22) = (   0.3750000  -0.3608439   0.0767375), wk =   0.0416667
        k(   23) = (   0.3750000   0.3608439  -0.0767375), wk =   0.0416667
        k(   24) = (  -0.1250000   0.5051815  -0.2302124), wk =   0.0416667
        k(   25) = (   0.1250000  -0.5051815  -0.2302124), wk =   0.0416667
        k(   26) = (  -0.3750000   0.3608439   0.2302124), wk =   0.0416667
        k(   27) = (   0.3750000  -0.3608439   0.2302124), wk =   0.0416667
        k(   28) = (   0.3750000   0.3608439  -0.2302124), wk =   0.0416667
        k(   29) = (  -0.1250000  -0.3608439  -0.0767375), wk =   0.0416667
        k(   30) = (   0.1250000   0.3608439  -0.0767375), wk =   0.0416667
        k(   31) = (   0.3750000  -0.0721688   0.0767375), wk =   0.0416667
        k(   32) = (  -0.3750000   0.0721688   0.0767375), wk =   0.0416667
        k(   33) = (  -0.3750000  -0.0721688  -0.0767375), wk =   0.0416667
        k(   34) = (  -0.1250000  -0.3608439  -0.2302124), wk =   0.0416667
        k(   35) = (   0.1250000   0.3608439  -0.2302124), wk =   0.0416667
        k(   36) = (   0.3750000  -0.0721688   0.2302124), wk =   0.0416667
        k(   37) = (  -0.3750000   0.0721688   0.2302124), wk =   0.0416667
        k(   38) = (  -0.3750000  -0.0721688  -0.2302124), wk =   0.0416667
        k(   39) = (  -0.1250000  -0.0721688  -0.0767375), wk =   0.0416667
        k(   40) = (   0.1250000   0.0721688  -0.0767375), wk =   0.0416667
        k(   41) = (  -0.1250000  -0.0721688  -0.2302124), wk =   0.0416667
        k(   42) = (   0.1250000   0.0721688  -0.2302124), wk =   0.0416667
        k(   43) = (  -0.3750000   0.6495191  -0.0767375), wk =   0.0416667
        k(   44) = (   0.3750000  -0.6495191  -0.0767375), wk =   0.0416667
        k(   45) = (   0.3750000   0.6495191  -0.0767375), wk =   0.0208333
        k(   46) = (  -0.3750000   0.6495191  -0.2302124), wk =   0.0416667
        k(   47) = (   0.3750000  -0.6495191  -0.2302124), wk =   0.0416667
        k(   48) = (   0.3750000   0.6495191  -0.2302124), wk =   0.0208333
        k(   49) = (  -0.3750000  -0.2165064  -0.0767375), wk =   0.0416667
        k(   50) = (   0.3750000   0.2165064  -0.0767375), wk =   0.0416667
        k(   51) = (  -0.3750000  -0.2165064  -0.2302124), wk =   0.0416667
        k(   52) = (   0.3750000   0.2165064  -0.2302124), wk =   0.0416667

                       cryst. coord.
        k(    1) = (   0.1250000   0.1250000   0.1250000), wk =   0.0208333
        k(    2) = (   0.1250000   0.1250000   0.3750000), wk =   0.0208333
        k(    3) = (   0.1250000   0.3750000   0.1250000), wk =   0.0416667
        k(    4) = (   0.1250000   0.3750000   0.3750000), wk =   0.0416667
        k(    5) = (   0.1250000  -0.3750000   0.1250000), wk =   0.0416667
        k(    6) = (   0.1250000  -0.3750000   0.3750000), wk =   0.0416667
        k(    7) = (   0.1250000  -0.1250000   0.1250000), wk =   0.0416667
        k(    8) = (   0.1250000  -0.1250000   0.3750000), wk =   0.0416667
        k(    9) = (   0.3750000   0.3750000   0.1250000), wk =   0.0208333
        k(   10) = (   0.3750000   0.3750000   0.3750000), wk =   0.0208333
        k(   11) = (   0.3750000  -0.3750000   0.1250000), wk =   0.0416667
        k(   12) = (   0.3750000  -0.3750000   0.3750000), wk =   0.0416667
        k(   13) = (  -0.1250000   0.2500000  -0.1250000), wk =   0.0416667
        k(   14) = (   0.1250000  -0.2500000  -0.1250000), wk =   0.0416667
        k(   15) = (   0.1250000   0.1250000  -0.1250000), wk =   0.0208333
        k(   16) = (  -0.1250000   0.2500000  -0.3750000), wk =   0.0416667
        k(   17) = (   0.1250000  -0.2500000  -0.3750000), wk =   0.0416667
        k(   18) = (   0.1250000   0.1250000  -0.3750000), wk =   0.0208333
        k(   19) = (  -0.1250000   0.5000000  -0.1250000), wk =   0.0416667
        k(   20) = (   0.1250000  -0.5000000  -0.1250000), wk =   0.0416667
        k(   21) = (  -0.3750000   0.5000000   0.1250000), wk =   0.0416667
        k(   22) = (   0.3750000  -0.5000000   0.1250000), wk =   0.0416667
        k(   23) = (   0.3750000   0.1250000  -0.1250000), wk =   0.0416667
        k(   24) = (  -0.1250000   0.5000000  -0.3750000), wk =   0.0416667
        k(   25) = (   0.1250000  -0.5000000  -0.3750000), wk =   0.0416667
        k(   26) = (  -0.3750000   0.5000000   0.3750000), wk =   0.0416667
        k(   27) = (   0.3750000  -0.5000000   0.3750000), wk =   0.0416667
        k(   28) = (   0.3750000   0.1250000  -0.3750000), wk =   0.0416667
        k(   29) = (  -0.1250000  -0.2500000  -0.1250000), wk =   0.0416667
        k(   30) = (   0.1250000   0.2500000  -0.1250000), wk =   0.0416667
        k(   31) = (   0.3750000  -0.2500000   0.1250000), wk =   0.0416667
        k(   32) = (  -0.3750000   0.2500000   0.1250000), wk =   0.0416667
        k(   33) = (  -0.3750000   0.1250000  -0.1250000), wk =   0.0416667
        k(   34) = (  -0.1250000  -0.2500000  -0.3750000), wk =   0.0416667
        k(   35) = (   0.1250000   0.2500000  -0.3750000), wk =   0.0416667
        k(   36) = (   0.3750000  -0.2500000   0.3750000), wk =   0.0416667
        k(   37) = (  -0.3750000   0.2500000   0.3750000), wk =   0.0416667
        k(   38) = (  -0.3750000   0.1250000  -0.3750000), wk =   0.0416667
        k(   39) = (  -0.1250000   0.0000000  -0.1250000), wk =   0.0416667
        k(   40) = (   0.1250000   0.0000000  -0.1250000), wk =   0.0416667
        k(   41) = (  -0.1250000   0.0000000  -0.3750000), wk =   0.0416667
        k(   42) = (   0.1250000   0.0000000  -0.3750000), wk =   0.0416667
        k(   43) = (  -0.3750000   0.7500000  -0.1250000), wk =   0.0416667
        k(   44) = (   0.3750000  -0.7500000  -0.1250000), wk =   0.0416667
        k(   45) = (   0.3750000   0.3750000  -0.1250000), wk =   0.0208333
        k(   46) = (  -0.3750000   0.7500000  -0.3750000), wk =   0.0416667
        k(   47) = (   0.3750000  -0.7500000  -0.3750000), wk =   0.0416667
        k(   48) = (   0.3750000   0.3750000  -0.3750000), wk =   0.0208333
        k(   49) = (  -0.3750000   0.0000000  -0.1250000), wk =   0.0416667
        k(   50) = (   0.3750000   0.0000000  -0.1250000), wk =   0.0416667
        k(   51) = (  -0.3750000   0.0000000  -0.3750000), wk =   0.0416667
        k(   52) = (   0.3750000   0.0000000  -0.3750000), wk =   0.0416667

     Dense  grid:    14595 G-vectors     FFT dimensions: (  27,  27,  48)

     Smooth grid:     3717 G-vectors     FFT dimensions: (  18,  18,  30)

     Dynamical RAM for                 wfc:       0.16 MB

     Dynamical RAM for     wfc (w. buffer):       8.22 MB

     Dynamical RAM for           str. fact:       0.45 MB

     Dynamical RAM for           local pot:       0.00 MB

     Dynamical RAM for          nlocal pot:       0.37 MB

     Dynamical RAM for                qrad:       2.27 MB

     Dynamical RAM for          rho,v,vnew:       1.47 MB

     Dynamical RAM for               rhoin:       0.49 MB

     Dynamical RAM for            rho*nmix:       3.56 MB

     Dynamical RAM for           G-vectors:       0.86 MB

     Dynamical RAM for          h,s,v(r/c):       0.09 MB

     Dynamical RAM for          <psi|beta>:       0.02 MB

     Dynamical RAM for                 psi:       0.31 MB

     Dynamical RAM for                hpsi:       0.31 MB

     Dynamical RAM for                spsi:       0.31 MB

     Dynamical RAM for      wfcinit/wfcrot:       0.38 MB

     Dynamical RAM for           addusdens:      41.87 MB

     Dynamical RAM for          addusforce:      42.43 MB

     Estimated static dynamical RAM per process >      16.13 MB

     Estimated max dynamical RAM per process >      62.12 MB

     Check: negative core charge=   -0.000022

     Initial potential from superposition of free atoms

     starting charge      35.9941, renormalised to      36.0000
     Starting wfcs are   26 randomized atomic wfcs
     Checking if some PAW data can be deallocated... 

     total cpu time spent up to now is        1.6 secs

     Self-consistent Calculation

     iteration #  1     ecut=    20.00 Ry     beta= 0.70
     Davidson diagonalization with overlap

---- Real-time Memory Report at c_bands before calling an iterative solver
           143 MiB given to the printing process from OS
             0 MiB allocation reported by mallinfo(arena+hblkhd)
         31511 MiB available memory on the node where the printing process lives
------------------
     ethr =  1.00E-02,  avg # of iterations =  2.2

     total cpu time spent up to now is        3.1 secs

     total energy              =    -611.20586251 Ry
     estimated scf accuracy    <       0.74513226 Ry

     iteration #  2     ecut=    20.00 Ry     beta= 0.70
     Davidson diagonalization with overlap

---- Real-time Memory Report at c_bands before calling an iterative solver
           170 MiB given to the printing process from OS
             0 MiB allocation reported by mallinfo(arena+hblkhd)
         31488 MiB available memory on the node where the printing process lives
------------------
     ethr =  2.07E-03,  avg # of iterations =  2.7

     total cpu time spent up to now is        4.8 secs

     total energy              =    -611.40423068 Ry
     estimated scf accuracy    <       0.56285493 Ry

     iteration #  3     ecut=    20.00 Ry     beta= 0.70
     Davidson diagonalization with overlap

---- Real-time Memory Report at c_bands before calling an iterative solver
           170 MiB given to the printing process from OS
             0 MiB allocation reported by mallinfo(arena+hblkhd)
         31488 MiB available memory on the node where the printing process lives
------------------
     ethr =  1.56E-03,  avg # of iterations =  2.0

     total cpu time spent up to now is        6.0 secs

     total energy              =    -611.51316530 Ry
     estimated scf accuracy    <       0.00319325 Ry

     iteration #  4     ecut=    20.00 Ry     beta= 0.70
     Davidson diagonalization with overlap

---- Real-time Memory Report at c_bands before calling an iterative solver
           174 MiB given to the printing process from OS
             0 MiB allocation reported by mallinfo(arena+hblkhd)
         31485 MiB available memory on the node where the printing process lives
------------------
     ethr =  8.87E-06,  avg # of iterations =  4.2

     total cpu time spent up to now is        7.3 secs

     total energy              =    -611.51371210 Ry
     estimated scf accuracy    <       0.00060548 Ry

     iteration #  5     ecut=    20.00 Ry     beta= 0.70
     Davidson diagonalization with overlap

---- Real-time Memory Report at c_bands before calling an iterative solver
           174 MiB given to the printing process from OS
             0 MiB allocation reported by mallinfo(arena+hblkhd)
         31485 MiB available memory on the node where the printing process lives
------------------
     ethr =  1.68E-06,  avg # of iterations =  2.4

     total cpu time spent up to now is        8.4 secs

     total energy              =    -611.51383664 Ry
     estimated scf accuracy    <       0.00000353 Ry

     iteration #  6     ecut=    20.00 Ry     beta= 0.70
     Davidson diagonalization with overlap

---- Real-time Memory Report at c_bands before calling an iterative solver
           174 MiB given to the printing process from OS
             0 MiB allocation reported by mallinfo(arena+hblkhd)
         31485 MiB available memory on the node where the printing process lives
------------------
     ethr =  9.81E-09,  avg # of iterations =  3.2

     total cpu time spent up to now is        9.5 secs

     total energy              =    -611.51383778 Ry
     estimated scf accuracy    <       0.00000047 Ry

     iteration #  7     ecut=    20.00 Ry     beta= 0.70
     Davidson diagonalization with overlap

---- Real-time Memory Report at c_bands before calling an iterative solver
           174 MiB given to the printing process from OS
             0 MiB allocation reported by mallinfo(arena+hblkhd)
         31484 MiB available memory on the node where the printing process lives
------------------
     ethr =  1.31E-09,  avg # of iterations =  2.0

     total cpu time spent up to now is       10.6 secs

     End of self-consistent calculation

          k = 0.1250 0.2165 0.0767 (   457 PWs)   bands (ev):

    -6.2666  -6.1280  -5.0384  -5.0356  -4.9751  -4.9667  -4.8807  -4.8513
    -4.8084  -4.7766  -4.6319  -2.6624   3.6617   6.9921   7.4726   8.4517
    10.0256  10.0441  14.0557  16.2533  18.4310  18.6524

     occupation numbers 
     1.0000   1.0000   1.0000   1.0000   1.0000   1.0000   1.0000   1.0000
     1.0000   1.0000   1.0000   1.0000   1.0000   1.0000   1.0000   1.0000
     1.0000   1.0000   0.0000   0.0000   0.0000   0.0000

          k = 0.1250 0.2165 0.2302 (   464 PWs)   bands (ev):

    -6.1638  -6.1236  -5.0494  -5.0281  -5.0079  -4.9948  -4.8752  -4.8598
    -4.8083  -4.7970  -4.2904  -3.5306   5.0667   6.5564   7.7497   8.6810
     9.2184   9.3708  14.8637  15.9902  17.9926  18.3820

     occupation numbers 
     1.0000   1.0000   1.0000   1.0000   1.0000   1.0000   1.0000   1.0000
     1.0000   1.0000   1.0000   1.0000   1.0000   1.0000   1.0000   1.0000
     1.0000   1.0000   0.0000   0.0000   0.0000   0.0000

          k = 0.1250 0.5052 0.0767 (   462 PWs)   bands (ev):

    -6.1515  -6.1133  -5.0378  -5.0077  -4.9286  -4.9048  -4.8852  -4.8586
    -4.8015  -4.7606  -3.1088  -2.2111   3.5814   4.6921   5.9842   6.8404
     8.3210   8.7729  15.6939  16.6731  17.3226  18.6853

     occupation numbers 
     1.0000   1.0000   1.0000   1.0000   1.0000   1.0000   1.0000   1.0000
     1.0000   1.0000   1.0000   1.0000   1.0000   1.0000   1.0000   1.0000
     1.0000   1.0000   0.0000   0.0000   0.0000   0.0000

          k = 0.1250 0.5052 0.2302 (   468 PWs)   bands (ev):

    -6.1143  -6.0986  -5.0338  -5.0042  -4.9853  -4.9231  -4.8757  -4.8458
    -4.8061  -4.7905  -2.8995  -2.5244   3.4346   3.9146   6.9574   7.8133
     7.9687   8.8234  15.0624  16.0027  18.2416  18.7324

     occupation numbers 
     1.0000   1.0000   1.0000   1.0000   1.0000   1.0000   1.0000   1.0000
     1.0000   1.0000   1.0000   1.0000   1.0000   1.0000   1.0000   1.0000
     1.0000   1.0000   0.0000   0.0000   0.0000   0.0000

          k = 0.1250-0.3608 0.0767 (   463 PWs)   bands (ev):

    -6.1718  -6.1191  -5.0436  -5.0145  -4.9442  -4.9186  -4.8913  -4.8628
    -4.8199  -4.7758  -3.9801  -2.3024   3.9886   5.5588   6.1605   7.3390
     9.1722   9.3035  15.1168  16.9418  17.4977  18.7492

     occupation numbers 
     1.0000   1.0000   1.0000   1.0000   1.0000   1.0000   1.0000   1.0000
     1.0000   1.0000   1.0000   1.0000   1.0000   1.0000   1.0000   1.0000
     1.0000   1.0000   0.0000   0.0000   0.0000   0.0000

          k = 0.1250-0.3608 0.2302 (   463 PWs)   bands (ev):

    -6.1191  -6.1020  -5.0298  -5.0046  -4.9855  -4.9465  -4.8759  -4.8693
    -4.7985  -4.7843  -3.6391  -2.9696   4.3772   5.1243   7.2909   7.7892
     8.4978   9.0300  15.1506  16.2986  17.9520  18.5818

     occupation numbers 
     1.0000   1.0000   1.0000   1.0000   1.0000   1.0000   1.0000   1.0000
     1.0000   1.0000   1.0000   1.0000   1.0000   1.0000   1.0000   1.0000
     1.0000   1.0000   0.0000   0.0000   0.0000   0.0000

          k = 0.1250-0.0722 0.0767 (   463 PWs)   bands (ev):

    -6.3944  -6.1485  -5.0729  -5.0708  -5.0144  -4.9897  -4.9482  -4.8567
    -4.8394  -4.7933  -4.7598  -2.9279   3.2992   8.2233   8.9960   9.0597
    10.3939  10.5127  13.1077  15.0997  18.9484  19.6477

     occupation numbers 
     1.0000   1.0000   1.0000   1.0000   1.0000   1.0000   1.0000   1.0000
     1.0000   1.0000   1.0000   1.0000   1.0000   1.0000   1.0000   1.0000
     1.0000   1.0000   0.0000   0.0000   0.0000   0.0000

          k = 0.1250-0.0722 0.2302 (   471 PWs)   bands (ev):

    -6.2381  -6.1556  -5.0699  -5.0582  -5.0484  -5.0255  -4.8782  -4.8314
    -4.8278  -4.7953  -4.6206  -3.8644   5.0648   7.2945   8.7375   9.4240
     9.5655  10.0224  14.2656  15.0225  18.5004  18.6880

     occupation numbers 
     1.0000   1.0000   1.0000   1.0000   1.0000   1.0000   1.0000   1.0000
     1.0000   1.0000   1.0000   1.0000   1.0000   1.0000   1.0000   1.0000
     1.0000   1.0000   0.0000   0.0000   0.0000   0.0000

          k = 0.3750 0.6495 0.0767 (   460 PWs)   bands (ev):

    -6.1295  -6.1123  -5.0514  -4.9471  -4.9166  -4.9011  -4.8823  -4.8531
    -4.8255  -4.8015  -2.5812  -2.2182   3.9601   4.5416   5.1638   6.9791
     7.5924   7.8825  16.3606  17.3441  18.0743  18.9616

     occupation numbers 
     1.0000   1.0000   1.0000   1.0000   1.0000   1.0000   1.0000   1.0000
     1.0000   1.0000   1.0000   1.0000   1.0000   1.0000   1.0000   1.0000
     1.0000   1.0000   0.0000   0.0000   0.0000   0.0000

          k = 0.3750 0.6495 0.2302 (   459 PWs)   bands (ev):

    -6.0968  -6.0886  -4.9992  -4.9792  -4.9635  -4.9293  -4.8487  -4.8458
    -4.8255  -4.8126  -2.4752  -2.3302   3.6525   3.8686   5.7175   6.7388
     8.2834   8.7088  16.2891  16.9594  18.0813  18.7783

     occupation numbers 
     1.0000   1.0000   1.0000   1.0000   1.0000   1.0000   1.0000   1.0000
     1.0000   1.0000   1.0000   1.0000   1.0000   1.0000   1.0000   1.0000
     1.0000   1.0000   0.0000   0.0000   0.0000   0.0000

          k = 0.3750-0.2165 0.0767 (   460 PWs)   bands (ev):

    -6.1673  -6.1143  -5.0323  -5.0128  -4.9382  -4.9094  -4.8877  -4.8551
    -4.8075  -4.7529  -3.6660  -2.2586   3.7283   5.0570   5.8727   7.6626
     8.8821   9.4804  14.8495  15.9396  17.5385  18.7872

     occupation numbers 
     1.0000   1.0000   1.0000   1.0000   1.0000   1.0000   1.0000   1.0000
     1.0000   1.0000   1.0000   1.0000   1.0000   1.0000   1.0000   1.0000
     1.0000   1.0000   0.0000   0.0000   0.0000   0.0000

          k = 0.3750-0.2165 0.2302 (   458 PWs)   bands (ev):

    -6.1153  -6.0958  -5.0354  -5.0029  -4.9757  -4.9128  -4.8712  -4.8310
    -4.7955  -4.7727  -3.3588  -2.7861   3.7831   4.4195   7.3579   8.1687
     8.8278   8.9521  14.4774  15.4661  18.1018  18.6146

     occupation numbers 
     1.0000   1.0000   1.0000   1.0000   1.0000   1.0000   1.0000   1.0000
     1.0000   1.0000   1.0000   1.0000   1.0000   1.0000   1.0000   1.0000
     1.0000   1.0000   0.0000   0.0000   0.0000   0.0000

          k =-0.1250 0.2165-0.0767 (   457 PWs)   bands (ev):

    -6.2663  -6.1280  -5.0380  -5.0347  -4.9754  -4.9656  -4.8811  -4.8512
    -4.8084  -4.7770  -4.6331  -2.6623   3.6616   6.9833   7.4722   8.4555
    10.0296  10.0423  14.0536  16.2526  18.4418  18.6552

     occupation numbers 
     1.0000   1.0000   1.0000   1.0000   1.0000   1.0000   1.0000   1.0000
     1.0000   1.0000   1.0000   1.0000   1.0000   1.0000   1.0000   1.0000
     1.0000   1.0000   0.0000   0.0000   0.0000   0.0000

          k = 0.1250-0.2165-0.0767 (   457 PWs)   bands (ev):

    -6.2663  -6.1280  -5.0380  -5.0347  -4.9754  -4.9656  -4.8811  -4.8512
    -4.8084  -4.7770  -4.6331  -2.6623   3.6616   6.9833   7.4722   8.4555
    10.0296  10.0423  14.0536  16.2526  18.4418  18.6552

     occupation numbers 
     1.0000   1.0000   1.0000   1.0000   1.0000   1.0000   1.0000   1.0000
     1.0000   1.0000   1.0000   1.0000   1.0000   1.0000   1.0000   1.0000
     1.0000   1.0000   0.0000   0.0000   0.0000   0.0000

          k = 0.1250 0.2165-0.0767 (   457 PWs)   bands (ev):

    -6.2666  -6.1280  -5.0384  -5.0356  -4.9751  -4.9667  -4.8807  -4.8513
    -4.8084  -4.7766  -4.6319  -2.6624   3.6617   6.9921   7.4726   8.4517
    10.0256  10.0441  14.0557  16.2533  18.4310  18.6524

     occupation numbers 
     1.0000   1.0000   1.0000   1.0000   1.0000   1.0000   1.0000   1.0000
     1.0000   1.0000   1.0000   1.0000   1.0000   1.0000   1.0000   1.0000
     1.0000   1.0000   0.0000   0.0000   0.0000   0.0000

          k =-0.1250 0.2165-0.2302 (   464 PWs)   bands (ev):

    -6.1636  -6.1236  -5.0493  -5.0273  -5.0083  -4.9942  -4.8756  -4.8597
    -4.8085  -4.7970  -4.2906  -3.5306   5.0646   6.5524   7.7433   8.6878
     9.2161   9.3766  14.8625  15.9902  17.9932  18.3855

     occupation numbers 
     1.0000   1.0000   1.0000   1.0000   1.0000   1.0000   1.0000   1.0000
     1.0000   1.0000   1.0000   1.0000   1.0000   1.0000   1.0000   1.0000
     1.0000   1.0000   0.0000   0.0000   0.0000   0.0000

          k = 0.1250-0.2165-0.2302 (   464 PWs)   bands (ev):

    -6.1636  -6.1236  -5.0493  -5.0273  -5.0083  -4.9942  -4.8756  -4.8597
    -4.8085  -4.7970  -4.2906  -3.5306   5.0646   6.5524   7.7433   8.6878
     9.2161   9.3766  14.8624  15.9902  17.9932  18.3854

     occupation numbers 
     1.0000   1.0000   1.0000   1.0000   1.0000   1.0000   1.0000   1.0000
     1.0000   1.0000   1.0000   1.0000   1.0000   1.0000   1.0000   1.0000
     1.0000   1.0000   0.0000   0.0000   0.0000   0.0000

          k = 0.1250 0.2165-0.2302 (   464 PWs)   bands (ev):

    -6.1638  -6.1236  -5.0494  -5.0281  -5.0079  -4.9948  -4.8752  -4.8598
    -4.8083  -4.7970  -4.2904  -3.5306   5.0667   6.5564   7.7497   8.6810
     9.2184   9.3708  14.8637  15.9902  17.9926  18.3820

     occupation numbers 
     1.0000   1.0000   1.0000   1.0000   1.0000   1.0000   1.0000   1.0000
     1.0000   1.0000   1.0000   1.0000   1.0000   1.0000   1.0000   1.0000
     1.0000   1.0000   0.0000   0.0000   0.0000   0.0000

          k =-0.1250 0.5052-0.0767 (   462 PWs)   bands (ev):

    -6.1515  -6.1133  -5.0377  -5.0076  -4.9286  -4.9047  -4.8852  -4.8586
    -4.8015  -4.7606  -3.1083  -2.2116   3.5808   4.6901   5.9857   6.8394
     8.3215   8.7734  15.6932  16.6743  17.3231  18.6847

     occupation numbers 
     1.0000   1.0000   1.0000   1.0000   1.0000   1.0000   1.0000   1.0000
     1.0000   1.0000   1.0000   1.0000   1.0000   1.0000   1.0000   1.0000
     1.0000   1.0000   0.0000   0.0000   0.0000   0.0000

          k = 0.1250-0.5052-0.0767 (   462 PWs)   bands (ev):

    -6.1515  -6.1133  -5.0377  -5.0076  -4.9286  -4.9047  -4.8852  -4.8586
    -4.8015  -4.7606  -3.1083  -2.2116   3.5808   4.6901   5.9857   6.8394
     8.3215   8.7734  15.6932  16.6743  17.3231  18.6847

     occupation numbers 
     1.0000   1.0000   1.0000   1.0000   1.0000   1.0000   1.0000   1.0000
     1.0000   1.0000   1.0000   1.0000   1.0000   1.0000   1.0000   1.0000
     1.0000   1.0000   0.0000   0.0000   0.0000   0.0000

          k =-0.3750 0.3608 0.0767 (   462 PWs)   bands (ev):

    -6.1513  -6.1130  -5.0370  -5.0070  -4.9287  -4.9046  -4.8845  -4.8589
    -4.8014  -4.7607  -3.1068  -2.2133   3.5788   4.6811   5.9893   6.8429
     8.3139   8.7743  15.6977  16.6759  17.3301  18.6858

     occupation numbers 
     1.0000   1.0000   1.0000   1.0000   1.0000   1.0000   1.0000   1.0000
     1.0000   1.0000   1.0000   1.0000   1.0000   1.0000   1.0000   1.0000
     1.0000   1.0000   0.0000   0.0000   0.0000   0.0000

          k = 0.3750-0.3608 0.0767 (   462 PWs)   bands (ev):

    -6.1513  -6.1130  -5.0370  -5.0070  -4.9287  -4.9046  -4.8845  -4.8589
    -4.8014  -4.7607  -3.1068  -2.2133   3.5788   4.6811   5.9893   6.8429
     8.3139   8.7743  15.6977  16.6759  17.3301  18.6858

     occupation numbers 
     1.0000   1.0000   1.0000   1.0000   1.0000   1.0000   1.0000   1.0000
     1.0000   1.0000   1.0000   1.0000   1.0000   1.0000   1.0000   1.0000
     1.0000   1.0000   0.0000   0.0000   0.0000   0.0000

          k = 0.3750 0.3608-0.0767 (   462 PWs)   bands (ev):

    -6.1515  -6.1133  -5.0378  -5.0077  -4.9286  -4.9048  -4.8852  -4.8586
    -4.8015  -4.7606  -3.1088  -2.2111   3.5814   4.6922   5.9842   6.8404
     8.3210   8.7729  15.6939  16.6731  17.3226  18.6853

     occupation numbers 
     1.0000   1.0000   1.0000   1.0000   1.0000   1.0000   1.0000   1.0000
     1.0000   1.0000   1.0000   1.0000   1.0000   1.0000   1.0000   1.0000
     1.0000   1.0000   0.0000   0.0000   0.0000   0.0000

          k =-0.1250 0.5052-0.2302 (   468 PWs)   bands (ev):

    -6.1143  -6.0986  -5.0338  -5.0041  -4.9852  -4.9229  -4.8756  -4.8456
    -4.8061  -4.7906  -2.8992  -2.5245   3.4333   3.9127   6.9594   7.8098
     7.9731   8.8228  15.0624  16.0044  18.2367  18.7326

     occupation numbers 
     1.0000   1.0000   1.0000   1.0000   1.0000   1.0000   1.0000   1.0000
     1.0000   1.0000   1.0000   1.0000   1.0000   1.0000   1.0000   1.0000
     1.0000   1.0000   0.0000   0.0000   0.0000   0.0000

          k = 0.1250-0.5052-0.2302 (   468 PWs)   bands (ev):

    -6.1143  -6.0986  -5.0338  -5.0041  -4.9852  -4.9229  -4.8756  -4.8456
    -4.8061  -4.7906  -2.8992  -2.5245   3.4333   3.9127   6.9594   7.8098
     7.9731   8.8228  15.0624  16.0044  18.2367  18.7327

     occupation numbers 
     1.0000   1.0000   1.0000   1.0000   1.0000   1.0000   1.0000   1.0000
     1.0000   1.0000   1.0000   1.0000   1.0000   1.0000   1.0000   1.0000
     1.0000   1.0000   0.0000   0.0000   0.0000   0.0000

          k =-0.3750 0.3608 0.2302 (   468 PWs)   bands (ev):

    -6.1142  -6.0985  -5.0335  -5.0041  -4.9845  -4.9221  -4.8755  -4.8459
    -4.8061  -4.7906  -2.8980  -2.5245   3.4284   3.9047   6.9625   7.8134
     7.9743   8.8197  15.0629  16.0016  18.2422  18.7385

     occupation numbers 
     1.0000   1.0000   1.0000   1.0000   1.0000   1.0000   1.0000   1.0000
     1.0000   1.0000   1.0000   1.0000   1.0000   1.0000   1.0000   1.0000
     1.0000   1.0000   0.0000   0.0000   0.0000   0.0000

          k = 0.3750-0.3608 0.2302 (   468 PWs)   bands (ev):

    -6.1142  -6.0985  -5.0335  -5.0041  -4.9845  -4.9221  -4.8755  -4.8459
    -4.8061  -4.7906  -2.8980  -2.5245   3.4284   3.9047   6.9625   7.8134
     7.9743   8.8197  15.0629  16.0016  18.2422  18.7385

     occupation numbers 
     1.0000   1.0000   1.0000   1.0000   1.0000   1.0000   1.0000   1.0000
     1.0000   1.0000   1.0000   1.0000   1.0000   1.0000   1.0000   1.0000
     1.0000   1.0000   0.0000   0.0000   0.0000   0.0000

          k = 0.3750 0.3608-0.2302 (   468 PWs)   bands (ev):

    -6.1143  -6.0986  -5.0338  -5.0042  -4.9853  -4.9231  -4.8757  -4.8458
    -4.8061  -4.7905  -2.8995  -2.5244   3.4346   3.9146   6.9574   7.8133
     7.9687   8.8234  15.0624  16.0027  18.2416  18.7324

     occupation numbers 
     1.0000   1.0000   1.0000   1.0000   1.0000   1.0000   1.0000   1.0000
     1.0000   1.0000   1.0000   1.0000   1.0000   1.0000   1.0000   1.0000
     1.0000   1.0000   0.0000   0.0000   0.0000   0.0000

          k =-0.1250-0.3608-0.0767 (   463 PWs)   bands (ev):

    -6.1719  -6.1192  -5.0440  -5.0147  -4.9443  -4.9189  -4.8911  -4.8631
    -4.8199  -4.7757  -3.9798  -2.3022   3.9902   5.5599   6.1651   7.3367
     9.1687   9.3051  15.1181  16.9388  17.4976  18.7491

     occupation numbers 
     1.0000   1.0000   1.0000   1.0000   1.0000   1.0000   1.0000   1.0000
     1.0000   1.0000   1.0000   1.0000   1.0000   1.0000   1.0000   1.0000
     1.0000   1.0000   0.0000   0.0000   0.0000   0.0000

          k = 0.1250 0.3608-0.0767 (   463 PWs)   bands (ev):

    -6.1719  -6.1192  -5.0440  -5.0147  -4.9443  -4.9189  -4.8911  -4.8631
    -4.8199  -4.7757  -3.9798  -2.3022   3.9902   5.5599   6.1651   7.3367
     9.1687   9.3051  15.1181  16.9388  17.4976  18.7491

     occupation numbers 
     1.0000   1.0000   1.0000   1.0000   1.0000   1.0000   1.0000   1.0000
     1.0000   1.0000   1.0000   1.0000   1.0000   1.0000   1.0000   1.0000
     1.0000   1.0000   0.0000   0.0000   0.0000   0.0000

          k = 0.3750-0.0722 0.0767 (   463 PWs)   bands (ev):

    -6.1715  -6.1190  -5.0431  -5.0140  -4.9443  -4.9184  -4.8910  -4.8633
    -4.8201  -4.7758  -3.9802  -2.3023   3.9871   5.5579   6.1573   7.3406
     9.1716   9.3024  15.1178  16.9407  17.5065  18.7520

     occupation numbers 
     1.0000   1.0000   1.0000   1.0000   1.0000   1.0000   1.0000   1.0000
     1.0000   1.0000   1.0000   1.0000   1.0000   1.0000   1.0000   1.0000
     1.0000   1.0000   0.0000   0.0000   0.0000   0.0000

          k =-0.3750 0.0722 0.0767 (   463 PWs)   bands (ev):

    -6.1715  -6.1190  -5.0431  -5.0140  -4.9443  -4.9184  -4.8910  -4.8633
    -4.8201  -4.7758  -3.9802  -2.3023   3.9871   5.5579   6.1573   7.3406
     9.1716   9.3024  15.1178  16.9407  17.5065  18.7520

     occupation numbers 
     1.0000   1.0000   1.0000   1.0000   1.0000   1.0000   1.0000   1.0000
     1.0000   1.0000   1.0000   1.0000   1.0000   1.0000   1.0000   1.0000
     1.0000   1.0000   0.0000   0.0000   0.0000   0.0000

          k =-0.3750-0.0722-0.0767 (   463 PWs)   bands (ev):

    -6.1718  -6.1191  -5.0436  -5.0145  -4.9442  -4.9186  -4.8913  -4.8629
    -4.8199  -4.7758  -3.9801  -2.3024   3.9886   5.5588   6.1605   7.3390
     9.1722   9.3035  15.1168  16.9418  17.4977  18.7492

     occupation numbers 
     1.0000   1.0000   1.0000   1.0000   1.0000   1.0000   1.0000   1.0000
     1.0000   1.0000   1.0000   1.0000   1.0000   1.0000   1.0000   1.0000
     1.0000   1.0000   0.0000   0.0000   0.0000   0.0000

          k =-0.1250-0.3608-0.2302 (   463 PWs)   bands (ev):

    -6.1191  -6.1020  -5.0300  -5.0049  -4.9857  -4.9470  -4.8759  -4.8695
    -4.7984  -4.7841  -3.6391  -2.9696   4.3809   5.1285   7.2899   7.7885
     8.4925   9.0312  15.1504  16.2950  17.9583  18.5853

     occupation numbers 
     1.0000   1.0000   1.0000   1.0000   1.0000   1.0000   1.0000   1.0000
     1.0000   1.0000   1.0000   1.0000   1.0000   1.0000   1.0000   1.0000
     1.0000   1.0000   0.0000   0.0000   0.0000   0.0000

          k = 0.1250 0.3608-0.2302 (   463 PWs)   bands (ev):

    -6.1191  -6.1020  -5.0300  -5.0049  -4.9857  -4.9470  -4.8759  -4.8695
    -4.7984  -4.7841  -3.6391  -2.9696   4.3809   5.1285   7.2899   7.7885
     8.4925   9.0312  15.1505  16.2950  17.9583  18.5854

     occupation numbers 
     1.0000   1.0000   1.0000   1.0000   1.0000   1.0000   1.0000   1.0000
     1.0000   1.0000   1.0000   1.0000   1.0000   1.0000   1.0000   1.0000
     1.0000   1.0000   0.0000   0.0000   0.0000   0.0000

          k = 0.3750-0.0722 0.2302 (   463 PWs)   bands (ev):

    -6.1189  -6.1019  -5.0296  -5.0045  -4.9851  -4.9460  -4.8759  -4.8697
    -4.7985  -4.7843  -3.6391  -2.9694   4.3743   5.1209   7.2901   7.7918
     8.4984   9.0296  15.1497  16.2968  17.9577  18.5883

     occupation numbers 
     1.0000   1.0000   1.0000   1.0000   1.0000   1.0000   1.0000   1.0000
     1.0000   1.0000   1.0000   1.0000   1.0000   1.0000   1.0000   1.0000
     1.0000   1.0000   0.0000   0.0000   0.0000   0.0000

          k =-0.3750 0.0722 0.2302 (   463 PWs)   bands (ev):

    -6.1189  -6.1019  -5.0296  -5.0045  -4.9851  -4.9460  -4.8759  -4.8697
    -4.7985  -4.7843  -3.6391  -2.9694   4.3743   5.1209   7.2901   7.7918
     8.4984   9.0295  15.1497  16.2968  17.9577  18.5883

     occupation numbers 
     1.0000   1.0000   1.0000   1.0000   1.0000   1.0000   1.0000   1.0000
     1.0000   1.0000   1.0000   1.0000   1.0000   1.0000   1.0000   1.0000
     1.0000   1.0000   0.0000   0.0000   0.0000   0.0000

          k =-0.3750-0.0722-0.2302 (   463 PWs)   bands (ev):

    -6.1191  -6.1020  -5.0298  -5.0046  -4.9855  -4.9465  -4.8759  -4.8693
    -4.7985  -4.7843  -3.6391  -2.9696   4.3772   5.1243   7.2908   7.7892
     8.4978   9.0300  15.1506  16.2986  17.9520  18.5819

     occupation numbers 
     1.0000   1.0000   1.0000   1.0000   1.0000   1.0000   1.0000   1.0000
     1.0000   1.0000   1.0000   1.0000   1.0000   1.0000   1.0000   1.0000
     1.0000   1.0000   0.0000   0.0000   0.0000   0.0000

          k =-0.1250-0.0722-0.0767 (   463 PWs)   bands (ev):

    -6.3946  -6.1485  -5.0739  -5.0709  -5.0142  -4.9904  -4.9465  -4.8567
    -4.8394  -4.7933  -4.7597  -2.9279   3.2991   8.2304   8.9988   9.0520
    10.3949  10.5105  13.1090  15.1003  18.9360  19.6466

     occupation numbers 
     1.0000   1.0000   1.0000   1.0000   1.0000   1.0000   1.0000   1.0000
     1.0000   1.0000   1.0000   1.0000   1.0000   1.0000   1.0000   1.0000
     1.0000   1.0000   0.0000   0.0000   0.0000   0.0000

          k = 0.1250 0.0722-0.0767 (   463 PWs)   bands (ev):

    -6.3946  -6.1485  -5.0739  -5.0709  -5.0142  -4.9904  -4.9465  -4.8567
    -4.8394  -4.7933  -4.7597  -2.9279   3.2991   8.2304   8.9988   9.0520
    10.3949  10.5105  13.1090  15.1003  18.9359  19.6466

     occupation numbers 
     1.0000   1.0000   1.0000   1.0000   1.0000   1.0000   1.0000   1.0000
     1.0000   1.0000   1.0000   1.0000   1.0000   1.0000   1.0000   1.0000
     1.0000   1.0000   0.0000   0.0000   0.0000   0.0000

          k =-0.1250-0.0722-0.2302 (   471 PWs)   bands (ev):

    -6.2383  -6.1557  -5.0693  -5.0590  -5.0478  -5.0263  -4.8780  -4.8314
    -4.8279  -4.7953  -4.6204  -3.8644   5.0652   7.2956   8.7439   9.4180
     9.5687  10.0180  14.2669  15.0233  18.4956  18.6848

     occupation numbers 
     1.0000   1.0000   1.0000   1.0000   1.0000   1.0000   1.0000   1.0000
     1.0000   1.0000   1.0000   1.0000   1.0000   1.0000   1.0000   1.0000
     1.0000   1.0000   0.0000   0.0000   0.0000   0.0000

          k = 0.1250 0.0722-0.2302 (   471 PWs)   bands (ev):

    -6.2383  -6.1557  -5.0693  -5.0590  -5.0478  -5.0263  -4.8780  -4.8314
    -4.8279  -4.7953  -4.6204  -3.8644   5.0652   7.2956   8.7439   9.4180
     9.5687  10.0180  14.2669  15.0233  18.4955  18.6848

     occupation numbers 
     1.0000   1.0000   1.0000   1.0000   1.0000   1.0000   1.0000   1.0000
     1.0000   1.0000   1.0000   1.0000   1.0000   1.0000   1.0000   1.0000
     1.0000   1.0000   0.0000   0.0000   0.0000   0.0000

          k =-0.3750 0.6495-0.0767 (   460 PWs)   bands (ev):

    -6.1296  -6.1124  -5.0518  -4.9476  -4.9160  -4.9016  -4.8825  -4.8529
    -4.8255  -4.8015  -2.5848  -2.2147   3.9607   4.5508   5.1593   6.9727
     7.5928   7.8876  16.3565  17.3441  18.0759  18.9607

     occupation numbers 
     1.0000   1.0000   1.0000   1.0000   1.0000   1.0000   1.0000   1.0000
     1.0000   1.0000   1.0000   1.0000   1.0000   1.0000   1.0000   1.0000
     1.0000   1.0000   0.0000   0.0000   0.0000   0.0000

          k = 0.3750-0.6495-0.0767 (   460 PWs)   bands (ev):

    -6.1296  -6.1124  -5.0518  -4.9476  -4.9160  -4.9016  -4.8825  -4.8529
    -4.8255  -4.8015  -2.5848  -2.2147   3.9607   4.5508   5.1593   6.9727
     7.5928   7.8876  16.3565  17.3441  18.0759  18.9607

     occupation numbers 
     1.0000   1.0000   1.0000   1.0000   1.0000   1.0000   1.0000   1.0000
     1.0000   1.0000   1.0000   1.0000   1.0000   1.0000   1.0000   1.0000
     1.0000   1.0000   0.0000   0.0000   0.0000   0.0000

          k = 0.3750 0.6495-0.0767 (   460 PWs)   bands (ev):

    -6.1295  -6.1123  -5.0514  -4.9471  -4.9166  -4.9011  -4.8823  -4.8531
    -4.8255  -4.8015  -2.5812  -2.2182   3.9601   4.5416   5.1638   6.9791
     7.5924   7.8825  16.3606  17.3441  18.0743  18.9616

     occupation numbers 
     1.0000   1.0000   1.0000   1.0000   1.0000   1.0000   1.0000   1.0000
     1.0000   1.0000   1.0000   1.0000   1.0000   1.0000   1.0000   1.0000
     1.0000   1.0000   0.0000   0.0000   0.0000   0.0000

          k =-0.3750 0.6495-0.2302 (   459 PWs)   bands (ev):

    -6.0968  -6.0887  -4.9995  -4.9794  -4.9634  -4.9297  -4.8491  -4.8460
    -4.8253  -4.8124  -2.4771  -2.3291   3.6556   3.8755   5.7138   6.7356
     8.2801   8.7126  16.2880  16.9613  18.0817  18.7825

     occupation numbers 
     1.0000   1.0000   1.0000   1.0000   1.0000   1.0000   1.0000   1.0000
     1.0000   1.0000   1.0000   1.0000   1.0000   1.0000   1.0000   1.0000
     1.0000   1.0000   0.0000   0.0000   0.0000   0.0000

          k = 0.3750-0.6495-0.2302 (   459 PWs)   bands (ev):

    -6.0968  -6.0887  -4.9995  -4.9794  -4.9634  -4.9297  -4.8491  -4.8460
    -4.8253  -4.8124  -2.4771  -2.3291   3.6556   3.8755   5.7138   6.7356
     8.2801   8.7126  16.2880  16.9613  18.0816  18.7823

     occupation numbers 
     1.0000   1.0000   1.0000   1.0000   1.0000   1.0000   1.0000   1.0000
     1.0000   1.0000   1.0000   1.0000   1.0000   1.0000   1.0000   1.0000
     1.0000   1.0000   0.0000   0.0000   0.0000   0.0000

          k = 0.3750 0.6495-0.2302 (   459 PWs)   bands (ev):

    -6.0968  -6.0886  -4.9992  -4.9792  -4.9635  -4.9293  -4.8487  -4.8458
    -4.8255  -4.8126  -2.4752  -2.3302   3.6525   3.8686   5.7175   6.7388
     8.2834   8.7088  16.2891  16.9594  18.0811  18.7781

     occupation numbers 
     1.0000   1.0000   1.0000   1.0000   1.0000   1.0000   1.0000   1.0000
     1.0000   1.0000   1.0000   1.0000   1.0000   1.0000   1.0000   1.0000
     1.0000   1.0000   0.0000   0.0000   0.0000   0.0000

          k =-0.3750-0.2165-0.0767 (   460 PWs)   bands (ev):

    -6.1677  -6.1146  -5.0329  -5.0139  -4.9380  -4.9095  -4.8887  -4.8546
    -4.8075  -4.7528  -3.6662  -2.2581   3.7322   5.0611   5.8753   7.6595
     8.8891   9.4796  14.8467  15.9353  17.5280  18.7842

     occupation numbers 
     1.0000   1.0000   1.0000   1.0000   1.0000   1.0000   1.0000   1.0000
     1.0000   1.0000   1.0000   1.0000   1.0000   1.0000   1.0000   1.0000
     1.0000   1.0000   0.0000   0.0000   0.0000   0.0000

          k = 0.3750 0.2165-0.0767 (   460 PWs)   bands (ev):

    -6.1677  -6.1146  -5.0329  -5.0139  -4.9380  -4.9095  -4.8887  -4.8546
    -4.8075  -4.7528  -3.6662  -2.2581   3.7322   5.0611   5.8753   7.6595
     8.8891   9.4796  14.8467  15.9353  17.5280  18.7842

     occupation numbers 
     1.0000   1.0000   1.0000   1.0000   1.0000   1.0000   1.0000   1.0000
     1.0000   1.0000   1.0000   1.0000   1.0000   1.0000   1.0000   1.0000
     1.0000   1.0000   0.0000   0.0000   0.0000   0.0000

          k =-0.3750-0.2165-0.2302 (   458 PWs)   bands (ev):

    -6.1155  -6.0960  -5.0358  -5.0029  -4.9767  -4.9139  -4.8711  -4.8306
    -4.7955  -4.7726  -3.3592  -2.7864   3.7891   4.4273   7.3561   8.1661
     8.8301   8.9506  14.4771  15.4659  18.0973  18.6065

     occupation numbers 
     1.0000   1.0000   1.0000   1.0000   1.0000   1.0000   1.0000   1.0000
     1.0000   1.0000   1.0000   1.0000   1.0000   1.0000   1.0000   1.0000
     1.0000   1.0000   0.0000   0.0000   0.0000   0.0000

          k = 0.3750 0.2165-0.2302 (   458 PWs)   bands (ev):

    -6.1155  -6.0960  -5.0358  -5.0029  -4.9767  -4.9139  -4.8711  -4.8306
    -4.7955  -4.7726  -3.3592  -2.7864   3.7891   4.4273   7.3561   8.1661
     8.8301   8.9506  14.4771  15.4659  18.0973  18.6065

     occupation numbers 
     1.0000   1.0000   1.0000   1.0000   1.0000   1.0000   1.0000   1.0000
     1.0000   1.0000   1.0000   1.0000   1.0000   1.0000   1.0000   1.0000
     1.0000   1.0000   0.0000   0.0000   0.0000   0.0000

     highest occupied, lowest unoccupied level (ev):    10.5127   13.1077

!    total energy              =    -611.51383794 Ry
     total all-electron energy =     -7994.440756 Ry
     estimated scf accuracy    <          5.4E-09 Ry

     The total energy is the sum of the following terms:
     one-electron contribution =    -177.04641742 Ry
     hartree contribution      =     123.77154174 Ry
     xc contribution           =     -87.27576501 Ry
     ewald contribution        =    -233.80182688 Ry
     one-center paw contrib.   =    -237.16137037 Ry
      -> PAW hartree energy AE =     321.68739675 Ry
      -> PAW hartree energy PS =    -316.52738304 Ry
      -> PAW xc energy AE      =    -328.68367479 Ry
      -> PAW xc energy PS      =      86.36229072 Ry
      -> total E_H with PAW    =     128.93155545 Ry
      -> total E_XC with PAW   =    -329.59714909 Ry

     convergence has been achieved in   7 iterations

     Forces acting on atoms (cartesian axes, Ry/au):

     atom    1 type  1   force =    -0.00139308    0.00074101   -0.00308556
     atom    2 type  1   force =     0.00133827   -0.00083593   -0.00308556
     atom    3 type  2   force =    -0.00127533    0.00079959    0.00308556
     atom    4 type  2   force =     0.00133013   -0.00070467    0.00308556
     The non-local contrib.  to forces
     atom    1 type  1   force =    -0.00171106    0.00101892   -0.00065190
     atom    2 type  1   force =     0.00173795   -0.00097236   -0.00065190
     atom    3 type  2   force =     0.00088176   -0.00050989    0.00020270
     atom    4 type  2   force =    -0.00088246    0.00050868    0.00020270
     The ionic contribution  to forces
     atom    1 type  1   force =    -0.01622560    0.00936785    0.09317819
     atom    2 type  1   force =     0.01622560   -0.00936785    0.09317819
     atom    3 type  2   force =    -0.01458170    0.00841875   -0.09317819
     atom    4 type  2   force =     0.01458170   -0.00841875   -0.09317819
     The local contribution  to forces
     atom    1 type  1   force =     0.01657351   -0.00959620   -0.09604851
     atom    2 type  1   force =    -0.01659731    0.00955498   -0.09604851
     atom    3 type  2   force =     0.01240928   -0.00716627    0.09602336
     atom    4 type  2   force =    -0.01241081    0.00716361    0.09602336
     The core correction contribution to forces
     atom    1 type  1   force =     0.00009331   -0.00005397    0.00040664
     atom    2 type  1   force =    -0.00009339    0.00005382    0.00040664
     atom    3 type  2   force =    -0.00001511    0.00001006    0.00004649
     atom    4 type  2   force =     0.00001627   -0.00000806    0.00004649
     The Hubbard contrib.    to forces
     atom    1 type  1   force =     0.00000000    0.00000000    0.00000000
     atom    2 type  1   force =     0.00000000    0.00000000    0.00000000
     atom    3 type  2   force =     0.00000000    0.00000000    0.00000000
     atom    4 type  2   force =     0.00000000    0.00000000    0.00000000
     The SCF correction term to forces
     atom    1 type  1   force =    -0.00015101   -0.00004371    0.00004465
     atom    2 type  1   force =     0.00003765   -0.00015264    0.00004465
     atom    3 type  2   force =     0.00000266   -0.00000117    0.00000583
     atom    4 type  2   force =    -0.00000234    0.00000172    0.00000583

     Total force =     0.006899     Total SCF correction =     0.000231

     Writing all to output data dir ./tmp/GaN.save/ :
     XML data file, charge density, pseudopotentials, collected wavefunctions
 
     init_run     :      1.19s CPU      1.32s WALL (       1 calls)
     electrons    :      8.67s CPU      9.09s WALL (       1 calls)
     forces       :      0.14s CPU      0.16s WALL (       1 calls)

     Called by init_run:
     wfcinit      :      0.38s CPU      0.38s WALL (       1 calls)
     wfcinit:atom :      0.01s CPU      0.01s WALL (      52 calls)
     wfcinit:wfcr :      0.32s CPU      0.33s WALL (      52 calls)
     potinit      :      0.45s CPU      0.46s WALL (       1 calls)
     hinit0       :      0.31s CPU      0.34s WALL (       1 calls)

     Called by electrons:
     c_bands      :      4.90s CPU      4.95s WALL (       7 calls)
     sum_band     :      1.21s CPU      1.35s WALL (       7 calls)
     v_of_rho     :      0.11s CPU      0.11s WALL (       8 calls)
     v_h          :      0.00s CPU      0.00s WALL (       8 calls)
     v_xc         :      0.11s CPU      0.12s WALL (       9 calls)
     newd         :      0.36s CPU      0.60s WALL (       8 calls)
     PAW_pot      :      2.53s CPU      2.55s WALL (       8 calls)
     mix_rho      :      0.01s CPU      0.01s WALL (       7 calls)

     Called by c_bands:
     init_us_2    :      0.12s CPU      0.12s WALL (     832 calls)
     cegterg      :      4.62s CPU      4.66s WALL (     364 calls)

     Called by sum_band:
     sum_band:wei :      0.00s CPU      0.00s WALL (       7 calls)
     sum_band:loo :      0.81s CPU      0.81s WALL (       7 calls)
     sum_band:buf :      0.01s CPU      0.01s WALL (     364 calls)
     sum_band:ini :      0.05s CPU      0.05s WALL (     364 calls)
     sum_band:cal :      0.05s CPU      0.05s WALL (     364 calls)
     sum_band:bec :      0.00s CPU      0.00s WALL (     364 calls)
     addusdens    :      0.38s CPU      0.52s WALL (       7 calls)
                                        0.00s GPU  (       7 calls)
     addusd:skk   :      0.00s CPU      0.00s WALL (      14 calls)
                                        0.00s GPU  (      14 calls)

     Called by *egterg:
     cdiaghg      :      0.60s CPU      0.60s WALL (    1338 calls)
     cegterg:over :      0.13s CPU      0.14s WALL (     974 calls)
     cegterg:upda :      0.07s CPU      0.07s WALL (     974 calls)
     cegterg:last :      0.17s CPU      0.17s WALL (     746 calls)
     h_psi        :      3.70s CPU      3.74s WALL (    1390 calls)
     s_psi        :      0.13s CPU      0.14s WALL (    1390 calls)
     g_psi        :      0.01s CPU      0.01s WALL (     974 calls)

     Called by h_psi:
     h_psi:calbec :      0.15s CPU      0.15s WALL (    1390 calls)
     vloc_psi     :      3.39s CPU      3.43s WALL (    1390 calls)
     add_vuspsi   :      0.14s CPU      0.14s WALL (    1390 calls)

     General routines
     calbec       :      0.22s CPU      0.23s WALL (    1962 calls)
     fft          :      0.03s CPU      0.06s WALL (     113 calls)
     ffts         :      0.00s CPU      0.00s WALL (      15 calls)
     fftw         :      3.26s CPU      3.30s WALL (   49802 calls)
     interpolate  :      0.00s CPU      0.01s WALL (       8 calls)
 
     Parallel routines

     PAW routines
     PAW_pot      :      2.53s CPU      2.55s WALL (       8 calls)
     PAW_symme    :      0.00s CPU      0.00s WALL (      15 calls)
 
     PWSCF        :     10.25s CPU     11.45s WALL

 
   This run was terminated on:  23: 9:33  26May2026            

=------------------------------------------------------------------------------=
   JOB DONE.
=------------------------------------------------------------------------------=
