
     Program PWSCF v.7.3.1 starts on 29May2026 at 17:47:43 

     This program is part of the open-source Quantum ESPRESSO suite
     for quantum simulation of materials; please cite
         "P. Giannozzi et al., J. Phys.:Condens. Matter 21 395502 (2009);
         "P. Giannozzi et al., J. Phys.:Condens. Matter 29 465901 (2017);
         "P. Giannozzi et al., J. Chem. Phys. 152 154105 (2020);
          URL http://www.quantum-espresso.org", 
     in publications or presentations arising from this work. More details at
     http://www.quantum-espresso.org/quote

     Parallel version (MPI & OpenMP), running on      12 processor cores
     Number of MPI processes:                12
     Threads/MPI process:                     1

     MPI processes distributed on     1 nodes
     16152 MiB available memory on the printing compute node when the environment starts
 
     Waiting for input...
     Reading input from standard input

     Current dimensions of program PWSCF are:
     Max number of different atomic species (ntypx) = 10
     Max number of k-points (npk) =  40000
     Max angular momentum in pseudopotentials (lmaxx) =  4
     file Ga.pbe-dn-kjpaw_psl.1.0.0.UPF: wavefunction(s)  4S renormalized
     file N.pbe-n-kjpaw_psl.1.0.0.UPF: wavefunction(s)  2S renormalized
 
     R & G space division:  proc/nbgrp/npool/nimage =      12
     Subspace diagonalization in iterative solution of the eigenvalue problem:
     a serial algorithm will be used

 
     Parallelization info
     --------------------
     sticks:   dense  smooth     PW     G-vecs:    dense   smooth      PW
     Min         149      59     17                 8301     2091     345
     Max         150      61     18                 8308     2094     352
     Sum        1789     721    211                99623    25109    4187
 
     Using Slab Decomposition
 


     bravais-lattice index     =            4
     lattice parameter (alat)  =       6.0849  a.u.
     unit-cell volume          =     318.1254 (a.u.)^3
     number of atoms/cell      =            4
     number of atomic types    =            2
     number of electrons       =        36.00
     number of Kohn-Sham states=           22
     kinetic-energy cutoff     =      70.0000  Ry
     charge density cutoff     =     700.0000  Ry
     scf convergence threshold =      1.0E-08
     mixing beta               =       0.7000
     number of iterations used =            8  plain     mixing
     Exchange-correlation= SLA  PW   PBX  PBC
                           (   1   4   3   4   0   0   0)

     celldm(1)=   6.084918  celldm(2)=   0.000000  celldm(3)=   1.630435
     celldm(4)=   0.000000  celldm(5)=   0.000000  celldm(6)=   0.000000

     crystal axes: (cart. coord. in units of alat)
               a(1) = (   1.000000   0.000000   0.000000 )  
               a(2) = (  -0.500000   0.866025   0.000000 )  
               a(3) = (   0.000000   0.000000   1.630435 )  

     reciprocal axes: (cart. coord. in units 2 pi/alat)
               b(1) = (  1.000000  0.577350  0.000000 )  
               b(2) = (  0.000000  1.154701  0.000000 )  
               b(3) = (  0.000000  0.000000  0.613333 )  


     PseudoPot. # 1 for Ga read from file:
     /data-fast/greenano/Students/cohort2/rojassan/Project_GaN/PSEUDO/Ga.pbe-dn-kjpaw_psl.1.0.0.UPF
     MD5 check sum: 93aceff68ec27daa0acc11ebb2e245f0
     Pseudo is Projector augmented-wave + core cor, Zval = 13.0
     Generated using 'atomic' code by A. Dal Corso  v.7.3.1
     Shape of augmentation charge: PSQ
     Using radial grid of 1205 points,  6 beta functions with: 
                l(1) =   0
                l(2) =   0
                l(3) =   1
                l(4) =   1
                l(5) =   2
                l(6) =   2
     Q(r) pseudized with 0 coefficients 


     PseudoPot. # 2 for N  read from file:
     /data-fast/greenano/Students/cohort2/rojassan/Project_GaN/PSEUDO/N.pbe-n-kjpaw_psl.1.0.0.UPF
     MD5 check sum: 86f48117b7e7b472c01f85d0863ba463
     Pseudo is Projector augmented-wave + core cor, Zval =  5.0
     Generated using 'atomic' code by A. Dal Corso  v.7.3.1
     Shape of augmentation charge: PSQ
     Using radial grid of 1085 points,  4 beta functions with: 
                l(1) =   0
                l(2) =   0
                l(3) =   1
                l(4) =   1
     Q(r) pseudized with 0 coefficients 


     atomic species   valence    mass     pseudopotential
     Ga               13.00    69.72300     Ga( 1.00)
     N                 5.00    14.00700     N ( 1.00)

     Starting magnetic structure 
     atomic species   magnetization
     Ga              0.100
     N               0.000

     12 Sym. Ops. (no inversion) found ( 6 have fractional translation)


                                    s                        frac. trans.

      isym =  1     identity                                     

 cryst.   s( 1) = (     1          0          0      )
                  (     0          1          0      )
                  (     0          0          1      )

 cart.    s( 1) = (  1.0000000  0.0000000  0.0000000 )
                  (  0.0000000  1.0000000  0.0000000 )
                  (  0.0000000  0.0000000  1.0000000 )


      isym =  2     180 deg rotation - cart. axis [0,0,1]        

 cryst.   s( 2) = (    -1          0          0      )    f =(  0.0000000 )
                  (     0         -1          0      )       (  0.0000000 )
                  (     0          0          1      )       ( -0.5000000 )

 cart.    s( 2) = ( -1.0000000  0.0000000  0.0000000 )    f =(  0.0000000 )
                  (  0.0000000 -1.0000000  0.0000000 )       (  0.0000000 )
                  (  0.0000000  0.0000000  1.0000000 )       ( -0.8152174 )


      isym =  3      60 deg rotation - cryst. axis [0,0,1]       

 cryst.   s( 3) = (     1          1          0      )    f =(  0.0000000 )
                  (    -1          0          0      )       (  0.0000000 )
                  (     0          0          1      )       ( -0.5000000 )

 cart.    s( 3) = (  0.5000000 -0.8660254  0.0000000 )    f =(  0.0000000 )
                  (  0.8660254  0.5000000  0.0000000 )       (  0.0000000 )
                  (  0.0000000  0.0000000  1.0000000 )       ( -0.8152174 )


      isym =  4      60 deg rotation - cryst. axis [0,0,-1]      

 cryst.   s( 4) = (     0         -1          0      )    f =(  0.0000000 )
                  (     1          1          0      )       (  0.0000000 )
                  (     0          0          1      )       ( -0.5000000 )

 cart.    s( 4) = (  0.5000000  0.8660254  0.0000000 )    f =( -0.0000000 )
                  ( -0.8660254  0.5000000  0.0000000 )       (  0.0000000 )
                  (  0.0000000  0.0000000  1.0000000 )       ( -0.8152174 )


      isym =  5     120 deg rotation - cryst. axis [0,0,1]       

 cryst.   s( 5) = (     0          1          0      )
                  (    -1         -1          0      )
                  (     0          0          1      )

 cart.    s( 5) = ( -0.5000000 -0.8660254  0.0000000 )
                  (  0.8660254 -0.5000000  0.0000000 )
                  (  0.0000000  0.0000000  1.0000000 )


      isym =  6     120 deg rotation - cryst. axis [0,0,-1]      

 cryst.   s( 6) = (    -1         -1          0      )
                  (     1          0          0      )
                  (     0          0          1      )

 cart.    s( 6) = ( -0.5000000  0.8660254  0.0000000 )
                  ( -0.8660254 -0.5000000  0.0000000 )
                  (  0.0000000  0.0000000  1.0000000 )


      isym =  7     inv. 180 deg rotation - cart. axis [0,1,0]   

 cryst.   s( 7) = (     1          0          0      )    f =(  0.0000000 )
                  (    -1         -1          0      )       (  0.0000000 )
                  (     0          0          1      )       ( -0.5000000 )

 cart.    s( 7) = (  1.0000000  0.0000000  0.0000000 )    f =( -0.0000000 )
                  (  0.0000000 -1.0000000  0.0000000 )       (  0.0000000 )
                  (  0.0000000  0.0000000  1.0000000 )       ( -0.8152174 )


      isym =  8     inv. 180 deg rotation - cart. axis [1,0,0]   

 cryst.   s( 8) = (    -1          0          0      )
                  (     1          1          0      )
                  (     0          0          1      )

 cart.    s( 8) = ( -1.0000000  0.0000000  0.0000000 )
                  (  0.0000000  1.0000000  0.0000000 )
                  (  0.0000000  0.0000000  1.0000000 )


      isym =  9     inv. 180 deg rotation - cryst. axis [1,-1,0] 

 cryst.   s( 9) = (     0          1          0      )    f =(  0.0000000 )
                  (     1          0          0      )       (  0.0000000 )
                  (     0          0          1      )       ( -0.5000000 )

 cart.    s( 9) = ( -0.5000000  0.8660254  0.0000000 )    f =(  0.0000000 )
                  (  0.8660254  0.5000000  0.0000000 )       (  0.0000000 )
                  (  0.0000000  0.0000000  1.0000000 )       ( -0.8152174 )


      isym = 10     inv. 180 deg rotation - cryst. axis [2,1,0]  

 cryst.   s(10) = (    -1         -1          0      )    f =(  0.0000000 )
                  (     0          1          0      )       (  0.0000000 )
                  (     0          0          1      )       ( -0.5000000 )

 cart.    s(10) = ( -0.5000000 -0.8660254  0.0000000 )    f =(  0.0000000 )
                  ( -0.8660254  0.5000000  0.0000000 )       (  0.0000000 )
                  (  0.0000000  0.0000000  1.0000000 )       ( -0.8152174 )


      isym = 11     inv. 180 deg rotation - cryst. axis [0,1,0]  

 cryst.   s(11) = (     1          1          0      )
                  (     0         -1          0      )
                  (     0          0          1      )

 cart.    s(11) = (  0.5000000  0.8660254  0.0000000 )
                  (  0.8660254 -0.5000000  0.0000000 )
                  (  0.0000000  0.0000000  1.0000000 )


      isym = 12     inv. 180 deg rotation - cryst. axis [1,1,0]  

 cryst.   s(12) = (     0         -1          0      )
                  (    -1          0          0      )
                  (     0          0          1      )

 cart.    s(12) = (  0.5000000 -0.8660254  0.0000000 )
                  ( -0.8660254 -0.5000000  0.0000000 )
                  (  0.0000000  0.0000000  1.0000000 )


     point group C_6v (6mm) 
     there are  6 classes
     the character table:

       E     2C6   2C3   C2    3s_v  3s_d 
A_1    1.00  1.00  1.00  1.00  1.00  1.00
A_2    1.00  1.00  1.00  1.00 -1.00 -1.00
B_1    1.00 -1.00  1.00 -1.00  1.00 -1.00
B_2    1.00 -1.00  1.00 -1.00 -1.00  1.00
E_1    2.00  1.00 -1.00 -2.00  0.00  0.00
E_2    2.00 -1.00 -1.00  2.00  0.00  0.00

     the symmetry operations in each class and the name of the first element:

     E        1
          identity                                               
     2C6      3    4
           60 deg rotation - cryst. axis [0,0,1]                 
     2C3      5    6
          120 deg rotation - cryst. axis [0,0,1]                 
     C2       2
          180 deg rotation - cart. axis [0,0,1]                  
     3s_v     8   12   11
          inv. 180 deg rotation - cart. axis [1,0,0]             
     3s_d     7    9   10
          inv. 180 deg rotation - cart. axis [0,1,0]             

   Cartesian axes

     site n.     atom                  positions (alat units)
         1        Ga     tau(   1) = (   0.0000000   0.5773503   0.0000000  )
         2        Ga     tau(   2) = (   0.5000000   0.2886751   0.8152174  )
         3        N      tau(   3) = (   0.0000000   0.5773503   0.6136663  )
         4        N      tau(   4) = (   0.5000000   0.2886751   1.4288837  )

   Crystallographic axes

     site n.     atom                  positions (cryst. coord.)
         1        Ga     tau(   1) = (  0.3333333  0.6666667  0.0000000  )
         2        Ga     tau(   2) = (  0.6666667  0.3333333  0.5000000  )
         3        N      tau(   3) = (  0.3333333  0.6666667  0.3763820  )
         4        N      tau(   4) = (  0.6666667  0.3333333  0.8763820  )

     number of k points=    12  Gaussian smearing, width (Ry)=  0.0010
                       cart. coord. in units 2pi/alat
        k(    1) = (   0.1250000   0.2165064   0.1022222), wk =   0.0833333
        k(    2) = (   0.1250000   0.2165064  -0.3066667), wk =   0.0416667
        k(    3) = (   0.1250000   0.5051815   0.1022222), wk =   0.1666667
        k(    4) = (   0.1250000   0.5051815  -0.3066667), wk =   0.0833333
        k(    5) = (   0.1250000  -0.3608439   0.1022222), wk =   0.1666667
        k(    6) = (   0.1250000  -0.3608439  -0.3066667), wk =   0.0833333
        k(    7) = (   0.1250000  -0.0721688   0.1022222), wk =   0.0833333
        k(    8) = (   0.1250000  -0.0721688  -0.3066667), wk =   0.0416667
        k(    9) = (   0.3750000   0.6495191   0.1022222), wk =   0.0833333
        k(   10) = (   0.3750000   0.6495191  -0.3066667), wk =   0.0416667
        k(   11) = (   0.3750000  -0.2165064   0.1022222), wk =   0.0833333
        k(   12) = (   0.3750000  -0.2165064  -0.3066667), wk =   0.0416667

                       cryst. coord.
        k(    1) = (   0.1250000   0.1250000   0.1666667), wk =   0.0833333
        k(    2) = (   0.1250000   0.1250000  -0.5000000), wk =   0.0416667
        k(    3) = (   0.1250000   0.3750000   0.1666667), wk =   0.1666667
        k(    4) = (   0.1250000   0.3750000  -0.5000000), wk =   0.0833333
        k(    5) = (   0.1250000  -0.3750000   0.1666667), wk =   0.1666667
        k(    6) = (   0.1250000  -0.3750000  -0.5000000), wk =   0.0833333
        k(    7) = (   0.1250000  -0.1250000   0.1666667), wk =   0.0833333
        k(    8) = (   0.1250000  -0.1250000  -0.5000000), wk =   0.0416667
        k(    9) = (   0.3750000   0.3750000   0.1666667), wk =   0.0833333
        k(   10) = (   0.3750000   0.3750000  -0.5000000), wk =   0.0416667
        k(   11) = (   0.3750000  -0.3750000   0.1666667), wk =   0.0833333
        k(   12) = (   0.3750000  -0.3750000  -0.5000000), wk =   0.0416667

     Dense  grid:    99623 G-vectors     FFT dimensions: (  54,  54,  90)

     Smooth grid:    25109 G-vectors     FFT dimensions: (  36,  36,  54)

     Dynamical RAM for                 wfc:       0.09 MB

     Dynamical RAM for     wfc (w. buffer):       2.20 MB

     Dynamical RAM for           str. fact:       0.25 MB

     Dynamical RAM for           local pot:       0.00 MB

     Dynamical RAM for          nlocal pot:       0.21 MB

     Dynamical RAM for                qrad:       4.24 MB

     Dynamical RAM for          rho,v,vnew:       1.83 MB

     Dynamical RAM for               rhoin:       0.61 MB

     Dynamical RAM for            rho*nmix:       4.05 MB

     Dynamical RAM for           G-vectors:       0.49 MB

     Dynamical RAM for          h,s,v(r/c):       0.09 MB

     Dynamical RAM for          <psi|beta>:       0.02 MB

     Dynamical RAM for                 psi:       0.18 MB

     Dynamical RAM for                hpsi:       0.18 MB

     Dynamical RAM for                spsi:       0.18 MB

     Dynamical RAM for      wfcinit/wfcrot:       0.22 MB

     Dynamical RAM for           addusdens:      23.95 MB

     Dynamical RAM for          addusforce:      24.21 MB

     Dynamical RAM for         addusstress:      25.66 MB

     Estimated static dynamical RAM per process >      11.28 MB

     Estimated max dynamical RAM per process >      40.99 MB

     Estimated total dynamical RAM >     491.88 MB
     Generating pointlists ...
     new r_m :   0.2523 (alat units)  1.5349 (a.u.) for type    1
     new r_m :   0.2523 (alat units)  1.5349 (a.u.) for type    2

     Initial potential from superposition of free atoms

     starting charge      35.9941, renormalised to      36.0000
     Starting wfcs are   26 randomized atomic wfcs
     Checking if some PAW data can be deallocated... 
       PAW data deallocated on    6 nodes for type:  1
       PAW data deallocated on    6 nodes for type:  2

     total cpu time spent up to now is        0.5 secs

     Self-consistent Calculation

     iteration #  1     ecut=    70.00 Ry     beta= 0.70
     Davidson diagonalization with overlap

---- Real-time Memory Report at c_bands before calling an iterative solver
           163 MiB given to the printing process from OS
             0 MiB allocation reported by mallinfo(arena+hblkhd)
         15671 MiB available memory on the node where the printing process lives
------------------
     ethr =  1.00E-02,  avg # of iterations =  2.2

     total cpu time spent up to now is        1.0 secs

     total energy              =    -611.66475334 Ry
     estimated scf accuracy    <       1.25314239 Ry

     total magnetization       =    -0.00 Bohr mag/cell
     absolute magnetization    =     0.14 Bohr mag/cell

     iteration #  2     ecut=    70.00 Ry     beta= 0.70
     Davidson diagonalization with overlap

---- Real-time Memory Report at c_bands before calling an iterative solver
           180 MiB given to the printing process from OS
             0 MiB allocation reported by mallinfo(arena+hblkhd)
         15488 MiB available memory on the node where the printing process lives
------------------
     ethr =  3.48E-03,  avg # of iterations =  5.4

     total cpu time spent up to now is        1.5 secs

     total energy              =    -612.11210704 Ry
     estimated scf accuracy    <       1.41793677 Ry

     total magnetization       =     0.00 Bohr mag/cell
     absolute magnetization    =     0.08 Bohr mag/cell

     iteration #  3     ecut=    70.00 Ry     beta= 0.70
     Davidson diagonalization with overlap

---- Real-time Memory Report at c_bands before calling an iterative solver
           185 MiB given to the printing process from OS
             0 MiB allocation reported by mallinfo(arena+hblkhd)
         15468 MiB available memory on the node where the printing process lives
------------------
     ethr =  3.48E-03,  avg # of iterations =  2.0

     total cpu time spent up to now is        1.9 secs

     total energy              =    -612.38682794 Ry
     estimated scf accuracy    <       0.02904861 Ry

     total magnetization       =     0.00 Bohr mag/cell
     absolute magnetization    =     0.05 Bohr mag/cell

     iteration #  4     ecut=    70.00 Ry     beta= 0.70
     Davidson diagonalization with overlap

---- Real-time Memory Report at c_bands before calling an iterative solver
           187 MiB given to the printing process from OS
             0 MiB allocation reported by mallinfo(arena+hblkhd)
         15466 MiB available memory on the node where the printing process lives
------------------
     ethr =  8.07E-05,  avg # of iterations =  9.6

     total cpu time spent up to now is        2.6 secs

     total energy              =    -612.42977253 Ry
     estimated scf accuracy    <       0.00224516 Ry

     total magnetization       =     0.00 Bohr mag/cell
     absolute magnetization    =     0.02 Bohr mag/cell

     iteration #  5     ecut=    70.00 Ry     beta= 0.70
     Davidson diagonalization with overlap

---- Real-time Memory Report at c_bands before calling an iterative solver
           188 MiB given to the printing process from OS
             0 MiB allocation reported by mallinfo(arena+hblkhd)
         15465 MiB available memory on the node where the printing process lives
------------------
     ethr =  6.24E-06,  avg # of iterations =  7.9

     total cpu time spent up to now is        3.2 secs

     total energy              =    -612.43168779 Ry
     estimated scf accuracy    <       0.00082241 Ry

     total magnetization       =    -0.00 Bohr mag/cell
     absolute magnetization    =     0.01 Bohr mag/cell

     iteration #  6     ecut=    70.00 Ry     beta= 0.70
     Davidson diagonalization with overlap

---- Real-time Memory Report at c_bands before calling an iterative solver
           189 MiB given to the printing process from OS
             0 MiB allocation reported by mallinfo(arena+hblkhd)
         15462 MiB available memory on the node where the printing process lives
------------------
     ethr =  2.28E-06,  avg # of iterations =  3.5

     total cpu time spent up to now is        3.7 secs

     total energy              =    -612.43174384 Ry
     estimated scf accuracy    <       0.00019026 Ry

     total magnetization       =    -0.00 Bohr mag/cell
     absolute magnetization    =     0.00 Bohr mag/cell

     iteration #  7     ecut=    70.00 Ry     beta= 0.70
     Davidson diagonalization with overlap

---- Real-time Memory Report at c_bands before calling an iterative solver
           189 MiB given to the printing process from OS
             0 MiB allocation reported by mallinfo(arena+hblkhd)
         15456 MiB available memory on the node where the printing process lives
------------------
     ethr =  5.28E-07,  avg # of iterations =  4.1

     total cpu time spent up to now is        4.1 secs

     total energy              =    -612.43179916 Ry
     estimated scf accuracy    <       0.00000332 Ry

     total magnetization       =     0.00 Bohr mag/cell
     absolute magnetization    =     0.00 Bohr mag/cell

     iteration #  8     ecut=    70.00 Ry     beta= 0.70
     Davidson diagonalization with overlap

---- Real-time Memory Report at c_bands before calling an iterative solver
           191 MiB given to the printing process from OS
             0 MiB allocation reported by mallinfo(arena+hblkhd)
         15455 MiB available memory on the node where the printing process lives
------------------
     c_bands:  1 eigenvalues not converged
     ethr =  9.21E-09,  avg # of iterations = 16.1

     total cpu time spent up to now is        5.3 secs

     total energy              =    -612.43182431 Ry
     estimated scf accuracy    <       0.00000452 Ry

     total magnetization       =    -0.00 Bohr mag/cell
     absolute magnetization    =     0.00 Bohr mag/cell

     iteration #  9     ecut=    70.00 Ry     beta= 0.70
     Davidson diagonalization with overlap

---- Real-time Memory Report at c_bands before calling an iterative solver
           192 MiB given to the printing process from OS
             0 MiB allocation reported by mallinfo(arena+hblkhd)
         15452 MiB available memory on the node where the printing process lives
------------------
     ethr =  9.21E-09,  avg # of iterations =  1.2

     total cpu time spent up to now is        5.7 secs

     total energy              =    -612.43182420 Ry
     estimated scf accuracy    <       0.00000077 Ry

     total magnetization       =     0.00 Bohr mag/cell
     absolute magnetization    =     0.00 Bohr mag/cell

     iteration # 10     ecut=    70.00 Ry     beta= 0.70
     Davidson diagonalization with overlap

---- Real-time Memory Report at c_bands before calling an iterative solver
           193 MiB given to the printing process from OS
             0 MiB allocation reported by mallinfo(arena+hblkhd)
         15450 MiB available memory on the node where the printing process lives
------------------
     ethr =  2.14E-09,  avg # of iterations =  7.5

     total cpu time spent up to now is        6.4 secs

     total energy              =    -612.43182477 Ry
     estimated scf accuracy    <       0.00000439 Ry

     total magnetization       =    -0.00 Bohr mag/cell
     absolute magnetization    =     0.00 Bohr mag/cell

     iteration # 11     ecut=    70.00 Ry     beta= 0.70
     Davidson diagonalization with overlap

---- Real-time Memory Report at c_bands before calling an iterative solver
           194 MiB given to the printing process from OS
             0 MiB allocation reported by mallinfo(arena+hblkhd)
         15450 MiB available memory on the node where the printing process lives
------------------
     ethr =  2.14E-09,  avg # of iterations =  2.0

     total cpu time spent up to now is        6.9 secs

     total energy              =    -612.43182438 Ry
     estimated scf accuracy    <       0.00000125 Ry

     total magnetization       =     0.00 Bohr mag/cell
     absolute magnetization    =     0.00 Bohr mag/cell

     iteration # 12     ecut=    70.00 Ry     beta= 0.70
     Davidson diagonalization with overlap

---- Real-time Memory Report at c_bands before calling an iterative solver
           195 MiB given to the printing process from OS
             0 MiB allocation reported by mallinfo(arena+hblkhd)
         15450 MiB available memory on the node where the printing process lives
------------------
     ethr =  2.14E-09,  avg # of iterations =  5.6

     total cpu time spent up to now is        7.4 secs

     total energy              =    -612.43182481 Ry
     estimated scf accuracy    <       0.00000080 Ry

     total magnetization       =    -0.00 Bohr mag/cell
     absolute magnetization    =     0.00 Bohr mag/cell

     iteration # 13     ecut=    70.00 Ry     beta= 0.70
     Davidson diagonalization with overlap

---- Real-time Memory Report at c_bands before calling an iterative solver
           196 MiB given to the printing process from OS
             0 MiB allocation reported by mallinfo(arena+hblkhd)
         15450 MiB available memory on the node where the printing process lives
------------------
     ethr =  2.14E-09,  avg # of iterations =  1.0

     total cpu time spent up to now is        7.8 secs

     total energy              =    -612.43182478 Ry
     estimated scf accuracy    <       0.00000016 Ry

     total magnetization       =    -0.00 Bohr mag/cell
     absolute magnetization    =     0.00 Bohr mag/cell

     iteration # 14     ecut=    70.00 Ry     beta= 0.70
     Davidson diagonalization with overlap

---- Real-time Memory Report at c_bands before calling an iterative solver
           196 MiB given to the printing process from OS
             0 MiB allocation reported by mallinfo(arena+hblkhd)
         15450 MiB available memory on the node where the printing process lives
------------------
     ethr =  4.49E-10,  avg # of iterations =  4.5
 
     Magnetic moment per site  (integrated on atomic sphere of radius R)
     atom   1 (R=0.252)  charge= 10.0773  magn=  0.0000
     atom   2 (R=0.252)  charge= 10.0773  magn=  0.0000
     atom   3 (R=0.252)  charge=  4.2566  magn= -0.0000
     atom   4 (R=0.252)  charge=  4.2566  magn= -0.0000

     total cpu time spent up to now is        8.3 secs

     End of self-consistent calculation

 ------ SPIN UP ------------


          k = 0.1250 0.2165 0.1022 (  3132 PWs)   bands (ev):

    -6.0525  -5.6075  -4.1534  -4.1430  -4.0957  -4.0830  -4.0020  -3.9564
    -3.9265  -3.9236  -3.8501  -2.5605   3.3377   6.2449   6.4019   7.5138
     8.5886   8.6699  13.2875  15.2656  16.8788  17.1904

     occupation numbers 
     1.0000   1.0000   1.0000   1.0000   1.0000   1.0000   1.0000   1.0000
     1.0000   1.0000   1.0000   1.0000   1.0000   1.0000   1.0000   1.0000
     1.0000   1.0000   0.0000   0.0000   0.0000   0.0000

          k = 0.1250 0.2165-0.3067 (  3146 PWs)   bands (ev):

    -5.7579  -5.7579  -4.1292  -4.1292  -4.1095  -4.1095  -3.9881  -3.9881
    -3.9072  -3.9072  -3.4693  -3.4693   5.0461   5.0461   7.4222   7.4222
     7.9766   7.9766  14.5720  14.5720  16.6622  16.6622

     occupation numbers 
     1.0000   1.0000   1.0000   1.0000   1.0000   1.0000   1.0000   1.0000
     1.0000   1.0000   1.0000   1.0000   1.0000   1.0000   1.0000   1.0000
     1.0000   1.0000   0.0000   0.0000   0.0000   0.0000

          k = 0.1250 0.5052 0.1022 (  3152 PWs)   bands (ev):

    -5.6518  -5.5339  -4.1440  -4.1113  -4.0364  -3.9974  -3.9779  -3.9346
    -3.8936  -3.8726  -2.7938  -2.1220   3.0461   3.9890   5.5094   6.2321
     7.4641   7.6831  14.3132  15.2547  16.0439  17.1825

     occupation numbers 
     1.0000   1.0000   1.0000   1.0000   1.0000   1.0000   1.0000   1.0000
     1.0000   1.0000   1.0000   1.0000   1.0000   1.0000   1.0000   1.0000
     1.0000   1.0000   0.0000   0.0000   0.0000   0.0000

          k = 0.1250 0.5052-0.3067 (  3160 PWs)   bands (ev):

    -5.5570  -5.5570  -4.1233  -4.1233  -4.0457  -4.0457  -3.9454  -3.9454
    -3.8860  -3.8860  -2.5045  -2.5045   3.0839   3.0839   6.6096   6.6096
     7.6320   7.6320  14.2033  14.2033  17.0503  17.0503

     occupation numbers 
     1.0000   1.0000   1.0000   1.0000   1.0000   1.0000   1.0000   1.0000
     1.0000   1.0000   1.0000   1.0000   1.0000   1.0000   1.0000   1.0000
     1.0000   1.0000   0.0000   0.0000   0.0000   0.0000

          k = 0.1250-0.3608 0.1022 (  3142 PWs)   bands (ev):

    -5.7920  -5.5553  -4.1351  -4.1219  -4.0577  -4.0251  -3.9839  -3.9623
    -3.9132  -3.8821  -3.4615  -2.2386   3.5183   4.9027   5.4674   6.6170
     7.9751   8.2237  14.1567  15.6973  16.0034  17.2013

     occupation numbers 
     1.0000   1.0000   1.0000   1.0000   1.0000   1.0000   1.0000   1.0000
     1.0000   1.0000   1.0000   1.0000   1.0000   1.0000   1.0000   1.0000
     1.0000   1.0000   0.0000   0.0000   0.0000   0.0000

          k = 0.1250-0.3608-0.3067 (  3160 PWs)   bands (ev):

    -5.6230  -5.6230  -4.1144  -4.1144  -4.0682  -4.0682  -3.9806  -3.9806
    -3.8942  -3.8942  -3.0062  -3.0062   4.0574   4.0574   7.0394   7.0394
     7.4955   7.4955  14.5608  14.5608  16.8729  16.8729

     occupation numbers 
     1.0000   1.0000   1.0000   1.0000   1.0000   1.0000   1.0000   1.0000
     1.0000   1.0000   1.0000   1.0000   1.0000   1.0000   1.0000   1.0000
     1.0000   1.0000   0.0000   0.0000   0.0000   0.0000

          k = 0.1250-0.0722 0.1022 (  3137 PWs)   bands (ev):

    -6.2678  -5.6604  -4.1810  -4.1668  -4.1300  -4.1124  -4.1094  -3.9589
    -3.9547  -3.8997  -3.8747  -2.7710   3.0363   7.2902   7.6846   8.0293
     8.8776   9.0283  12.4174  14.2206  17.5693  18.1016

     occupation numbers 
     1.0000   1.0000   1.0000   1.0000   1.0000   1.0000   1.0000   1.0000
     1.0000   1.0000   1.0000   1.0000   1.0000   1.0000   1.0000   1.0000
     1.0000   1.0000   0.0000   0.0000   0.0000   0.0000

          k = 0.1250-0.0722-0.3067 (  3112 PWs)   bands (ev):

    -5.8829  -5.8829  -4.1551  -4.1551  -4.1451  -4.1451  -3.9634  -3.9634
    -3.9099  -3.9099  -3.6970  -3.6970   5.3866   5.3866   8.0138   8.0138
     8.5102   8.5102  13.9491  13.9491  17.0698  17.0698

     occupation numbers 
     1.0000   1.0000   1.0000   1.0000   1.0000   1.0000   1.0000   1.0000
     1.0000   1.0000   1.0000   1.0000   1.0000   1.0000   1.0000   1.0000
     1.0000   1.0000   0.0000   0.0000   0.0000   0.0000

          k = 0.3750 0.6495 0.1022 (  3149 PWs)   bands (ev):

    -5.5847  -5.5395  -4.1677  -4.0595  -4.0228  -3.9882  -3.9708  -3.9381
    -3.9203  -3.8995  -2.3826  -2.1135   3.4048   3.8894   4.6669   6.4140
     6.6156   7.1248  14.7699  16.1734  16.6990  17.0851

     occupation numbers 
     1.0000   1.0000   1.0000   1.0000   1.0000   1.0000   1.0000   1.0000
     1.0000   1.0000   1.0000   1.0000   1.0000   1.0000   1.0000   1.0000
     1.0000   1.0000   0.0000   0.0000   0.0000   0.0000

          k = 0.3750 0.6495-0.3067 (  3152 PWs)   bands (ev):

    -5.5303  -5.5303  -4.0898  -4.0898  -4.0597  -4.0597  -3.9461  -3.9461
    -3.9090  -3.9090  -2.2504  -2.2504   3.1649   3.1649   5.4895   5.4895
     7.7895   7.7895  15.1310  15.1310  16.8372  16.8372

     occupation numbers 
     1.0000   1.0000   1.0000   1.0000   1.0000   1.0000   1.0000   1.0000
     1.0000   1.0000   1.0000   1.0000   1.0000   1.0000   1.0000   1.0000
     1.0000   1.0000   0.0000   0.0000   0.0000   0.0000

          k = 0.3750-0.2165 0.1022 (  3159 PWs)   bands (ev):

    -5.7332  -5.5444  -4.1445  -4.1119  -4.0532  -4.0057  -3.9869  -3.9414
    -3.9032  -3.8606  -3.2354  -2.1831   3.1923   4.4026   5.3147   6.9116
     7.8915   8.2996  13.7418  14.6705  16.1036  17.2562

     occupation numbers 
     1.0000   1.0000   1.0000   1.0000   1.0000   1.0000   1.0000   1.0000
     1.0000   1.0000   1.0000   1.0000   1.0000   1.0000   1.0000   1.0000
     1.0000   1.0000   0.0000   0.0000   0.0000   0.0000

          k = 0.3750-0.2165-0.3067 (  3146 PWs)   bands (ev):

    -5.5953  -5.5953  -4.1346  -4.1346  -4.0461  -4.0461  -3.9509  -3.9509
    -3.8873  -3.8873  -2.8224  -2.8224   3.4656   3.4656   7.2882   7.2882
     7.5583   7.5583  13.8329  13.8329  16.8583  16.8583

     occupation numbers 
     1.0000   1.0000   1.0000   1.0000   1.0000   1.0000   1.0000   1.0000
     1.0000   1.0000   1.0000   1.0000   1.0000   1.0000   1.0000   1.0000
     1.0000   1.0000   0.0000   0.0000   0.0000   0.0000

 ------ SPIN DOWN ----------


          k = 0.1250 0.2165 0.1022 (  3132 PWs)   bands (ev):

    -6.0526  -5.6075  -4.1534  -4.1430  -4.0957  -4.0830  -4.0020  -3.9564
    -3.9265  -3.9236  -3.8501  -2.5605   3.3377   6.2449   6.4019   7.5138
     8.5886   8.6699  13.2875  15.2656  16.8789  17.1904

     occupation numbers 
     1.0000   1.0000   1.0000   1.0000   1.0000   1.0000   1.0000   1.0000
     1.0000   1.0000   1.0000   1.0000   1.0000   1.0000   1.0000   1.0000
     1.0000   1.0000   0.0000   0.0000   0.0000   0.0000

          k = 0.1250 0.2165-0.3067 (  3146 PWs)   bands (ev):

    -5.7579  -5.7579  -4.1292  -4.1292  -4.1095  -4.1095  -3.9881  -3.9881
    -3.9072  -3.9072  -3.4692  -3.4692   5.0461   5.0461   7.4222   7.4222
     7.9766   7.9766  14.5720  14.5720  16.6622  16.6622

     occupation numbers 
     1.0000   1.0000   1.0000   1.0000   1.0000   1.0000   1.0000   1.0000
     1.0000   1.0000   1.0000   1.0000   1.0000   1.0000   1.0000   1.0000
     1.0000   1.0000   0.0000   0.0000   0.0000   0.0000

          k = 0.1250 0.5052 0.1022 (  3152 PWs)   bands (ev):

    -5.6518  -5.5339  -4.1440  -4.1113  -4.0364  -3.9974  -3.9779  -3.9346
    -3.8935  -3.8726  -2.7938  -2.1220   3.0461   3.9890   5.5094   6.2321
     7.4640   7.6831  14.3132  15.2547  16.0439  17.1825

     occupation numbers 
     1.0000   1.0000   1.0000   1.0000   1.0000   1.0000   1.0000   1.0000
     1.0000   1.0000   1.0000   1.0000   1.0000   1.0000   1.0000   1.0000
     1.0000   1.0000   0.0000   0.0000   0.0000   0.0000

          k = 0.1250 0.5052-0.3067 (  3160 PWs)   bands (ev):

    -5.5570  -5.5570  -4.1233  -4.1233  -4.0457  -4.0457  -3.9454  -3.9454
    -3.8860  -3.8860  -2.5045  -2.5045   3.0839   3.0839   6.6096   6.6096
     7.6320   7.6320  14.2033  14.2033  17.0503  17.0503

     occupation numbers 
     1.0000   1.0000   1.0000   1.0000   1.0000   1.0000   1.0000   1.0000
     1.0000   1.0000   1.0000   1.0000   1.0000   1.0000   1.0000   1.0000
     1.0000   1.0000   0.0000   0.0000   0.0000   0.0000

          k = 0.1250-0.3608 0.1022 (  3142 PWs)   bands (ev):

    -5.7920  -5.5553  -4.1351  -4.1219  -4.0577  -4.0250  -3.9839  -3.9623
    -3.9132  -3.8821  -3.4615  -2.2386   3.5183   4.9027   5.4674   6.6170
     7.9751   8.2237  14.1567  15.6973  16.0034  17.2013

     occupation numbers 
     1.0000   1.0000   1.0000   1.0000   1.0000   1.0000   1.0000   1.0000
     1.0000   1.0000   1.0000   1.0000   1.0000   1.0000   1.0000   1.0000
     1.0000   1.0000   0.0000   0.0000   0.0000   0.0000

          k = 0.1250-0.3608-0.3067 (  3160 PWs)   bands (ev):

    -5.6230  -5.6230  -4.1143  -4.1143  -4.0682  -4.0682  -3.9806  -3.9806
    -3.8942  -3.8942  -3.0062  -3.0062   4.0574   4.0574   7.0394   7.0394
     7.4955   7.4955  14.5608  14.5608  16.8729  16.8729

     occupation numbers 
     1.0000   1.0000   1.0000   1.0000   1.0000   1.0000   1.0000   1.0000
     1.0000   1.0000   1.0000   1.0000   1.0000   1.0000   1.0000   1.0000
     1.0000   1.0000   0.0000   0.0000   0.0000   0.0000

          k = 0.1250-0.0722 0.1022 (  3137 PWs)   bands (ev):

    -6.2678  -5.6604  -4.1810  -4.1668  -4.1300  -4.1123  -4.1094  -3.9589
    -3.9547  -3.8997  -3.8747  -2.7710   3.0363   7.2901   7.6845   8.0293
     8.8776   9.0283  12.4174  14.2206  17.5693  18.1016

     occupation numbers 
     1.0000   1.0000   1.0000   1.0000   1.0000   1.0000   1.0000   1.0000
     1.0000   1.0000   1.0000   1.0000   1.0000   1.0000   1.0000   1.0000
     1.0000   1.0000   0.0000   0.0000   0.0000   0.0000

          k = 0.1250-0.0722-0.3067 (  3112 PWs)   bands (ev):

    -5.8830  -5.8830  -4.1550  -4.1550  -4.1451  -4.1451  -3.9634  -3.9634
    -3.9099  -3.9099  -3.6970  -3.6970   5.3866   5.3866   8.0138   8.0138
     8.5102   8.5102  13.9491  13.9491  17.0698  17.0698

     occupation numbers 
     1.0000   1.0000   1.0000   1.0000   1.0000   1.0000   1.0000   1.0000
     1.0000   1.0000   1.0000   1.0000   1.0000   1.0000   1.0000   1.0000
     1.0000   1.0000   0.0000   0.0000   0.0000   0.0000

          k = 0.3750 0.6495 0.1022 (  3149 PWs)   bands (ev):

    -5.5847  -5.5395  -4.1677  -4.0595  -4.0228  -3.9882  -3.9708  -3.9381
    -3.9203  -3.8995  -2.3826  -2.1135   3.4048   3.8894   4.6669   6.4140
     6.6156   7.1248  14.7699  16.1734  16.6990  17.0851

     occupation numbers 
     1.0000   1.0000   1.0000   1.0000   1.0000   1.0000   1.0000   1.0000
     1.0000   1.0000   1.0000   1.0000   1.0000   1.0000   1.0000   1.0000
     1.0000   1.0000   0.0000   0.0000   0.0000   0.0000

          k = 0.3750 0.6495-0.3067 (  3152 PWs)   bands (ev):

    -5.5303  -5.5303  -4.0898  -4.0898  -4.0597  -4.0597  -3.9461  -3.9461
    -3.9090  -3.9090  -2.2504  -2.2504   3.1649   3.1649   5.4895   5.4895
     7.7895   7.7895  15.1310  15.1310  16.8372  16.8372

     occupation numbers 
     1.0000   1.0000   1.0000   1.0000   1.0000   1.0000   1.0000   1.0000
     1.0000   1.0000   1.0000   1.0000   1.0000   1.0000   1.0000   1.0000
     1.0000   1.0000   0.0000   0.0000   0.0000   0.0000

          k = 0.3750-0.2165 0.1022 (  3159 PWs)   bands (ev):

    -5.7332  -5.5444  -4.1445  -4.1119  -4.0532  -4.0057  -3.9869  -3.9414
    -3.9032  -3.8606  -3.2354  -2.1831   3.1923   4.4026   5.3147   6.9116
     7.8914   8.2996  13.7418  14.6705  16.1036  17.2562

     occupation numbers 
     1.0000   1.0000   1.0000   1.0000   1.0000   1.0000   1.0000   1.0000
     1.0000   1.0000   1.0000   1.0000   1.0000   1.0000   1.0000   1.0000
     1.0000   1.0000   0.0000   0.0000   0.0000   0.0000

          k = 0.3750-0.2165-0.3067 (  3146 PWs)   bands (ev):

    -5.5953  -5.5953  -4.1346  -4.1346  -4.0461  -4.0461  -3.9509  -3.9509
    -3.8873  -3.8873  -2.8224  -2.8224   3.4656   3.4656   7.2882   7.2882
     7.5583   7.5583  13.8329  13.8329  16.8583  16.8583

     occupation numbers 
     1.0000   1.0000   1.0000   1.0000   1.0000   1.0000   1.0000   1.0000
     1.0000   1.0000   1.0000   1.0000   1.0000   1.0000   1.0000   1.0000
     1.0000   1.0000   0.0000   0.0000   0.0000   0.0000

     the Fermi energy is    12.0773 ev

!    total energy              =    -612.43182483 Ry
     total all-electron energy =     -7995.358743 Ry
     estimated scf accuracy    <          8.8E-10 Ry
     smearing contrib. (-TS)   =      -0.00000000 Ry
     internal energy E=F+TS    =    -612.43182483 Ry

     The total energy is F=E-TS. E is the sum of the following terms:
     one-electron contribution =    -184.74359467 Ry
     hartree contribution      =     131.26065847 Ry
     xc contribution           =     -88.36345760 Ry
     ewald contribution        =    -230.82466193 Ry
     one-center paw contrib.   =    -239.76076909 Ry
      -> PAW hartree energy AE =     145.66504609 Ry
      -> PAW hartree energy PS =    -144.61832033 Ry
      -> PAW xc energy AE      =    -151.16794049 Ry
      -> PAW xc energy PS      =      38.21771345 Ry
      -> total E_H with PAW    =     132.30738422 Ry
      -> total E_XC with PAW   =    -201.31368464 Ry

     total magnetization       =     0.00 Bohr mag/cell
     absolute magnetization    =     0.00 Bohr mag/cell

     convergence has been achieved in  14 iterations

     Forces acting on atoms (cartesian axes, Ry/au):

     atom    1 type  1   force =    -0.00000000    0.00000000   -0.00051190
     atom    2 type  1   force =    -0.00000000   -0.00000000   -0.00051190
     atom    3 type  2   force =     0.00000000    0.00000000    0.00051190
     atom    4 type  2   force =     0.00000000    0.00000000    0.00051190
     The non-local contrib.  to forces
     atom    1 type  1   force =    -0.00000000   -0.00000000    0.00730215
     atom    2 type  1   force =     0.00000000    0.00000000    0.00730215
     atom    3 type  2   force =    -0.00000000    0.00000000    0.01281141
     atom    4 type  2   force =     0.00000000    0.00000000    0.01281141
     The ionic contribution  to forces
     atom    1 type  1   force =    -0.00000002    0.00000001    0.15748047
     atom    2 type  1   force =     0.00000002   -0.00000001    0.15748047
     atom    3 type  2   force =    -0.00000001    0.00000001   -0.15748047
     atom    4 type  2   force =     0.00000001   -0.00000001   -0.15748047
     The local contribution  to forces
     atom    1 type  1   force =    -0.00000000    0.00000032   -0.16543692
     atom    2 type  1   force =     0.00000056    0.00000000   -0.16543687
     atom    3 type  2   force =    -0.00000000    0.00000003    0.14537738
     atom    4 type  2   force =     0.00000004    0.00000000    0.14537729
     The core correction contribution to forces
     atom    1 type  1   force =     0.00000000    0.00000002    0.00014243
     atom    2 type  1   force =     0.00000004    0.00000000    0.00014243
     atom    3 type  2   force =     0.00000000   -0.00000000   -0.00019705
     atom    4 type  2   force =    -0.00000000    0.00000000   -0.00019705
     The Hubbard contrib.    to forces
     atom    1 type  1   force =     0.00000000    0.00000000    0.00000000
     atom    2 type  1   force =     0.00000000    0.00000000    0.00000000
     atom    3 type  2   force =     0.00000000    0.00000000    0.00000000
     atom    4 type  2   force =     0.00000000    0.00000000    0.00000000
     The SCF correction term to forces
     atom    1 type  1   force =     0.00000000    0.00000000    0.00000000
     atom    2 type  1   force =     0.00000000    0.00000000    0.00000000
     atom    3 type  2   force =     0.00000000    0.00000000    0.00000015
     atom    4 type  2   force =     0.00000000    0.00000000    0.00000015

     Total force =     0.000724     Total SCF correction =     0.000000


     Computing stress (Cartesian axis) and pressure

          total   stress  (Ry/bohr**3)                   (kbar)     P=       -6.58
  -0.00004606   0.00000000   0.00000000           -6.77        0.00        0.00
   0.00000000  -0.00004606   0.00000000            0.00       -6.77        0.00
   0.00000000   0.00000000  -0.00004211            0.00        0.00       -6.20

     kinetic stress (kbar)  19805.68      0.00      0.00
                                0.00  19805.68      0.00
                                0.00     -0.00  19799.94

     local   stress (kbar)   6190.60      0.00     -0.00
                                0.00   6190.60     -0.00
                               -0.00     -0.00   4428.64

     nonloc. stress (kbar)  -1204.66      0.00      0.00
                                0.00  -1204.66      0.00
                                0.00      0.00  -1191.51

     hartree stress (kbar)  19967.07      0.00      0.00
                                0.00  19967.07     -0.00
                                0.00     -0.00  20762.41

     exc-cor stress (kbar)   5145.67     -0.00      0.00
                               -0.00   5145.67      0.00
                                0.00      0.00   5146.11

     corecor stress (kbar) -14012.77      0.00     -0.00
                                0.00 -14012.77     -0.00
                               -0.00     -0.00 -14012.34

     ewald   stress (kbar) -35898.35     -0.00     -0.00
                               -0.00 -35898.35     -0.00
                               -0.00     -0.00 -34939.46

     hubbard stress (kbar)      0.00      0.00      0.00
                                0.00      0.00      0.00
                                0.00      0.00      0.00

     DFT-D   stress (kbar)      0.00      0.00      0.00
                                0.00      0.00      0.00
                                0.00      0.00      0.00

     XDM     stress (kbar)      0.00      0.00      0.00
                                0.00      0.00      0.00
                                0.00      0.00      0.00

     dft-nl  stress (kbar)      0.00      0.00      0.00
                                0.00      0.00      0.00
                                0.00      0.00      0.00

     TS-vdW  stress (kbar)      0.00      0.00      0.00
                                0.00      0.00      0.00
                                0.00      0.00      0.00

     MDB     stress (kbar)      0.00      0.00      0.00
                                0.00      0.00      0.00
                                0.00      0.00      0.00

     3D-RISM stress (kbar)      0.00      0.00      0.00
                                0.00      0.00      0.00
                                0.00      0.00      0.00


     Writing all to output data dir ./tmp/GaN.save/ :
     XML data file
     init_run     :      0.34s CPU      0.39s WALL (       1 calls)
     electrons    :      6.96s CPU      7.74s WALL (       1 calls)
     forces       :      0.07s CPU      0.08s WALL (       1 calls)
     stress       :      0.32s CPU      0.34s WALL (       1 calls)

     Called by init_run:
     wfcinit      :      0.09s CPU      0.11s WALL (       1 calls)
     wfcinit:atom :      0.00s CPU      0.00s WALL (      24 calls)
     wfcinit:wfcr :      0.09s CPU      0.10s WALL (      24 calls)
     potinit      :      0.10s CPU      0.12s WALL (       1 calls)
     hinit0       :      0.06s CPU      0.06s WALL (       1 calls)

     Called by electrons:
     c_bands      :      4.08s CPU      4.36s WALL (      14 calls)
     sum_band     :      1.04s CPU      1.28s WALL (      14 calls)
     v_of_rho     :      0.21s CPU      0.21s WALL (      15 calls)
     v_h          :      0.01s CPU      0.01s WALL (      15 calls)
     v_xc         :      0.23s CPU      0.23s WALL (      17 calls)
     newd         :      0.40s CPU      0.63s WALL (      15 calls)
     PAW_pot      :      1.31s CPU      1.35s WALL (      15 calls)
     mix_rho      :      0.03s CPU      0.03s WALL (      14 calls)

     Called by c_bands:
     init_us_2    :      0.04s CPU      0.04s WALL (     744 calls)
     cegterg      :      3.94s CPU      4.21s WALL (     336 calls)

     Called by sum_band:
     sum_band:wei :      0.00s CPU      0.00s WALL (      14 calls)
     sum_band:loo :      0.42s CPU      0.47s WALL (      14 calls)
     sum_band:buf :      0.00s CPU      0.00s WALL (     336 calls)
     sum_band:ini :      0.02s CPU      0.02s WALL (     336 calls)
     sum_band:cal :      0.03s CPU      0.03s WALL (     336 calls)
     sum_band:bec :      0.00s CPU      0.00s WALL (     336 calls)
     addusdens    :      0.58s CPU      0.77s WALL (      14 calls)
                                        0.00s GPU  (      14 calls)
     addusd:skk   :      0.00s CPU      0.00s WALL (      28 calls)
                                        0.00s GPU  (      28 calls)

     Called by *egterg:
     cdiaghg      :      0.62s CPU      0.66s WALL (    2079 calls)
     cegterg:over :      0.16s CPU      0.17s WALL (    1743 calls)
     cegterg:upda :      0.05s CPU      0.05s WALL (    1743 calls)
     cegterg:last :      0.12s CPU      0.13s WALL (    1240 calls)
     h_psi        :      2.87s CPU      3.09s WALL (    2103 calls)
     s_psi        :      0.07s CPU      0.08s WALL (    2103 calls)
     g_psi        :      0.01s CPU      0.01s WALL (    1743 calls)

     Called by h_psi:
     h_psi:calbec :      0.14s CPU      0.15s WALL (    2103 calls)
     vloc_psi     :      2.64s CPU      2.84s WALL (    2103 calls)
     add_vuspsi   :      0.07s CPU      0.08s WALL (    2103 calls)

     General routines
     calbec       :      0.19s CPU      0.21s WALL (    2559 calls)
     fft          :      0.08s CPU      0.08s WALL (     413 calls)
     ffts         :      0.00s CPU      0.00s WALL (      58 calls)
     fftw         :      2.53s CPU      2.74s WALL (   65474 calls)
     interpolate  :      0.01s CPU      0.01s WALL (      30 calls)
 
     Parallel routines

     PAW routines
     PAW_pot      :      1.31s CPU      1.35s WALL (      15 calls)
     PAW_symme    :      0.00s CPU      0.00s WALL (      29 calls)
 
     PWSCF        :      7.81s CPU      8.73s WALL

 
   This run was terminated on:  17:47:52  29May2026            

=------------------------------------------------------------------------------=
   JOB DONE.
=------------------------------------------------------------------------------=
