
     Program PWSCF v.7.3.1 starts on 30Aug2026 at  8:15:49 

     This program is part of the open-source Quantum ESPRESSO suite
     for quantum simulation of materials; please cite
         "P. Giannozzi et al., J. Phys.:Condens. Matter 21 395502 (2009);
         "P. Giannozzi et al., J. Phys.:Condens. Matter 29 465901 (2017);
         "P. Giannozzi et al., J. Chem. Phys. 152 154105 (2020);
          URL http://www.quantum-espresso.org", 
     in publications or presentations arising from this work. More details at
     http://www.quantum-espresso.org/quote

     Parallel version (MPI & OpenMP), running on      12 processor cores
     Number of MPI processes:                12
     Threads/MPI process:                     1

     MPI processes distributed on     1 nodes
     120596 MiB available memory on the printing compute node when the environment starts
 
     Waiting for input...
     Reading input from standard input

     Current dimensions of program PWSCF are:
     Max number of different atomic species (ntypx) = 10
     Max number of k-points (npk) =  40000
     Max angular momentum in pseudopotentials (lmaxx) =  4
     file Ga.pbe-dn-kjpaw_psl.1.0.0.UPF: wavefunction(s)  4S renormalized
     file N.pbe-n-kjpaw_psl.1.0.0.UPF: wavefunction(s)  2S renormalized
     file C.pbe-n-kjpaw_psl.1.0.0.UPF: wavefunction(s)  2S 2P renormalized
     Message from routine setup:
     using ibrav=0 with symmetry is DISCOURAGED, use correct ibrav instead
 
     R & G space division:  proc/nbgrp/npool/nimage =      12
     Subspace diagonalization in iterative solution of the eigenvalue problem:
     one sub-group per band group will be used
     custom distributed-memory algorithm (size of sub-group:  3*  3 procs)

 
     Parallelization info
     --------------------
     sticks:   dense  smooth     PW     G-vecs:    dense   smooth      PW
     Min         955     382    103               135143    34186    4755
     Max         956     383    104               135146    34191    4762
     Sum       11461    4591   1237              1621723   410263   57081
 
     Using Slab Decomposition
 


     bravais-lattice index     =            0
     lattice parameter (alat)  =      18.2548  a.u.
     unit-cell volume          =    8589.3845 (a.u.)^3
     number of atoms/cell      =          108
     number of atomic types    =            3
     number of electrons       =       971.00
     number of Kohn-Sham states=          513
     kinetic-energy cutoff     =      50.0000  Ry
     charge density cutoff     =     500.0000  Ry
     scf convergence threshold =      1.0E-08
     mixing beta               =       0.7000
     number of iterations used =            8  plain     mixing
     Exchange-correlation= SLA  PW   PBX  PBC
                           (   1   4   3   4   0   0   0)

     celldm(1)=  18.254754  celldm(2)=   0.000000  celldm(3)=   0.000000
     celldm(4)=   0.000000  celldm(5)=   0.000000  celldm(6)=   0.000000

     crystal axes: (cart. coord. in units of alat)
               a(1) = (   1.000000   0.000000   0.000000 )  
               a(2) = (  -0.500000   0.866025   0.000000 )  
               a(3) = (   0.000000   0.000000   1.630435 )  

     reciprocal axes: (cart. coord. in units 2 pi/alat)
               b(1) = (  1.000000  0.577350  0.000000 )  
               b(2) = (  0.000000  1.154701  0.000000 )  
               b(3) = (  0.000000  0.000000  0.613333 )  


     PseudoPot. # 1 for Ga read from file:
     /data-fast/greenano/Students/cohort2/rojassan/Project_GaN/PSEUDO/Ga.pbe-dn-kjpaw_psl.1.0.0.UPF
     MD5 check sum: 93aceff68ec27daa0acc11ebb2e245f0
     Pseudo is Projector augmented-wave + core cor, Zval = 13.0
     Generated using 'atomic' code by A. Dal Corso  v.7.3.1
     Shape of augmentation charge: PSQ
     Using radial grid of 1205 points,  6 beta functions with: 
                l(1) =   0
                l(2) =   0
                l(3) =   1
                l(4) =   1
                l(5) =   2
                l(6) =   2
     Q(r) pseudized with 0 coefficients 


     PseudoPot. # 2 for N  read from file:
     /data-fast/greenano/Students/cohort2/rojassan/Project_GaN/PSEUDO/N.pbe-n-kjpaw_psl.1.0.0.UPF
     MD5 check sum: 86f48117b7e7b472c01f85d0863ba463
     Pseudo is Projector augmented-wave + core cor, Zval =  5.0
     Generated using 'atomic' code by A. Dal Corso  v.7.3.1
     Shape of augmentation charge: PSQ
     Using radial grid of 1085 points,  4 beta functions with: 
                l(1) =   0
                l(2) =   0
                l(3) =   1
                l(4) =   1
     Q(r) pseudized with 0 coefficients 


     PseudoPot. # 3 for C  read from file:
     /data-fast/greenano/Students/cohort2/rojassan/Project_GaN/PSEUDO/C.pbe-n-kjpaw_psl.1.0.0.UPF
     MD5 check sum: 6e4988b7a1fe6f06f65aa0569fb69d66
     Pseudo is Projector augmented-wave + core cor, Zval =  4.0
     Generated using 'atomic' code by A. Dal Corso  v.7.3.1
     Shape of augmentation charge: PSQ
     Using radial grid of 1073 points,  4 beta functions with: 
                l(1) =   0
                l(2) =   0
                l(3) =   1
                l(4) =   1
     Q(r) pseudized with 0 coefficients 


     atomic species   valence    mass     pseudopotential
     Ga               13.00    69.72300     Ga( 1.00)
     N                 5.00    14.00700     N ( 1.00)
     C                 4.00    12.01100     C ( 1.00)

     Starting magnetic structure 
     atomic species   magnetization
     Ga              0.000
     N               0.000
     C               0.500

      6 Sym. Ops. (no inversion) found ( 4 have fractional translation)


                                    s                        frac. trans.

      isym =  1     identity                                     

 cryst.   s( 1) = (     1          0          0      )
                  (     0          1          0      )
                  (     0          0          1      )

 cart.    s( 1) = (  1.0000000  0.0000000  0.0000000 )
                  (  0.0000000  1.0000000  0.0000000 )
                  (  0.0000000  0.0000000  1.0000000 )


      isym =  2     120 deg rotation - cryst. axis [0,0,1]       

 cryst.   s( 2) = (     0          1          0      )    f =( -0.3333333 )
                  (    -1         -1          0      )       ( -0.3333333 )
                  (     0          0          1      )       (  0.0000000 )

 cart.    s( 2) = ( -0.5000000 -0.8660254  0.0000000 )    f =( -0.1666667 )
                  (  0.8660254 -0.5000000  0.0000000 )       ( -0.2886751 )
                  (  0.0000000  0.0000000  1.0000000 )       (  0.0000000 )


      isym =  3     120 deg rotation - cryst. axis [0,0,-1]      

 cryst.   s( 3) = (    -1         -1          0      )    f =(  0.0000000 )
                  (     1          0          0      )       ( -0.3333333 )
                  (     0          0          1      )       (  0.0000000 )

 cart.    s( 3) = ( -0.5000000  0.8660254  0.0000000 )    f =(  0.1666667 )
                  ( -0.8660254 -0.5000000  0.0000000 )       ( -0.2886751 )
                  (  0.0000000  0.0000000  1.0000000 )       (  0.0000000 )


      isym =  4     inv. 180 deg rotation - cart. axis [1,0,0]   

 cryst.   s( 4) = (    -1          0          0      )
                  (     1          1          0      )
                  (     0          0          1      )

 cart.    s( 4) = ( -1.0000000  0.0000000  0.0000000 )
                  (  0.0000000  1.0000000  0.0000000 )
                  (  0.0000000  0.0000000  1.0000000 )


      isym =  5     inv. 180 deg rotation - cryst. axis [0,1,0]  

 cryst.   s( 5) = (     1          1          0      )    f =(  0.0000000 )
                  (     0         -1          0      )       ( -0.3333333 )
                  (     0          0          1      )       (  0.0000000 )

 cart.    s( 5) = (  0.5000000  0.8660254  0.0000000 )    f =(  0.1666667 )
                  (  0.8660254 -0.5000000  0.0000000 )       ( -0.2886751 )
                  (  0.0000000  0.0000000  1.0000000 )       (  0.0000000 )


      isym =  6     inv. 180 deg rotation - cryst. axis [1,1,0]  

 cryst.   s( 6) = (     0         -1          0      )    f =( -0.3333333 )
                  (    -1          0          0      )       ( -0.3333333 )
                  (     0          0          1      )       (  0.0000000 )

 cart.    s( 6) = (  0.5000000 -0.8660254  0.0000000 )    f =( -0.1666667 )
                  ( -0.8660254 -0.5000000  0.0000000 )       ( -0.2886751 )
                  (  0.0000000  0.0000000  1.0000000 )       (  0.0000000 )


   Cartesian axes

     site n.     atom                  positions (alat units)
         1        Ga     tau(   1) = (   0.0000000   0.1924501   0.0000000  )
         2        Ga     tau(   2) = (   0.1666667   0.0962250   0.2717391  )
         3        C      tau(   3) = (   0.0000000   0.1924501   0.2045554  )
         4        N      tau(   4) = (   0.1666667   0.0962250   0.4762946  )
         5        Ga     tau(   5) = (   0.3333333   0.1924501   0.0000000  )
         6        Ga     tau(   6) = (   0.5000000   0.0962250   0.2717391  )
         7        N      tau(   7) = (   0.3333333   0.1924501   0.2045554  )
         8        N      tau(   8) = (   0.5000000   0.0962250   0.4762946  )
         9        Ga     tau(   9) = (   0.6666667   0.1924501   0.0000000  )
        10        Ga     tau(  10) = (   0.8333333   0.0962250   0.2717391  )
        11        N      tau(  11) = (   0.6666667   0.1924501   0.2045554  )
        12        N      tau(  12) = (   0.8333333   0.0962250   0.4762946  )
        13        Ga     tau(  13) = (  -0.1666667   0.4811252   0.0000000  )
        14        Ga     tau(  14) = (   0.0000000   0.3849002   0.2717391  )
        15        N      tau(  15) = (  -0.1666667   0.4811252   0.2045554  )
        16        N      tau(  16) = (   0.0000000   0.3849002   0.4762946  )
        17        Ga     tau(  17) = (   0.1666667   0.4811252   0.0000000  )
        18        Ga     tau(  18) = (   0.3333333   0.3849002   0.2717391  )
        19        N      tau(  19) = (   0.1666667   0.4811252   0.2045554  )
        20        N      tau(  20) = (   0.3333333   0.3849002   0.4762946  )
        21        Ga     tau(  21) = (   0.5000000   0.4811252   0.0000000  )
        22        Ga     tau(  22) = (   0.6666667   0.3849002   0.2717391  )
        23        N      tau(  23) = (   0.5000000   0.4811252   0.2045554  )
        24        N      tau(  24) = (   0.6666667   0.3849002   0.4762946  )
        25        Ga     tau(  25) = (  -0.3333333   0.7698004   0.0000000  )
        26        Ga     tau(  26) = (  -0.1666667   0.6735753   0.2717391  )
        27        N      tau(  27) = (  -0.3333333   0.7698004   0.2045554  )
        28        N      tau(  28) = (  -0.1666667   0.6735753   0.4762946  )
        29        Ga     tau(  29) = (   0.0000000   0.7698004   0.0000000  )
        30        Ga     tau(  30) = (   0.1666667   0.6735753   0.2717391  )
        31        N      tau(  31) = (   0.0000000   0.7698004   0.2045554  )
        32        N      tau(  32) = (   0.1666667   0.6735753   0.4762946  )
        33        Ga     tau(  33) = (   0.3333333   0.7698004   0.0000000  )
        34        Ga     tau(  34) = (   0.5000000   0.6735753   0.2717391  )
        35        N      tau(  35) = (   0.3333333   0.7698004   0.2045554  )
        36        N      tau(  36) = (   0.5000000   0.6735753   0.4762946  )
        37        Ga     tau(  37) = (   0.0000000   0.1924501   0.5434783  )
        38        Ga     tau(  38) = (   0.1666667   0.0962250   0.8152174  )
        39        N      tau(  39) = (   0.0000000   0.1924501   0.7480337  )
        40        N      tau(  40) = (   0.1666667   0.0962250   1.0197728  )
        41        Ga     tau(  41) = (   0.3333333   0.1924501   0.5434783  )
        42        Ga     tau(  42) = (   0.5000000   0.0962250   0.8152174  )
        43        N      tau(  43) = (   0.3333333   0.1924501   0.7480337  )
        44        N      tau(  44) = (   0.5000000   0.0962250   1.0197728  )
        45        Ga     tau(  45) = (   0.6666667   0.1924501   0.5434783  )
        46        Ga     tau(  46) = (   0.8333333   0.0962250   0.8152174  )
        47        N      tau(  47) = (   0.6666667   0.1924501   0.7480337  )
        48        N      tau(  48) = (   0.8333333   0.0962250   1.0197728  )
        49        Ga     tau(  49) = (  -0.1666667   0.4811252   0.5434783  )
        50        Ga     tau(  50) = (   0.0000000   0.3849002   0.8152174  )
        51        N      tau(  51) = (  -0.1666667   0.4811252   0.7480337  )
        52        N      tau(  52) = (   0.0000000   0.3849002   1.0197728  )
        53        Ga     tau(  53) = (   0.1666667   0.4811252   0.5434783  )
        54        Ga     tau(  54) = (   0.3333333   0.3849002   0.8152174  )
        55        N      tau(  55) = (   0.1666667   0.4811252   0.7480337  )
        56        N      tau(  56) = (   0.3333333   0.3849002   1.0197728  )
        57        Ga     tau(  57) = (   0.5000000   0.4811252   0.5434783  )
        58        Ga     tau(  58) = (   0.6666667   0.3849002   0.8152174  )
        59        N      tau(  59) = (   0.5000000   0.4811252   0.7480337  )
        60        N      tau(  60) = (   0.6666667   0.3849002   1.0197728  )
        61        Ga     tau(  61) = (  -0.3333333   0.7698004   0.5434783  )
        62        Ga     tau(  62) = (  -0.1666667   0.6735753   0.8152174  )
        63        N      tau(  63) = (  -0.3333333   0.7698004   0.7480337  )
        64        N      tau(  64) = (  -0.1666667   0.6735753   1.0197728  )
        65        Ga     tau(  65) = (   0.0000000   0.7698004   0.5434783  )
        66        Ga     tau(  66) = (   0.1666667   0.6735753   0.8152174  )
        67        N      tau(  67) = (   0.0000000   0.7698004   0.7480337  )
        68        N      tau(  68) = (   0.1666667   0.6735753   1.0197728  )
        69        Ga     tau(  69) = (   0.3333333   0.7698004   0.5434783  )
        70        Ga     tau(  70) = (   0.5000000   0.6735753   0.8152174  )
        71        N      tau(  71) = (   0.3333333   0.7698004   0.7480337  )
        72        N      tau(  72) = (   0.5000000   0.6735753   1.0197728  )
        73        Ga     tau(  73) = (   0.0000000   0.1924501   1.0869565  )
        74        Ga     tau(  74) = (   0.1666667   0.0962250   1.3586957  )
        75        N      tau(  75) = (   0.0000000   0.1924501   1.2915120  )
        76        N      tau(  76) = (   0.1666667   0.0962250   1.5632511  )
        77        Ga     tau(  77) = (   0.3333333   0.1924501   1.0869565  )
        78        Ga     tau(  78) = (   0.5000000   0.0962250   1.3586957  )
        79        N      tau(  79) = (   0.3333333   0.1924501   1.2915120  )
        80        N      tau(  80) = (   0.5000000   0.0962250   1.5632511  )
        81        Ga     tau(  81) = (   0.6666667   0.1924501   1.0869565  )
        82        Ga     tau(  82) = (   0.8333333   0.0962250   1.3586957  )
        83        N      tau(  83) = (   0.6666667   0.1924501   1.2915120  )
        84        N      tau(  84) = (   0.8333333   0.0962250   1.5632511  )
        85        Ga     tau(  85) = (  -0.1666667   0.4811252   1.0869565  )
        86        Ga     tau(  86) = (   0.0000000   0.3849002   1.3586957  )
        87        N      tau(  87) = (  -0.1666667   0.4811252   1.2915120  )
        88        N      tau(  88) = (   0.0000000   0.3849002   1.5632511  )
        89        Ga     tau(  89) = (   0.1666667   0.4811252   1.0869565  )
        90        Ga     tau(  90) = (   0.3333333   0.3849002   1.3586957  )
        91        N      tau(  91) = (   0.1666667   0.4811252   1.2915120  )
        92        N      tau(  92) = (   0.3333333   0.3849002   1.5632511  )
        93        Ga     tau(  93) = (   0.5000000   0.4811252   1.0869565  )
        94        Ga     tau(  94) = (   0.6666667   0.3849002   1.3586957  )
        95        N      tau(  95) = (   0.5000000   0.4811252   1.2915120  )
        96        N      tau(  96) = (   0.6666667   0.3849002   1.5632511  )
        97        Ga     tau(  97) = (  -0.3333333   0.7698004   1.0869565  )
        98        Ga     tau(  98) = (  -0.1666667   0.6735753   1.3586957  )
        99        N      tau(  99) = (  -0.3333333   0.7698004   1.2915120  )
       100        N      tau( 100) = (  -0.1666667   0.6735753   1.5632511  )
       101        Ga     tau( 101) = (   0.0000000   0.7698004   1.0869565  )
       102        Ga     tau( 102) = (   0.1666667   0.6735753   1.3586957  )
       103        N      tau( 103) = (   0.0000000   0.7698004   1.2915120  )
       104        N      tau( 104) = (   0.1666667   0.6735753   1.5632511  )
       105        Ga     tau( 105) = (   0.3333333   0.7698004   1.0869565  )
       106        Ga     tau( 106) = (   0.5000000   0.6735753   1.3586957  )
       107        N      tau( 107) = (   0.3333333   0.7698004   1.2915120  )
       108        N      tau( 108) = (   0.5000000   0.6735753   1.5632511  )

   Crystallographic axes

     site n.     atom                  positions (cryst. coord.)
         1        Ga     tau(   1) = (  0.1111111  0.2222222  0.0000000  )
         2        Ga     tau(   2) = (  0.2222222  0.1111111  0.1666667  )
         3        C      tau(   3) = (  0.1111111  0.2222222  0.1254607  )
         4        N      tau(   4) = (  0.2222222  0.1111111  0.2921273  )
         5        Ga     tau(   5) = (  0.4444444  0.2222222  0.0000000  )
         6        Ga     tau(   6) = (  0.5555556  0.1111111  0.1666667  )
         7        N      tau(   7) = (  0.4444444  0.2222222  0.1254607  )
         8        N      tau(   8) = (  0.5555556  0.1111111  0.2921273  )
         9        Ga     tau(   9) = (  0.7777778  0.2222222  0.0000000  )
        10        Ga     tau(  10) = (  0.8888889  0.1111111  0.1666667  )
        11        N      tau(  11) = (  0.7777778  0.2222222  0.1254607  )
        12        N      tau(  12) = (  0.8888889  0.1111111  0.2921273  )
        13        Ga     tau(  13) = (  0.1111111  0.5555556  0.0000000  )
        14        Ga     tau(  14) = (  0.2222222  0.4444444  0.1666667  )
        15        N      tau(  15) = (  0.1111111  0.5555556  0.1254607  )
        16        N      tau(  16) = (  0.2222222  0.4444444  0.2921273  )
        17        Ga     tau(  17) = (  0.4444444  0.5555556  0.0000000  )
        18        Ga     tau(  18) = (  0.5555556  0.4444444  0.1666667  )
        19        N      tau(  19) = (  0.4444444  0.5555556  0.1254607  )
        20        N      tau(  20) = (  0.5555556  0.4444444  0.2921273  )
        21        Ga     tau(  21) = (  0.7777778  0.5555556  0.0000000  )
        22        Ga     tau(  22) = (  0.8888889  0.4444444  0.1666667  )
        23        N      tau(  23) = (  0.7777778  0.5555556  0.1254607  )
        24        N      tau(  24) = (  0.8888889  0.4444444  0.2921273  )
        25        Ga     tau(  25) = (  0.1111111  0.8888889  0.0000000  )
        26        Ga     tau(  26) = (  0.2222222  0.7777778  0.1666667  )
        27        N      tau(  27) = (  0.1111111  0.8888889  0.1254607  )
        28        N      tau(  28) = (  0.2222222  0.7777778  0.2921273  )
        29        Ga     tau(  29) = (  0.4444444  0.8888889  0.0000000  )
        30        Ga     tau(  30) = (  0.5555556  0.7777778  0.1666667  )
        31        N      tau(  31) = (  0.4444444  0.8888889  0.1254607  )
        32        N      tau(  32) = (  0.5555556  0.7777778  0.2921273  )
        33        Ga     tau(  33) = (  0.7777778  0.8888889  0.0000000  )
        34        Ga     tau(  34) = (  0.8888889  0.7777778  0.1666667  )
        35        N      tau(  35) = (  0.7777778  0.8888889  0.1254607  )
        36        N      tau(  36) = (  0.8888889  0.7777778  0.2921273  )
        37        Ga     tau(  37) = (  0.1111111  0.2222222  0.3333333  )
        38        Ga     tau(  38) = (  0.2222222  0.1111111  0.5000000  )
        39        N      tau(  39) = (  0.1111111  0.2222222  0.4587940  )
        40        N      tau(  40) = (  0.2222222  0.1111111  0.6254607  )
        41        Ga     tau(  41) = (  0.4444444  0.2222222  0.3333333  )
        42        Ga     tau(  42) = (  0.5555556  0.1111111  0.5000000  )
        43        N      tau(  43) = (  0.4444444  0.2222222  0.4587940  )
        44        N      tau(  44) = (  0.5555556  0.1111111  0.6254607  )
        45        Ga     tau(  45) = (  0.7777778  0.2222222  0.3333333  )
        46        Ga     tau(  46) = (  0.8888889  0.1111111  0.5000000  )
        47        N      tau(  47) = (  0.7777778  0.2222222  0.4587940  )
        48        N      tau(  48) = (  0.8888889  0.1111111  0.6254607  )
        49        Ga     tau(  49) = (  0.1111111  0.5555556  0.3333333  )
        50        Ga     tau(  50) = (  0.2222222  0.4444444  0.5000000  )
        51        N      tau(  51) = (  0.1111111  0.5555556  0.4587940  )
        52        N      tau(  52) = (  0.2222222  0.4444444  0.6254607  )
        53        Ga     tau(  53) = (  0.4444444  0.5555556  0.3333333  )
        54        Ga     tau(  54) = (  0.5555556  0.4444444  0.5000000  )
        55        N      tau(  55) = (  0.4444444  0.5555556  0.4587940  )
        56        N      tau(  56) = (  0.5555556  0.4444444  0.6254607  )
        57        Ga     tau(  57) = (  0.7777778  0.5555556  0.3333333  )
        58        Ga     tau(  58) = (  0.8888889  0.4444444  0.5000000  )
        59        N      tau(  59) = (  0.7777778  0.5555556  0.4587940  )
        60        N      tau(  60) = (  0.8888889  0.4444444  0.6254607  )
        61        Ga     tau(  61) = (  0.1111111  0.8888889  0.3333333  )
        62        Ga     tau(  62) = (  0.2222222  0.7777778  0.5000000  )
        63        N      tau(  63) = (  0.1111111  0.8888889  0.4587940  )
        64        N      tau(  64) = (  0.2222222  0.7777778  0.6254607  )
        65        Ga     tau(  65) = (  0.4444444  0.8888889  0.3333333  )
        66        Ga     tau(  66) = (  0.5555556  0.7777778  0.5000000  )
        67        N      tau(  67) = (  0.4444444  0.8888889  0.4587940  )
        68        N      tau(  68) = (  0.5555556  0.7777778  0.6254607  )
        69        Ga     tau(  69) = (  0.7777778  0.8888889  0.3333333  )
        70        Ga     tau(  70) = (  0.8888889  0.7777778  0.5000000  )
        71        N      tau(  71) = (  0.7777778  0.8888889  0.4587940  )
        72        N      tau(  72) = (  0.8888889  0.7777778  0.6254607  )
        73        Ga     tau(  73) = (  0.1111111  0.2222222  0.6666667  )
        74        Ga     tau(  74) = (  0.2222222  0.1111111  0.8333333  )
        75        N      tau(  75) = (  0.1111111  0.2222222  0.7921273  )
        76        N      tau(  76) = (  0.2222222  0.1111111  0.9587940  )
        77        Ga     tau(  77) = (  0.4444444  0.2222222  0.6666667  )
        78        Ga     tau(  78) = (  0.5555556  0.1111111  0.8333333  )
        79        N      tau(  79) = (  0.4444444  0.2222222  0.7921273  )
        80        N      tau(  80) = (  0.5555556  0.1111111  0.9587940  )
        81        Ga     tau(  81) = (  0.7777778  0.2222222  0.6666667  )
        82        Ga     tau(  82) = (  0.8888889  0.1111111  0.8333333  )
        83        N      tau(  83) = (  0.7777778  0.2222222  0.7921273  )
        84        N      tau(  84) = (  0.8888889  0.1111111  0.9587940  )
        85        Ga     tau(  85) = (  0.1111111  0.5555556  0.6666667  )
        86        Ga     tau(  86) = (  0.2222222  0.4444444  0.8333333  )
        87        N      tau(  87) = (  0.1111111  0.5555556  0.7921273  )
        88        N      tau(  88) = (  0.2222222  0.4444444  0.9587940  )
        89        Ga     tau(  89) = (  0.4444444  0.5555556  0.6666667  )
        90        Ga     tau(  90) = (  0.5555556  0.4444444  0.8333333  )
        91        N      tau(  91) = (  0.4444444  0.5555556  0.7921273  )
        92        N      tau(  92) = (  0.5555556  0.4444444  0.9587940  )
        93        Ga     tau(  93) = (  0.7777778  0.5555556  0.6666667  )
        94        Ga     tau(  94) = (  0.8888889  0.4444444  0.8333333  )
        95        N      tau(  95) = (  0.7777778  0.5555556  0.7921273  )
        96        N      tau(  96) = (  0.8888889  0.4444444  0.9587940  )
        97        Ga     tau(  97) = (  0.1111111  0.8888889  0.6666667  )
        98        Ga     tau(  98) = (  0.2222222  0.7777778  0.8333333  )
        99        N      tau(  99) = (  0.1111111  0.8888889  0.7921273  )
       100        N      tau( 100) = (  0.2222222  0.7777778  0.9587940  )
       101        Ga     tau( 101) = (  0.4444444  0.8888889  0.6666667  )
       102        Ga     tau( 102) = (  0.5555556  0.7777778  0.8333333  )
       103        N      tau( 103) = (  0.4444444  0.8888889  0.7921273  )
       104        N      tau( 104) = (  0.5555556  0.7777778  0.9587940  )
       105        Ga     tau( 105) = (  0.7777778  0.8888889  0.6666667  )
       106        Ga     tau( 106) = (  0.8888889  0.7777778  0.8333333  )
       107        N      tau( 107) = (  0.7777778  0.8888889  0.7921273  )
       108        N      tau( 108) = (  0.8888889  0.7777778  0.9587940  )

     number of k points=     6  Gaussian smearing, width (Ry)=  0.0020
                       cart. coord. in units 2pi/alat
        k(    1) = (   0.0000000   0.0000000   0.0000000), wk =   0.0555556
        k(    2) = (   0.0000000   0.0000000  -0.3066667), wk =   0.0555556
        k(    3) = (   0.0000000   0.3849002   0.0000000), wk =   0.3333333
        k(    4) = (   0.0000000   0.3849002  -0.3066667), wk =   0.3333333
        k(    5) = (   0.3333333   0.5773503   0.0000000), wk =   0.1111111
        k(    6) = (   0.3333333   0.5773503  -0.3066667), wk =   0.1111111

                       cryst. coord.
        k(    1) = (   0.0000000   0.0000000   0.0000000), wk =   0.0555556
        k(    2) = (   0.0000000   0.0000000  -0.5000000), wk =   0.0555556
        k(    3) = (   0.0000000   0.3333333   0.0000000), wk =   0.3333333
        k(    4) = (   0.0000000   0.3333333  -0.5000000), wk =   0.3333333
        k(    5) = (   0.3333333   0.3333333   0.0000000), wk =   0.1111111
        k(    6) = (   0.3333333   0.3333333  -0.5000000), wk =   0.1111111

     Dense  grid:  1621723 G-vectors     FFT dimensions: ( 135, 135, 216)

     Smooth grid:   410263 G-vectors     FFT dimensions: (  90,  90, 135)

     Dynamical RAM for                 wfc:      33.45 MB

     Dynamical RAM for     wfc (w. buffer):     434.82 MB

     Dynamical RAM for           str. fact:       6.19 MB

     Dynamical RAM for           local pot:       0.00 MB

     Dynamical RAM for          nlocal pot:      91.54 MB

     Dynamical RAM for                qrad:       5.38 MB

     Dynamical RAM for          rho,v,vnew:      27.39 MB

     Dynamical RAM for               rhoin:       9.13 MB

     Dynamical RAM for            rho*nmix:      65.99 MB

     Dynamical RAM for           G-vectors:       7.99 MB

     Dynamical RAM for          h,s,v(r/c):       5.35 MB

     Dynamical RAM for          <psi|beta>:      10.99 MB

     Dynamical RAM for                 psi:      66.90 MB

     Dynamical RAM for                hpsi:      66.90 MB

     Dynamical RAM for                spsi:      66.90 MB

     Dynamical RAM for      wfcinit/wfcrot:     102.83 MB

     Dynamical RAM for           addusdens:     496.97 MB

     Dynamical RAM for          addusforce:     715.98 MB

     Estimated static dynamical RAM per process >     605.71 MB

     Estimated max dynamical RAM per process >       1.36 GB

     Estimated total dynamical RAM >      16.26 GB
     Generating pointlists ...
     new r_m :   0.0841 (alat units)  1.5349 (a.u.) for type    1
     new r_m :   0.0841 (alat units)  1.5349 (a.u.) for type    2
     new r_m :   0.0841 (alat units)  1.5349 (a.u.) for type    3

     Initial potential from superposition of free atoms

     starting charge     970.8401, renormalised to     971.0000
     Starting wfcs are  702 randomized atomic wfcs
     Checking if some PAW data can be deallocated... 
       PAW data deallocated on   11 nodes for type:  3

     total cpu time spent up to now is       51.6 secs

     Self-consistent Calculation

     iteration #  1     ecut=    50.00 Ry     beta= 0.70
     Davidson diagonalization with overlap

---- Real-time Memory Report at c_bands before calling an iterative solver
           937 MiB given to the printing process from OS
             0 MiB allocation reported by mallinfo(arena+hblkhd)
        110892 MiB available memory on the node where the printing process lives
------------------
     ethr =  1.00E-02,  avg # of iterations =  2.0

     total cpu time spent up to now is      162.5 secs

     total energy              =  -16505.05598528 Ry
     estimated scf accuracy    <      29.93112133 Ry

     total magnetization       =     1.00 Bohr mag/cell
     absolute magnetization    =     2.56 Bohr mag/cell

     iteration #  2     ecut=    50.00 Ry     beta= 0.70
     Davidson diagonalization with overlap

---- Real-time Memory Report at c_bands before calling an iterative solver
          1413 MiB given to the printing process from OS
             0 MiB allocation reported by mallinfo(arena+hblkhd)
        111682 MiB available memory on the node where the printing process lives
------------------
     ethr =  3.08E-03,  avg # of iterations =  6.2

     total cpu time spent up to now is      348.5 secs

     total energy              =  -16516.98446235 Ry
     estimated scf accuracy    <      38.41541456 Ry

     total magnetization       =     0.79 Bohr mag/cell
     absolute magnetization    =     1.46 Bohr mag/cell

     iteration #  3     ecut=    50.00 Ry     beta= 0.70
     Davidson diagonalization with overlap

---- Real-time Memory Report at c_bands before calling an iterative solver
          1534 MiB given to the printing process from OS
             0 MiB allocation reported by mallinfo(arena+hblkhd)
        110880 MiB available memory on the node where the printing process lives
------------------
     ethr =  3.08E-03,  avg # of iterations =  2.6

     total cpu time spent up to now is      476.5 secs

     total energy              =  -16524.06662254 Ry
     estimated scf accuracy    <       1.19210275 Ry

     total magnetization       =     0.96 Bohr mag/cell
     absolute magnetization    =     1.45 Bohr mag/cell

     iteration #  4     ecut=    50.00 Ry     beta= 0.70
     Davidson diagonalization with overlap

---- Real-time Memory Report at c_bands before calling an iterative solver
          1534 MiB given to the printing process from OS
             0 MiB allocation reported by mallinfo(arena+hblkhd)
        110950 MiB available memory on the node where the printing process lives
------------------
     c_bands:  2 eigenvalues not converged
     ethr =  1.23E-04,  avg # of iterations = 13.1

     total cpu time spent up to now is      747.9 secs

     total energy              =  -16525.26172400 Ry
     estimated scf accuracy    <       0.83309826 Ry

     total magnetization       =     0.41 Bohr mag/cell
     absolute magnetization    =     0.87 Bohr mag/cell

     iteration #  5     ecut=    50.00 Ry     beta= 0.70
     Davidson diagonalization with overlap

---- Real-time Memory Report at c_bands before calling an iterative solver
          1579 MiB given to the printing process from OS
             0 MiB allocation reported by mallinfo(arena+hblkhd)
        110713 MiB available memory on the node where the printing process lives
------------------
     ethr =  8.58E-05,  avg # of iterations =  3.2

     total cpu time spent up to now is      863.3 secs

     total energy              =  -16525.31334068 Ry
     estimated scf accuracy    <       0.32981497 Ry

     total magnetization       =     0.78 Bohr mag/cell
     absolute magnetization    =     1.12 Bohr mag/cell

     iteration #  6     ecut=    50.00 Ry     beta= 0.70
     Davidson diagonalization with overlap

---- Real-time Memory Report at c_bands before calling an iterative solver
          1579 MiB given to the printing process from OS
             0 MiB allocation reported by mallinfo(arena+hblkhd)
        110678 MiB available memory on the node where the printing process lives
------------------
     c_bands:  4 eigenvalues not converged
     c_bands:  2 eigenvalues not converged
     c_bands:  2 eigenvalues not converged
     c_bands:  2 eigenvalues not converged
     ethr =  3.40E-05,  avg # of iterations = 16.8

     total cpu time spent up to now is     1082.3 secs

     total energy              =  -16525.26484390 Ry
     estimated scf accuracy    <       1.13621042 Ry

     total magnetization       =     0.02 Bohr mag/cell
     absolute magnetization    =     0.37 Bohr mag/cell

     iteration #  7     ecut=    50.00 Ry     beta= 0.70
     Davidson diagonalization with overlap

---- Real-time Memory Report at c_bands before calling an iterative solver
          1622 MiB given to the printing process from OS
             0 MiB allocation reported by mallinfo(arena+hblkhd)
        110084 MiB available memory on the node where the printing process lives
------------------
     c_bands:  1 eigenvalues not converged
     c_bands:  2 eigenvalues not converged
     c_bands:  3 eigenvalues not converged
     c_bands:  1 eigenvalues not converged
     c_bands:  1 eigenvalues not converged
     c_bands:  2 eigenvalues not converged
     c_bands:  1 eigenvalues not converged
     ethr =  3.40E-05,  avg # of iterations = 17.8

     total cpu time spent up to now is     1289.4 secs

     total energy              =  -16525.34083635 Ry
     estimated scf accuracy    <       0.31744118 Ry

     total magnetization       =     0.54 Bohr mag/cell
     absolute magnetization    =     0.75 Bohr mag/cell

     iteration #  8     ecut=    50.00 Ry     beta= 0.70
     Davidson diagonalization with overlap

---- Real-time Memory Report at c_bands before calling an iterative solver
          1622 MiB given to the printing process from OS
             0 MiB allocation reported by mallinfo(arena+hblkhd)
        110236 MiB available memory on the node where the printing process lives
------------------
     c_bands:  1 eigenvalues not converged
     ethr =  3.27E-05,  avg # of iterations = 14.8

     total cpu time spent up to now is     1437.0 secs

     total energy              =  -16525.36870706 Ry
     estimated scf accuracy    <       0.02461761 Ry

     total magnetization       =     0.82 Bohr mag/cell
     absolute magnetization    =     0.98 Bohr mag/cell

     iteration #  9     ecut=    50.00 Ry     beta= 0.70
     Davidson diagonalization with overlap

---- Real-time Memory Report at c_bands before calling an iterative solver
          1666 MiB given to the printing process from OS
             0 MiB allocation reported by mallinfo(arena+hblkhd)
        109625 MiB available memory on the node where the printing process lives
------------------
     c_bands:  2 eigenvalues not converged
     c_bands:  2 eigenvalues not converged
     c_bands:  3 eigenvalues not converged
     c_bands:  2 eigenvalues not converged
     c_bands:  2 eigenvalues not converged
     c_bands:  4 eigenvalues not converged
     c_bands:  3 eigenvalues not converged
     ethr =  2.54E-06,  avg # of iterations = 17.0

     total cpu time spent up to now is     1681.3 secs

     total energy              =  -16525.37734358 Ry
     estimated scf accuracy    <       0.00614409 Ry

     total magnetization       =     0.81 Bohr mag/cell
     absolute magnetization    =     0.96 Bohr mag/cell

     iteration # 10     ecut=    50.00 Ry     beta= 0.70
     Davidson diagonalization with overlap

---- Real-time Memory Report at c_bands before calling an iterative solver
          1666 MiB given to the printing process from OS
             0 MiB allocation reported by mallinfo(arena+hblkhd)
        109724 MiB available memory on the node where the printing process lives
------------------
     c_bands:  1 eigenvalues not converged
     ethr =  6.33E-07,  avg # of iterations =  9.0

     total cpu time spent up to now is     1871.3 secs

     total energy              =  -16525.37944833 Ry
     estimated scf accuracy    <       0.00139880 Ry

     total magnetization       =     0.81 Bohr mag/cell
     absolute magnetization    =     0.95 Bohr mag/cell

     iteration # 11     ecut=    50.00 Ry     beta= 0.70
     Davidson diagonalization with overlap

---- Real-time Memory Report at c_bands before calling an iterative solver
          1671 MiB given to the printing process from OS
             0 MiB allocation reported by mallinfo(arena+hblkhd)
        110063 MiB available memory on the node where the printing process lives
------------------
     ethr =  1.44E-07,  avg # of iterations =  6.4

     total cpu time spent up to now is     2060.3 secs

     total energy              =  -16525.38001206 Ry
     estimated scf accuracy    <       0.00063220 Ry

     total magnetization       =     0.80 Bohr mag/cell
     absolute magnetization    =     0.95 Bohr mag/cell

     iteration # 12     ecut=    50.00 Ry     beta= 0.70
     Davidson diagonalization with overlap

---- Real-time Memory Report at c_bands before calling an iterative solver
          1671 MiB given to the printing process from OS
             0 MiB allocation reported by mallinfo(arena+hblkhd)
        109629 MiB available memory on the node where the printing process lives
------------------
     ethr =  6.51E-08,  avg # of iterations =  5.1

     total cpu time spent up to now is     2192.3 secs

     total energy              =  -16525.38003832 Ry
     estimated scf accuracy    <       0.00018801 Ry

     total magnetization       =     0.81 Bohr mag/cell
     absolute magnetization    =     0.95 Bohr mag/cell

     iteration # 13     ecut=    50.00 Ry     beta= 0.70
     Davidson diagonalization with overlap

---- Real-time Memory Report at c_bands before calling an iterative solver
          1678 MiB given to the printing process from OS
             0 MiB allocation reported by mallinfo(arena+hblkhd)
        109155 MiB available memory on the node where the printing process lives
------------------
     ethr =  1.94E-08,  avg # of iterations =  7.4

     total cpu time spent up to now is     2416.5 secs

     total energy              =  -16525.38013566 Ry
     estimated scf accuracy    <       0.00007227 Ry

     total magnetization       =     0.80 Bohr mag/cell
     absolute magnetization    =     0.95 Bohr mag/cell

     iteration # 14     ecut=    50.00 Ry     beta= 0.70
     Davidson diagonalization with overlap

---- Real-time Memory Report at c_bands before calling an iterative solver
          1678 MiB given to the printing process from OS
             0 MiB allocation reported by mallinfo(arena+hblkhd)
        109442 MiB available memory on the node where the printing process lives
------------------
     ethr =  7.44E-09,  avg # of iterations =  6.1

     total cpu time spent up to now is     2570.7 secs

     total energy              =  -16525.38014303 Ry
     estimated scf accuracy    <       0.00003804 Ry

     total magnetization       =     0.81 Bohr mag/cell
     absolute magnetization    =     0.95 Bohr mag/cell

     iteration # 15     ecut=    50.00 Ry     beta= 0.70
     Davidson diagonalization with overlap

---- Real-time Memory Report at c_bands before calling an iterative solver
          1685 MiB given to the printing process from OS
             0 MiB allocation reported by mallinfo(arena+hblkhd)
        109610 MiB available memory on the node where the printing process lives
------------------
     ethr =  3.92E-09,  avg # of iterations =  5.7

     total cpu time spent up to now is     2706.4 secs

     total energy              =  -16525.38014817 Ry
     estimated scf accuracy    <       0.00000878 Ry

     total magnetization       =     0.80 Bohr mag/cell
     absolute magnetization    =     0.95 Bohr mag/cell

     iteration # 16     ecut=    50.00 Ry     beta= 0.70
     Davidson diagonalization with overlap

---- Real-time Memory Report at c_bands before calling an iterative solver
          1685 MiB given to the printing process from OS
             0 MiB allocation reported by mallinfo(arena+hblkhd)
        109663 MiB available memory on the node where the printing process lives
------------------
     ethr =  9.05E-10,  avg # of iterations =  8.9

     total cpu time spent up to now is     3045.8 secs

     total energy              =  -16525.38015659 Ry
     estimated scf accuracy    <       0.00001074 Ry

     total magnetization       =     0.80 Bohr mag/cell
     absolute magnetization    =     0.95 Bohr mag/cell

     iteration # 17     ecut=    50.00 Ry     beta= 0.70
     Davidson diagonalization with overlap

---- Real-time Memory Report at c_bands before calling an iterative solver
          1685 MiB given to the printing process from OS
             0 MiB allocation reported by mallinfo(arena+hblkhd)
        109653 MiB available memory on the node where the printing process lives
------------------
     ethr =  9.05E-10,  avg # of iterations =  2.0

     total cpu time spent up to now is     3161.9 secs

     total energy              =  -16525.38015698 Ry
     estimated scf accuracy    <       0.00000285 Ry

     total magnetization       =     0.80 Bohr mag/cell
     absolute magnetization    =     0.95 Bohr mag/cell

     iteration # 18     ecut=    50.00 Ry     beta= 0.70
     Davidson diagonalization with overlap

---- Real-time Memory Report at c_bands before calling an iterative solver
          1685 MiB given to the printing process from OS
             0 MiB allocation reported by mallinfo(arena+hblkhd)
        109752 MiB available memory on the node where the printing process lives
------------------
     ethr =  2.93E-10,  avg # of iterations =  5.2

     total cpu time spent up to now is     3317.9 secs

     total energy              =  -16525.38015758 Ry
     estimated scf accuracy    <       0.00000071 Ry

     total magnetization       =     0.80 Bohr mag/cell
     absolute magnetization    =     0.95 Bohr mag/cell

     iteration # 19     ecut=    50.00 Ry     beta= 0.70
     Davidson diagonalization with overlap

---- Real-time Memory Report at c_bands before calling an iterative solver
          1685 MiB given to the printing process from OS
             0 MiB allocation reported by mallinfo(arena+hblkhd)
        109611 MiB available memory on the node where the printing process lives
------------------
     ethr =  7.31E-11,  avg # of iterations =  8.3

     total cpu time spent up to now is     3597.6 secs

     total energy              =  -16525.38015819 Ry
     estimated scf accuracy    <       0.00000008 Ry

     total magnetization       =     0.80 Bohr mag/cell
     absolute magnetization    =     0.95 Bohr mag/cell

     iteration # 20     ecut=    50.00 Ry     beta= 0.70
     Davidson diagonalization with overlap

---- Real-time Memory Report at c_bands before calling an iterative solver
          1685 MiB given to the printing process from OS
             0 MiB allocation reported by mallinfo(arena+hblkhd)
        109366 MiB available memory on the node where the printing process lives
------------------
     ethr =  7.88E-12,  avg # of iterations =  9.8

     total cpu time spent up to now is     4021.6 secs

     total energy              =  -16525.38015829 Ry
     estimated scf accuracy    <       0.00000032 Ry

     total magnetization       =     0.80 Bohr mag/cell
     absolute magnetization    =     0.95 Bohr mag/cell

     iteration # 21     ecut=    50.00 Ry     beta= 0.70
     Davidson diagonalization with overlap

---- Real-time Memory Report at c_bands before calling an iterative solver
          1685 MiB given to the printing process from OS
             0 MiB allocation reported by mallinfo(arena+hblkhd)
        109652 MiB available memory on the node where the printing process lives
------------------
     ethr =  7.88E-12,  avg # of iterations =  3.8

     total cpu time spent up to now is     4169.4 secs

     total energy              =  -16525.38015830 Ry
     estimated scf accuracy    <       0.00000008 Ry

     total magnetization       =     0.80 Bohr mag/cell
     absolute magnetization    =     0.95 Bohr mag/cell

     iteration # 22     ecut=    50.00 Ry     beta= 0.70
     Davidson diagonalization with overlap

---- Real-time Memory Report at c_bands before calling an iterative solver
          1685 MiB given to the printing process from OS
             0 MiB allocation reported by mallinfo(arena+hblkhd)
        109407 MiB available memory on the node where the printing process lives
------------------
     ethr =  7.88E-12,  avg # of iterations =  3.7

     total cpu time spent up to now is     4301.1 secs

     total energy              =  -16525.38015831 Ry
     estimated scf accuracy    <       0.00000002 Ry

     total magnetization       =     0.80 Bohr mag/cell
     absolute magnetization    =     0.95 Bohr mag/cell

     iteration # 23     ecut=    50.00 Ry     beta= 0.70
     Davidson diagonalization with overlap

---- Real-time Memory Report at c_bands before calling an iterative solver
          1685 MiB given to the printing process from OS
             0 MiB allocation reported by mallinfo(arena+hblkhd)
        109262 MiB available memory on the node where the printing process lives
------------------
     ethr =  1.58E-12,  avg # of iterations =  8.1

     total cpu time spent up to now is     4630.1 secs

     total energy              =  -16525.38015833 Ry
     estimated scf accuracy    <       0.00000002 Ry

     total magnetization       =     0.80 Bohr mag/cell
     absolute magnetization    =     0.95 Bohr mag/cell

     iteration # 24     ecut=    50.00 Ry     beta= 0.70
     Davidson diagonalization with overlap

---- Real-time Memory Report at c_bands before calling an iterative solver
          1685 MiB given to the printing process from OS
             0 MiB allocation reported by mallinfo(arena+hblkhd)
        109427 MiB available memory on the node where the printing process lives
------------------
     ethr =  1.58E-12,  avg # of iterations =  2.0

     total cpu time spent up to now is     4744.4 secs

     total energy              =  -16525.38015833 Ry
     estimated scf accuracy    <       0.00000002 Ry

     total magnetization       =     0.80 Bohr mag/cell
     absolute magnetization    =     0.95 Bohr mag/cell

     iteration # 25     ecut=    50.00 Ry     beta= 0.70
     Davidson diagonalization with overlap

---- Real-time Memory Report at c_bands before calling an iterative solver
          1685 MiB given to the printing process from OS
             0 MiB allocation reported by mallinfo(arena+hblkhd)
        109832 MiB available memory on the node where the printing process lives
------------------
     ethr =  1.55E-12,  avg # of iterations =  1.2
 
     Magnetic moment per site  (integrated on atomic sphere of radius R)
     atom   1 (R=0.084)  charge= 10.0917  magn=  0.0015
     atom   2 (R=0.084)  charge= 10.0892  magn=  0.0090
     atom   3 (R=0.084)  charge=  2.9904  magn=  0.1762
     atom   4 (R=0.084)  charge=  4.2566  magn=  0.0144
     atom   5 (R=0.084)  charge= 10.0769  magn=  0.0001
     atom   6 (R=0.084)  charge= 10.0776  magn=  0.0019
     atom   7 (R=0.084)  charge=  4.2524  magn=  0.0399
     atom   8 (R=0.084)  charge=  4.2570  magn=  0.0068
     atom   9 (R=0.084)  charge= 10.0769  magn=  0.0001
     atom  10 (R=0.084)  charge= 10.0892  magn=  0.0090
     atom  11 (R=0.084)  charge=  4.2524  magn=  0.0399
     atom  12 (R=0.084)  charge=  4.2566  magn=  0.0144
     atom  13 (R=0.084)  charge= 10.0769  magn=  0.0001
     atom  14 (R=0.084)  charge= 10.0892  magn=  0.0090
     atom  15 (R=0.084)  charge=  4.2524  magn=  0.0399
     atom  16 (R=0.084)  charge=  4.2566  magn=  0.0144
     atom  17 (R=0.084)  charge= 10.0769  magn=  0.0001
     atom  18 (R=0.084)  charge= 10.0767  magn=  0.0002
     atom  19 (R=0.084)  charge=  4.2524  magn=  0.0399
     atom  20 (R=0.084)  charge=  4.2578  magn=  0.0013
     atom  21 (R=0.084)  charge= 10.0775  magn=  0.0000
     atom  22 (R=0.084)  charge= 10.0767  magn=  0.0002
     atom  23 (R=0.084)  charge=  4.2566  magn=  0.0088
     atom  24 (R=0.084)  charge=  4.2578  magn=  0.0013
     atom  25 (R=0.084)  charge= 10.0769  magn=  0.0001
     atom  26 (R=0.084)  charge= 10.0776  magn=  0.0019
     atom  27 (R=0.084)  charge=  4.2524  magn=  0.0399
     atom  28 (R=0.084)  charge=  4.2570  magn=  0.0068
     atom  29 (R=0.084)  charge= 10.0772  magn=  0.0001
     atom  30 (R=0.084)  charge= 10.0776  magn=  0.0019
     atom  31 (R=0.084)  charge=  4.2567  magn=  0.0077
     atom  32 (R=0.084)  charge=  4.2570  magn=  0.0068
     atom  33 (R=0.084)  charge= 10.0769  magn=  0.0001
     atom  34 (R=0.084)  charge= 10.0767  magn=  0.0002
     atom  35 (R=0.084)  charge=  4.2524  magn=  0.0399
     atom  36 (R=0.084)  charge=  4.2578  magn=  0.0013
     atom  37 (R=0.084)  charge= 10.0757  magn=  0.0009
     atom  38 (R=0.084)  charge= 10.0772  magn=  0.0001
     atom  39 (R=0.084)  charge=  4.2579  magn=  0.0013
     atom  40 (R=0.084)  charge=  4.2582  magn=  0.0002
     atom  41 (R=0.084)  charge= 10.0774  magn=  0.0004
     atom  42 (R=0.084)  charge= 10.0773  magn=  0.0001
     atom  43 (R=0.084)  charge=  4.2581  magn=  0.0012
     atom  44 (R=0.084)  charge=  4.2582  magn=  0.0004
     atom  45 (R=0.084)  charge= 10.0774  magn=  0.0004
     atom  46 (R=0.084)  charge= 10.0772  magn=  0.0001
     atom  47 (R=0.084)  charge=  4.2581  magn=  0.0012
     atom  48 (R=0.084)  charge=  4.2582  magn=  0.0002
     atom  49 (R=0.084)  charge= 10.0774  magn=  0.0004
     atom  50 (R=0.084)  charge= 10.0772  magn=  0.0001
     atom  51 (R=0.084)  charge=  4.2581  magn=  0.0012
     atom  52 (R=0.084)  charge=  4.2582  magn=  0.0002
     atom  53 (R=0.084)  charge= 10.0774  magn=  0.0004
     atom  54 (R=0.084)  charge= 10.0774  magn=  0.0000
     atom  55 (R=0.084)  charge=  4.2581  magn=  0.0012
     atom  56 (R=0.084)  charge=  4.2583  magn=  0.0001
     atom  57 (R=0.084)  charge= 10.0775  magn=  0.0000
     atom  58 (R=0.084)  charge= 10.0774  magn=  0.0000
     atom  59 (R=0.084)  charge=  4.2582  magn=  0.0004
     atom  60 (R=0.084)  charge=  4.2583  magn=  0.0001
     atom  61 (R=0.084)  charge= 10.0774  magn=  0.0004
     atom  62 (R=0.084)  charge= 10.0773  magn=  0.0001
     atom  63 (R=0.084)  charge=  4.2581  magn=  0.0012
     atom  64 (R=0.084)  charge=  4.2582  magn=  0.0004
     atom  65 (R=0.084)  charge= 10.0772  magn=  0.0001
     atom  66 (R=0.084)  charge= 10.0773  magn=  0.0001
     atom  67 (R=0.084)  charge=  4.2582  magn=  0.0002
     atom  68 (R=0.084)  charge=  4.2582  magn=  0.0004
     atom  69 (R=0.084)  charge= 10.0774  magn=  0.0004
     atom  70 (R=0.084)  charge= 10.0774  magn=  0.0000
     atom  71 (R=0.084)  charge=  4.2581  magn=  0.0012
     atom  72 (R=0.084)  charge=  4.2583  magn=  0.0001
     atom  73 (R=0.084)  charge= 10.0774  magn= -0.0000
     atom  74 (R=0.084)  charge= 10.0779  magn=  0.0001
     atom  75 (R=0.084)  charge=  4.2577  magn=  0.0015
     atom  76 (R=0.084)  charge=  4.2563  magn=  0.0141
     atom  77 (R=0.084)  charge= 10.0774  magn=  0.0000
     atom  78 (R=0.084)  charge= 10.0772  magn=  0.0000
     atom  79 (R=0.084)  charge=  4.2581  magn=  0.0011
     atom  80 (R=0.084)  charge=  4.2569  magn=  0.0073
     atom  81 (R=0.084)  charge= 10.0774  magn=  0.0000
     atom  82 (R=0.084)  charge= 10.0779  magn=  0.0001
     atom  83 (R=0.084)  charge=  4.2581  magn=  0.0011
     atom  84 (R=0.084)  charge=  4.2563  magn=  0.0141
     atom  85 (R=0.084)  charge= 10.0774  magn=  0.0000
     atom  86 (R=0.084)  charge= 10.0779  magn=  0.0001
     atom  87 (R=0.084)  charge=  4.2581  magn=  0.0011
     atom  88 (R=0.084)  charge=  4.2563  magn=  0.0141
     atom  89 (R=0.084)  charge= 10.0774  magn=  0.0000
     atom  90 (R=0.084)  charge= 10.0773  magn= -0.0000
     atom  91 (R=0.084)  charge=  4.2581  magn=  0.0011
     atom  92 (R=0.084)  charge=  4.2578  magn=  0.0015
     atom  93 (R=0.084)  charge= 10.0773  magn=  0.0000
     atom  94 (R=0.084)  charge= 10.0773  magn= -0.0000
     atom  95 (R=0.084)  charge=  4.2582  magn=  0.0004
     atom  96 (R=0.084)  charge=  4.2578  magn=  0.0015
     atom  97 (R=0.084)  charge= 10.0774  magn=  0.0000
     atom  98 (R=0.084)  charge= 10.0772  magn=  0.0000
     atom  99 (R=0.084)  charge=  4.2581  magn=  0.0011
     atom 100 (R=0.084)  charge=  4.2569  magn=  0.0073
     atom 101 (R=0.084)  charge= 10.0773  magn=  0.0000
     atom 102 (R=0.084)  charge= 10.0772  magn=  0.0000
     atom 103 (R=0.084)  charge=  4.2582  magn=  0.0003
     atom 104 (R=0.084)  charge=  4.2569  magn=  0.0073
     atom 105 (R=0.084)  charge= 10.0774  magn=  0.0000
     atom 106 (R=0.084)  charge= 10.0773  magn= -0.0000
     atom 107 (R=0.084)  charge=  4.2581  magn=  0.0011
     atom 108 (R=0.084)  charge=  4.2578  magn=  0.0015

     total cpu time spent up to now is     4842.2 secs

     End of self-consistent calculation

 ------ SPIN UP ------------


          k = 0.0000 0.0000 0.0000 ( 51313 PWs)   bands (ev):

    -6.4764  -6.2086  -6.2058  -5.8587  -5.8504  -5.8504  -5.8334  -5.8334
    -5.8029  -5.7965  -5.7923  -5.7396  -5.7288  -5.7288  -5.7284  -5.7284
    -5.7281  -5.7259  -5.7259  -5.6981  -5.6981  -5.6906  -5.6818  -5.6662
    -5.6091  -5.6017  -5.6017  -5.5918  -5.5918  -5.5903  -5.5894  -5.5886
    -5.5867  -5.5867  -5.5740  -5.5740  -5.5656  -5.5656  -5.5645  -5.5600
    -5.5584  -5.5584  -5.5529  -5.5503  -5.5455  -5.5455  -5.5430  -5.5329
    -5.5302  -5.5177  -5.5177  -5.4888  -5.4888  -4.2648  -4.2146  -4.2073
    -4.2073  -4.1971  -4.1971  -4.1906  -4.1906  -4.1843  -4.1843  -4.1768
    -4.1768  -4.1753  -4.1666  -4.1666  -4.1659  -4.1587  -4.1587  -4.1550
    -4.1550  -4.1510  -4.1486  -4.1486  -4.1480  -4.1478  -4.1478  -4.1467
    -4.1467  -4.1443  -4.1435  -4.1435  -4.1423  -4.1404  -4.1404  -4.1366
    -4.1366  -4.1341  -4.1338  -4.1338  -4.1293  -4.1293  -4.1187  -4.1137
    -4.1137  -4.1115  -4.1115  -4.1106  -4.1102  -4.1089  -4.1086  -4.1086
    -4.1073  -4.1073  -4.1051  -4.1051  -4.1050  -4.1021  -4.0995  -4.0980
    -4.0980  -4.0970  -4.0970  -4.0923  -4.0833  -4.0812  -4.0776  -4.0776
    -4.0757  -4.0751  -4.0685  -4.0685  -4.0681  -4.0654  -4.0649  -4.0649
    -4.0597  -4.0558  -4.0558  -4.0478  -4.0477  -4.0477  -4.0421  -4.0421
    -4.0397  -4.0386  -4.0386  -4.0357  -4.0357  -4.0347  -4.0266  -4.0255
    -4.0255  -4.0243  -4.0243  -4.0211  -4.0171  -4.0171  -4.0163  -4.0132
    -4.0117  -4.0117  -4.0091  -4.0091  -4.0074  -4.0073  -4.0073  -4.0067
    -4.0059  -4.0021  -4.0012  -4.0012  -3.9972  -3.9972  -3.9961  -3.9961
    -3.9953  -3.9933  -3.9933  -3.9926  -3.9898  -3.9898  -3.9867  -3.9852
    -3.9851  -3.9851  -3.9819  -3.9819  -3.9789  -3.9781  -3.9781  -3.9696
    -3.9696  -3.9672  -3.9672  -3.9661  -3.9627  -3.9621  -3.9621  -3.9611
    -3.9594  -3.9594  -3.9588  -3.9583  -3.9583  -3.9562  -3.9561  -3.9561
    -3.9542  -3.9542  -3.9527  -3.9469  -3.9469  -3.9453  -3.9447  -3.9447
    -3.9411  -3.9411  -3.9401  -3.9401  -3.9363  -3.9363  -3.9340  -3.9340
    -3.9319  -3.9268  -3.9268  -3.9267  -3.9251  -3.9228  -3.9228  -3.9216
    -3.9216  -3.9196  -3.9178  -3.9158  -3.9151  -3.9151  -3.9074  -3.9074
    -3.9053  -3.9040  -3.9040  -3.9015  -3.9011  -3.9011  -3.8988  -3.8988
    -3.8960  -3.8960  -3.8940  -3.8881  -3.8881  -3.8870  -3.8835  -3.8835
    -3.8791  -3.8781  -3.8781  -3.8756  -3.8756  -3.8681  -3.8664  -3.8664
    -3.8660  -3.8655  -3.8655  -3.8485  -3.8454  -3.8454  -3.8101  -3.7767
    -3.7767  -3.7586  -3.7586  -3.7222  -3.7222  -3.7196  -3.6971  -3.5740
    -3.5740  -3.5301  -3.5069  -3.5069  -3.4926  -3.4926  -3.4715  -3.3977
    -3.3902  -3.3230  -3.3130  -3.3101  -3.3101  -3.3019  -3.3019  -3.2920
    -3.2920  -3.2761  -3.2623  -3.2623  -3.1296  -2.6479  -2.6374  -2.6370
    -2.6331  -2.6331  -2.6323  -2.6323  -2.6184  -2.6184  -2.6005  -2.6005
    -2.5947  -2.4747  -2.2211  -2.2051  -2.2051  -2.2050  -2.2034  -2.1987
    -2.1987  -2.1932  -2.1922  -2.1784  -2.1784  -2.1379  -2.1137  -2.1079
    -2.1079  -2.0764  -2.0764  -0.1975   2.3926   3.3626   3.3626   3.3691
     3.3722   3.3751   3.3771   3.3771   3.3829   3.4018   3.4091   3.4091
     3.4418   3.4418   3.4573   3.5055   3.5060   3.5060   3.5085   3.5186
     3.5186   3.5230   3.5230   3.5830   3.5830   3.6036   3.6437   3.9926
     3.9970   4.0019   4.0019   4.0304   4.0411   4.1734   4.1734   4.3690
     4.3693   4.3693   4.3724   4.3865   4.3865   4.3888   4.3888   4.4304
     4.4304   4.4377   4.4843   4.5146   4.5146   4.5460   4.5460   4.5759
     4.6668   4.6668   4.6920   4.7010   4.7010   5.3948   5.3948   5.4017
     5.4319   5.4319   5.5236   5.8544   5.8544   5.8659   5.8659   6.1481
     6.1528   6.1560   6.1560   6.1609   6.1609   6.1701   6.1701   6.2093
     6.2093   6.2114   6.2566   6.3670   6.3891   6.3891   6.4891   6.6364
     6.6364   6.9424   6.9470   6.9470   6.9655   6.9878   7.0169   7.0169
     7.0269   7.2872   7.2896   7.2896   7.2999   7.3018   7.3077   7.3077
     7.3268   7.3268   7.3304   7.4198   7.4198   7.4579   7.4848   7.4873
     7.4873   7.4912   7.5186   7.5186   7.5587   7.9513   7.9606   7.9606
     7.9615   7.9646   7.9646   7.9708   7.9708   8.0046   8.0068   8.0068
     8.0214   8.0269   8.0285   8.0285   8.0495   8.0495   8.0601   8.0637
     8.0637   8.0744   8.0783   8.0844   8.0844   8.1044   8.1044   8.1091
     8.1903   8.1903   8.3152   8.3152   8.5005   8.5005   8.5040   8.5040
     8.5112   8.5163   8.5163   8.5312   8.7323   8.7527   8.7527   9.0017
     9.0017   9.1314   9.1314   9.3476   9.3946   9.3946  11.0137  12.6851
    12.7045  13.3336  13.4624  13.4702  13.5361  13.5388  13.5388  13.5473
    13.5473  13.5482  13.5530  13.5530  13.5704  13.5704  13.5848  13.7488
    13.9471  13.9506  13.9506  13.9959  13.9959  14.2050  14.4527  14.4527
    14.6859

     occupation numbers 
     1.0000   1.0000   1.0000   1.0000   1.0000   1.0000   1.0000   1.0000
     1.0000   1.0000   1.0000   1.0000   1.0000   1.0000   1.0000   1.0000
     1.0000   1.0000   1.0000   1.0000   1.0000   1.0000   1.0000   1.0000
     1.0000   1.0000   1.0000   1.0000   1.0000   1.0000   1.0000   1.0000
     1.0000   1.0000   1.0000   1.0000   1.0000   1.0000   1.0000   1.0000
     1.0000   1.0000   1.0000   1.0000   1.0000   1.0000   1.0000   1.0000
     1.0000   1.0000   1.0000   1.0000   1.0000   1.0000   1.0000   1.0000
     1.0000   1.0000   1.0000   1.0000   1.0000   1.0000   1.0000   1.0000
     1.0000   1.0000   1.0000   1.0000   1.0000   1.0000   1.0000   1.0000
     1.0000   1.0000   1.0000   1.0000   1.0000   1.0000   1.0000   1.0000
     1.0000   1.0000   1.0000   1.0000   1.0000   1.0000   1.0000   1.0000
     1.0000   1.0000   1.0000   1.0000   1.0000   1.0000   1.0000   1.0000
     1.0000   1.0000   1.0000   1.0000   1.0000   1.0000   1.0000   1.0000
     1.0000   1.0000   1.0000   1.0000   1.0000   1.0000   1.0000   1.0000
     1.0000   1.0000   1.0000   1.0000   1.0000   1.0000   1.0000   1.0000
     1.0000   1.0000   1.0000   1.0000   1.0000   1.0000   1.0000   1.0000
     1.0000   1.0000   1.0000   1.0000   1.0000   1.0000   1.0000   1.0000
     1.0000   1.0000   1.0000   1.0000   1.0000   1.0000   1.0000   1.0000
     1.0000   1.0000   1.0000   1.0000   1.0000   1.0000   1.0000   1.0000
     1.0000   1.0000   1.0000   1.0000   1.0000   1.0000   1.0000   1.0000
     1.0000   1.0000   1.0000   1.0000   1.0000   1.0000   1.0000   1.0000
     1.0000   1.0000   1.0000   1.0000   1.0000   1.0000   1.0000   1.0000
     1.0000   1.0000   1.0000   1.0000   1.0000   1.0000   1.0000   1.0000
     1.0000   1.0000   1.0000   1.0000   1.0000   1.0000   1.0000   1.0000
     1.0000   1.0000   1.0000   1.0000   1.0000   1.0000   1.0000   1.0000
     1.0000   1.0000   1.0000   1.0000   1.0000   1.0000   1.0000   1.0000
     1.0000   1.0000   1.0000   1.0000   1.0000   1.0000   1.0000   1.0000
     1.0000   1.0000   1.0000   1.0000   1.0000   1.0000   1.0000   1.0000
     1.0000   1.0000   1.0000   1.0000   1.0000   1.0000   1.0000   1.0000
     1.0000   1.0000   1.0000   1.0000   1.0000   1.0000   1.0000   1.0000
     1.0000   1.0000   1.0000   1.0000   1.0000   1.0000   1.0000   1.0000
     1.0000   1.0000   1.0000   1.0000   1.0000   1.0000   1.0000   1.0000
     1.0000   1.0000   1.0000   1.0000   1.0000   1.0000   1.0000   1.0000
     1.0000   1.0000   1.0000   1.0000   1.0000   1.0000   1.0000   1.0000
     1.0000   1.0000   1.0000   1.0000   1.0000   1.0000   1.0000   1.0000
     1.0000   1.0000   1.0000   1.0000   1.0000   1.0000   1.0000   1.0000
     1.0000   1.0000   1.0000   1.0000   1.0000   1.0000   1.0000   1.0000
     1.0000   1.0000   1.0000   1.0000   1.0000   1.0000   1.0000   1.0000
     1.0000   1.0000   1.0000   1.0000   1.0000   1.0000   1.0000   1.0000
     1.0000   1.0000   1.0000   1.0000   1.0000   1.0000   1.0000   1.0000
     1.0000   1.0000   1.0000   1.0000   1.0000   1.0000   1.0000   1.0000
     1.0000   1.0000   1.0000   1.0000   1.0000   1.0000   1.0000   1.0000
     1.0000   1.0000   1.0000   1.0000   1.0000   1.0000   1.0000   1.0000
     1.0000   1.0000   1.0000   1.0000   1.0000   1.0000   1.0000   1.0000
     1.0000   1.0000   1.0000   1.0000   1.0000   1.0000   1.0000   1.0000
     1.0000   1.0000   1.0000   1.0000   1.0000   1.0000   1.0000   1.0000
     1.0000   1.0000   1.0000   1.0000   1.0000   1.0000   1.0000   1.0000
     1.0000   1.0000   1.0000   1.0000   1.0000   1.0000   1.0000   1.0000
     1.0000   1.0000   1.0000   1.0000   1.0000   1.0000   1.0000   1.0000
     1.0000   1.0000   1.0000   1.0000   1.0000   1.0000   1.0000   1.0000
     1.0000   1.0000   1.0000   1.0000   1.0000   1.0000   1.0000   1.0000
     1.0000   1.0000   1.0000   1.0000   1.0000   1.0000   1.0000   1.0000
     1.0000   1.0000   1.0000   1.0000   1.0000   1.0000   1.0000   1.0000
     1.0000   1.0000   1.0000   1.0000   1.0000   1.0000   1.0000   1.0000
     1.0000   1.0000   1.0000   1.0000   1.0000   1.0000   1.0000   1.0000
     1.0000   1.0000   1.0000   1.0000   1.0000   1.0000   1.0000   1.0000
     1.0000   1.0000   1.0000   1.0000   1.0000   1.0000   1.0000   1.0000
     1.0000   1.0000   1.0000   1.0000   1.0000   1.0000   1.0000   1.0000
     1.0000   1.0000   1.0000   1.0000   1.0000   1.0000   1.0000   1.0000
     1.0000   1.0000   1.0000   1.0000   1.0000   1.0000   1.0000   1.0000
     1.0000   1.0000   1.0000   0.9866   0.4102   0.4102   0.0000   0.0000
     0.0000   0.0000   0.0000   0.0000   0.0000   0.0000   0.0000   0.0000
     0.0000   0.0000   0.0000   0.0000   0.0000   0.0000   0.0000   0.0000
     0.0000   0.0000   0.0000   0.0000   0.0000   0.0000   0.0000   0.0000
     0.0000

          k = 0.0000 0.0000-0.3067 ( 51390 PWs)   bands (ev):

    -6.4060  -6.3983  -5.9771  -5.9701  -5.8368  -5.8260  -5.8260  -5.8065
    -5.8065  -5.8047  -5.8008  -5.8008  -5.7899  -5.7899  -5.7881  -5.7271
    -5.7142  -5.6995  -5.6565  -5.6459  -5.6459  -5.6429  -5.6417  -5.6417
    -5.6391  -5.6391  -5.6245  -5.6149  -5.6149  -5.6023  -5.5884  -5.5857
    -5.5853  -5.5853  -5.5741  -5.5741  -5.5633  -5.5623  -5.5623  -5.5607
    -5.5568  -5.5568  -5.5568  -5.5558  -5.5465  -5.5465  -5.5422  -5.5294
    -5.5282  -5.5173  -5.5173  -5.4883  -5.4883  -4.2648  -4.2064  -4.2064
    -4.2008  -4.1918  -4.1918  -4.1882  -4.1882  -4.1824  -4.1805  -4.1805
    -4.1767  -4.1767  -4.1756  -4.1756  -4.1710  -4.1710  -4.1710  -4.1621
    -4.1565  -4.1565  -4.1497  -4.1497  -4.1494  -4.1465  -4.1465  -4.1454
    -4.1440  -4.1440  -4.1432  -4.1432  -4.1427  -4.1407  -4.1405  -4.1405
    -4.1363  -4.1363  -4.1351  -4.1351  -4.1302  -4.1286  -4.1286  -4.1259
    -4.1248  -4.1248  -4.1211  -4.1211  -4.1209  -4.1168  -4.1154  -4.1140
    -4.1140  -4.1021  -4.0926  -4.0926  -4.0890  -4.0861  -4.0838  -4.0838
    -4.0800  -4.0788  -4.0788  -4.0771  -4.0771  -4.0738  -4.0738  -4.0726
    -4.0714  -4.0714  -4.0699  -4.0699  -4.0692  -4.0692  -4.0683  -4.0657
    -4.0632  -4.0632  -4.0597  -4.0592  -4.0548  -4.0548  -4.0527  -4.0455
    -4.0449  -4.0402  -4.0402  -4.0378  -4.0325  -4.0325  -4.0296  -4.0296
    -4.0279  -4.0258  -4.0258  -4.0254  -4.0194  -4.0194  -4.0150  -4.0105
    -4.0105  -4.0098  -4.0097  -4.0097  -4.0072  -4.0072  -4.0062  -4.0045
    -4.0045  -4.0037  -4.0010  -4.0010  -4.0005  -3.9976  -3.9976  -3.9976
    -3.9910  -3.9910  -3.9862  -3.9846  -3.9841  -3.9841  -3.9807  -3.9795
    -3.9795  -3.9778  -3.9778  -3.9768  -3.9762  -3.9762  -3.9672  -3.9672
    -3.9652  -3.9652  -3.9643  -3.9642  -3.9642  -3.9630  -3.9619  -3.9619
    -3.9608  -3.9607  -3.9603  -3.9603  -3.9578  -3.9578  -3.9569  -3.9550
    -3.9550  -3.9539  -3.9498  -3.9498  -3.9481  -3.9456  -3.9456  -3.9407
    -3.9407  -3.9375  -3.9375  -3.9350  -3.9350  -3.9344  -3.9318  -3.9306
    -3.9306  -3.9252  -3.9235  -3.9227  -3.9227  -3.9222  -3.9215  -3.9215
    -3.9186  -3.9171  -3.9171  -3.9165  -3.9165  -3.9103  -3.9100  -3.9100
    -3.9091  -3.9091  -3.9051  -3.9051  -3.9013  -3.9003  -3.8983  -3.8983
    -3.8947  -3.8947  -3.8845  -3.8845  -3.8835  -3.8823  -3.8823  -3.8801
    -3.8801  -3.8775  -3.8773  -3.8773  -3.8713  -3.8659  -3.8659  -3.8659
    -3.8659  -3.8642  -3.8546  -3.8489  -3.8455  -3.8455  -3.8096  -3.7926
    -3.7768  -3.7768  -3.7586  -3.7586  -3.7223  -3.7223  -3.7196  -3.6809
    -3.5732  -3.5732  -3.4890  -3.4704  -3.4680  -3.4680  -3.4591  -3.4591
    -3.4541  -3.4525  -3.4525  -3.4237  -3.4237  -3.3488  -3.0354  -3.0259
    -3.0259  -3.0248  -3.0160  -3.0160  -3.0061  -3.0061  -2.9870  -2.9766
    -2.9766  -2.9144  -2.8831  -2.7850  -2.2881  -2.2764  -2.2763  -2.2615
    -2.2576  -2.2576  -2.2565  -2.2565  -2.2492  -2.2489  -2.2489  -2.2408
    -2.2211  -2.2043  -2.2036  -2.2004  -2.2004  -2.1921  -2.1921  -2.1904
    -2.1904  -2.1611  -2.1611  -0.2020   2.8629   2.8664   3.2209   3.2237
     3.2237   3.2285   3.3706   3.3783   3.3783   3.3854   3.3904   3.3904
     3.4001   3.4001   3.4248   3.4249   3.4249   3.4990   3.7424   3.7448
     3.7448   3.7452   3.7474   3.7532   3.7532   3.7697   3.8616   3.8616
     3.8631   3.8661   3.8764   3.8764   3.8853   3.8853   3.9475   3.9475
     3.9760   4.0401   4.2968   4.2968   4.3143   4.3143   4.7133   4.7133
     4.7215   4.7316   4.7316   4.7348   4.7387   4.7387   4.7678   4.7823
     4.7823   4.9117   5.2182   5.2182   5.2249   5.2249   5.3621   5.3621
     5.3755   5.3787   5.3787   5.3805   5.3863   5.3863   5.3965   5.4176
     5.4384   5.4384   5.5185   5.5917   6.4021   6.4021   6.4153   6.4153
     6.7521   6.7774   6.7784   6.7784   6.7855   6.7881   6.7881   6.8539
     7.0175   7.0248   7.0248   7.0499   7.0535   7.0544   7.0544   7.0620
     7.0620   7.0647   7.1493   7.1493   7.2081   7.2119   7.2119   7.2129
     7.2222   7.2222   7.2237   7.2237   7.2772   7.2957   7.2957   7.4180
     7.6636   7.6638   7.6638   7.6700   7.6706   7.6799   7.6799   7.7027
     7.7027   7.7078   7.7893   7.7893   7.8137   7.8675   7.8675   7.8703
     8.0951   8.1012   8.1012   8.1182   8.1234   8.1234   8.1360   8.1360
     8.1361   8.1449   8.1449   8.3169   8.3231   8.3231   8.3315   8.3315
     8.3689   8.3781   8.3781   8.3986   8.4071   8.4082   8.4082   8.4168
     8.4168   8.4195   8.4234   8.6005   8.6005   8.7482   8.7482   8.9187
     8.9187   8.9573   9.1919   9.1919   9.3795   9.3795  11.6880  11.7428
    13.3219  13.3248  13.3767  13.4089  13.6656  13.6718  13.6718  13.6850
    13.6851  13.6872  13.6901  13.6938  13.6938  13.7281  13.7281  13.8460
    14.0040  14.0048  14.0059  14.0098  14.0134  14.0209  14.0271  14.0318
    14.0396

     occupation numbers 
     1.0000   1.0000   1.0000   1.0000   1.0000   1.0000   1.0000   1.0000
     1.0000   1.0000   1.0000   1.0000   1.0000   1.0000   1.0000   1.0000
     1.0000   1.0000   1.0000   1.0000   1.0000   1.0000   1.0000   1.0000
     1.0000   1.0000   1.0000   1.0000   1.0000   1.0000   1.0000   1.0000
     1.0000   1.0000   1.0000   1.0000   1.0000   1.0000   1.0000   1.0000
     1.0000   1.0000   1.0000   1.0000   1.0000   1.0000   1.0000   1.0000
     1.0000   1.0000   1.0000   1.0000   1.0000   1.0000   1.0000   1.0000
     1.0000   1.0000   1.0000   1.0000   1.0000   1.0000   1.0000   1.0000
     1.0000   1.0000   1.0000   1.0000   1.0000   1.0000   1.0000   1.0000
     1.0000   1.0000   1.0000   1.0000   1.0000   1.0000   1.0000   1.0000
     1.0000   1.0000   1.0000   1.0000   1.0000   1.0000   1.0000   1.0000
     1.0000   1.0000   1.0000   1.0000   1.0000   1.0000   1.0000   1.0000
     1.0000   1.0000   1.0000   1.0000   1.0000   1.0000   1.0000   1.0000
     1.0000   1.0000   1.0000   1.0000   1.0000   1.0000   1.0000   1.0000
     1.0000   1.0000   1.0000   1.0000   1.0000   1.0000   1.0000   1.0000
     1.0000   1.0000   1.0000   1.0000   1.0000   1.0000   1.0000   1.0000
     1.0000   1.0000   1.0000   1.0000   1.0000   1.0000   1.0000   1.0000
     1.0000   1.0000   1.0000   1.0000   1.0000   1.0000   1.0000   1.0000
     1.0000   1.0000   1.0000   1.0000   1.0000   1.0000   1.0000   1.0000
     1.0000   1.0000   1.0000   1.0000   1.0000   1.0000   1.0000   1.0000
     1.0000   1.0000   1.0000   1.0000   1.0000   1.0000   1.0000   1.0000
     1.0000   1.0000   1.0000   1.0000   1.0000   1.0000   1.0000   1.0000
     1.0000   1.0000   1.0000   1.0000   1.0000   1.0000   1.0000   1.0000
     1.0000   1.0000   1.0000   1.0000   1.0000   1.0000   1.0000   1.0000
     1.0000   1.0000   1.0000   1.0000   1.0000   1.0000   1.0000   1.0000
     1.0000   1.0000   1.0000   1.0000   1.0000   1.0000   1.0000   1.0000
     1.0000   1.0000   1.0000   1.0000   1.0000   1.0000   1.0000   1.0000
     1.0000   1.0000   1.0000   1.0000   1.0000   1.0000   1.0000   1.0000
     1.0000   1.0000   1.0000   1.0000   1.0000   1.0000   1.0000   1.0000
     1.0000   1.0000   1.0000   1.0000   1.0000   1.0000   1.0000   1.0000
     1.0000   1.0000   1.0000   1.0000   1.0000   1.0000   1.0000   1.0000
     1.0000   1.0000   1.0000   1.0000   1.0000   1.0000   1.0000   1.0000
     1.0000   1.0000   1.0000   1.0000   1.0000   1.0000   1.0000   1.0000
     1.0000   1.0000   1.0000   1.0000   1.0000   1.0000   1.0000   1.0000
     1.0000   1.0000   1.0000   1.0000   1.0000   1.0000   1.0000   1.0000
     1.0000   1.0000   1.0000   1.0000   1.0000   1.0000   1.0000   1.0000
     1.0000   1.0000   1.0000   1.0000   1.0000   1.0000   1.0000   1.0000
     1.0000   1.0000   1.0000   1.0000   1.0000   1.0000   1.0000   1.0000
     1.0000   1.0000   1.0000   1.0000   1.0000   1.0000   1.0000   1.0000
     1.0000   1.0000   1.0000   1.0000   1.0000   1.0000   1.0000   1.0000
     1.0000   1.0000   1.0000   1.0000   1.0000   1.0000   1.0000   1.0000
     1.0000   1.0000   1.0000   1.0000   1.0000   1.0000   1.0000   1.0000
     1.0000   1.0000   1.0000   1.0000   1.0000   1.0000   1.0000   1.0000
     1.0000   1.0000   1.0000   1.0000   1.0000   1.0000   1.0000   1.0000
     1.0000   1.0000   1.0000   1.0000   1.0000   1.0000   1.0000   1.0000
     1.0000   1.0000   1.0000   1.0000   1.0000   1.0000   1.0000   1.0000
     1.0000   1.0000   1.0000   1.0000   1.0000   1.0000   1.0000   1.0000
     1.0000   1.0000   1.0000   1.0000   1.0000   1.0000   1.0000   1.0000
     1.0000   1.0000   1.0000   1.0000   1.0000   1.0000   1.0000   1.0000
     1.0000   1.0000   1.0000   1.0000   1.0000   1.0000   1.0000   1.0000
     1.0000   1.0000   1.0000   1.0000   1.0000   1.0000   1.0000   1.0000
     1.0000   1.0000   1.0000   1.0000   1.0000   1.0000   1.0000   1.0000
     1.0000   1.0000   1.0000   1.0000   1.0000   1.0000   1.0000   1.0000
     1.0000   1.0000   1.0000   1.0000   1.0000   1.0000   1.0000   1.0000
     1.0000   1.0000   1.0000   1.0000   1.0000   1.0000   1.0000   1.0000
     1.0000   1.0000   1.0000   1.0000   1.0000   1.0000   1.0000   1.0000
     1.0000   1.0000   1.0000   1.0000   1.0000   1.0000   1.0000   1.0000
     1.0000   1.0000   1.0000   1.0000   1.0000   1.0000   1.0000   1.0000
     1.0000   1.0000   1.0000   1.0000   1.0000   1.0000   1.0000   1.0000
     1.0000   1.0000   1.0000   1.0000   1.0000   1.0000   1.0000   1.0000
     1.0000   1.0000   1.0000   1.0000   0.7112   0.7112   0.0000   0.0000
     0.0000   0.0000   0.0000   0.0000   0.0000   0.0000   0.0000   0.0000
     0.0000   0.0000   0.0000   0.0000   0.0000   0.0000   0.0000   0.0000
     0.0000   0.0000   0.0000   0.0000   0.0000   0.0000   0.0000   0.0000
     0.0000

          k = 0.0000 0.3849 0.0000 ( 51300 PWs)   bands (ev):

    -6.3678  -6.1289  -6.1155  -6.0917  -5.9272  -5.9208  -5.9043  -5.8874
    -5.7839  -5.7759  -5.7698  -5.7677  -5.7564  -5.7423  -5.7322  -5.7258
    -5.6967  -5.6677  -5.6561  -5.6547  -5.6543  -5.6517  -5.6414  -5.6412
    -5.6396  -5.6394  -5.6166  -5.6155  -5.6091  -5.6073  -5.6010  -5.5975
    -5.5932  -5.5875  -5.5785  -5.5741  -5.5717  -5.5706  -5.5692  -5.5665
    -5.5634  -5.5518  -5.5460  -5.5437  -5.5422  -5.5387  -5.5361  -5.5340
    -5.5259  -5.5166  -5.5158  -5.4884  -5.4872  -4.2604  -4.2060  -4.1981
    -4.1933  -4.1872  -4.1871  -4.1820  -4.1785  -4.1742  -4.1709  -4.1687
    -4.1667  -4.1662  -4.1638  -4.1619  -4.1602  -4.1575  -4.1555  -4.1531
    -4.1522  -4.1509  -4.1480  -4.1477  -4.1451  -4.1444  -4.1427  -4.1423
    -4.1395  -4.1393  -4.1382  -4.1371  -4.1363  -4.1357  -4.1334  -4.1334
    -4.1323  -4.1314  -4.1310  -4.1292  -4.1272  -4.1267  -4.1245  -4.1235
    -4.1219  -4.1208  -4.1183  -4.1180  -4.1151  -4.1145  -4.1134  -4.1121
    -4.1118  -4.1101  -4.1080  -4.1053  -4.1053  -4.1023  -4.1021  -4.1003
    -4.0998  -4.0978  -4.0957  -4.0955  -4.0929  -4.0900  -4.0883  -4.0852
    -4.0839  -4.0825  -4.0810  -4.0795  -4.0780  -4.0743  -4.0716  -4.0712
    -4.0696  -4.0684  -4.0645  -4.0636  -4.0622  -4.0611  -4.0581  -4.0575
    -4.0513  -4.0462  -4.0460  -4.0431  -4.0415  -4.0413  -4.0378  -4.0348
    -4.0299  -4.0284  -4.0270  -4.0262  -4.0224  -4.0205  -4.0191  -4.0166
    -4.0149  -4.0142  -4.0115  -4.0115  -4.0096  -4.0091  -4.0071  -4.0062
    -4.0033  -4.0015  -4.0013  -4.0000  -3.9991  -3.9979  -3.9972  -3.9947
    -3.9934  -3.9927  -3.9908  -3.9905  -3.9898  -3.9888  -3.9867  -3.9858
    -3.9847  -3.9833  -3.9829  -3.9818  -3.9808  -3.9796  -3.9795  -3.9775
    -3.9750  -3.9742  -3.9735  -3.9722  -3.9711  -3.9698  -3.9677  -3.9657
    -3.9622  -3.9599  -3.9582  -3.9578  -3.9571  -3.9552  -3.9548  -3.9538
    -3.9513  -3.9507  -3.9497  -3.9495  -3.9469  -3.9455  -3.9447  -3.9421
    -3.9409  -3.9382  -3.9366  -3.9336  -3.9336  -3.9324  -3.9300  -3.9291
    -3.9281  -3.9276  -3.9216  -3.9215  -3.9199  -3.9194  -3.9168  -3.9155
    -3.9145  -3.9136  -3.9125  -3.9098  -3.9061  -3.9061  -3.9052  -3.9046
    -3.9039  -3.9023  -3.9005  -3.8997  -3.8995  -3.8979  -3.8966  -3.8957
    -3.8939  -3.8936  -3.8927  -3.8908  -3.8889  -3.8883  -3.8881  -3.8863
    -3.8822  -3.8818  -3.8803  -3.8775  -3.8766  -3.8730  -3.8726  -3.8716
    -3.8686  -3.8685  -3.8661  -3.8597  -3.8523  -3.8375  -3.8358  -3.8026
    -3.7919  -3.7770  -3.7638  -3.7574  -3.7356  -3.7281  -3.7235  -3.7186
    -3.7045  -3.6783  -3.6602  -3.6594  -3.5725  -3.5656  -3.4656  -3.4655
    -3.4525  -3.4414  -3.2923  -3.2807  -3.1171  -3.1073  -3.0124  -3.0077
    -2.9346  -2.9293  -2.9256  -2.9219  -2.8654  -2.7585  -2.7555  -2.7513
    -2.7495  -2.7428  -2.6953  -2.6133  -2.5924  -2.5437  -2.4950  -2.4872
    -2.4853  -2.4663  -2.3948  -2.3899  -2.3859  -2.3813  -2.3447  -2.3327
    -2.2721  -2.1965  -2.1811  -2.1808  -2.1740  -2.1547  -2.1231  -2.0696
    -2.0328  -2.0170  -2.0075  -0.1916   2.5600   2.7738   2.7770   3.0194
     3.0262   3.1189   3.1283   3.1286   3.1330   3.1542   3.1701   3.1771
     3.1823   3.3391   3.3417   3.3748   3.3850   3.4013   3.4151   3.4965
     3.4995   3.5094   3.5221   3.5248   3.5435   3.8194   3.8225   3.8249
     3.8483   3.9014   3.9288   3.9331   3.9381   4.0806   4.0896   4.1372
     4.1473   4.1734   4.1909   4.2460   4.4169   4.4643   4.9447   4.9504
     4.9553   4.9800   4.9960   5.0213   5.0684   5.0690   5.0963   5.1068
     5.1424   5.2858   5.2917   5.3009   5.3069   5.7002   5.7158   5.7324
     5.7419   5.7611   5.7729   5.8542   6.2160   6.2232   6.2244   6.2287
     6.2624   6.2715   6.2820   6.2922   6.2990   6.3177   6.3516   6.3546
     6.3664   6.3846   6.4759   6.4854   6.5748   6.5854   6.6696   6.7344
     6.7528   6.7795   6.7838   6.7894   6.8114   6.8430   6.9036   6.9483
     7.0026   7.0250   7.0315   7.0327   7.0383   7.0554   7.0586   7.0865
     7.1007   7.1105   7.1144   7.1375   7.1504   7.1931   7.3071   7.3870
     7.3894   7.3968   7.4016   7.4731   7.5098   7.6007   7.6308   7.7721
     7.7760   7.7827   7.7870   7.7956   7.7996   7.8058   7.8132   7.8194
     7.8307   7.8419   7.8516   7.8529   7.8856   7.8888   7.9174   7.9785
     7.9855   7.9898   7.9990   8.0426   8.0535   8.0644   8.1363   8.1553
     8.1562   8.1861   8.2077   8.2810   8.2876   8.2974   8.2979   8.3369
     8.3448   8.3809   8.4628   8.4872   8.5102   8.6030   8.6186   8.8181
     8.8442   8.8536   8.8786   9.0278   9.2799   9.2972  11.9154  13.1105
    13.1487  13.1711  13.3217  13.3501  13.6742  13.6950  13.8785  13.8885
    13.8896  13.9040  13.9676  13.9719  14.0260  14.0327  14.0420  14.0489
    14.0828  14.1240  14.1791  14.2269  14.2397  14.3702  14.6518  14.7383
    14.7667

     occupation numbers 
     1.0000   1.0000   1.0000   1.0000   1.0000   1.0000   1.0000   1.0000
     1.0000   1.0000   1.0000   1.0000   1.0000   1.0000   1.0000   1.0000
     1.0000   1.0000   1.0000   1.0000   1.0000   1.0000   1.0000   1.0000
     1.0000   1.0000   1.0000   1.0000   1.0000   1.0000   1.0000   1.0000
     1.0000   1.0000   1.0000   1.0000   1.0000   1.0000   1.0000   1.0000
     1.0000   1.0000   1.0000   1.0000   1.0000   1.0000   1.0000   1.0000
     1.0000   1.0000   1.0000   1.0000   1.0000   1.0000   1.0000   1.0000
     1.0000   1.0000   1.0000   1.0000   1.0000   1.0000   1.0000   1.0000
     1.0000   1.0000   1.0000   1.0000   1.0000   1.0000   1.0000   1.0000
     1.0000   1.0000   1.0000   1.0000   1.0000   1.0000   1.0000   1.0000
     1.0000   1.0000   1.0000   1.0000   1.0000   1.0000   1.0000   1.0000
     1.0000   1.0000   1.0000   1.0000   1.0000   1.0000   1.0000   1.0000
     1.0000   1.0000   1.0000   1.0000   1.0000   1.0000   1.0000   1.0000
     1.0000   1.0000   1.0000   1.0000   1.0000   1.0000   1.0000   1.0000
     1.0000   1.0000   1.0000   1.0000   1.0000   1.0000   1.0000   1.0000
     1.0000   1.0000   1.0000   1.0000   1.0000   1.0000   1.0000   1.0000
     1.0000   1.0000   1.0000   1.0000   1.0000   1.0000   1.0000   1.0000
     1.0000   1.0000   1.0000   1.0000   1.0000   1.0000   1.0000   1.0000
     1.0000   1.0000   1.0000   1.0000   1.0000   1.0000   1.0000   1.0000
     1.0000   1.0000   1.0000   1.0000   1.0000   1.0000   1.0000   1.0000
     1.0000   1.0000   1.0000   1.0000   1.0000   1.0000   1.0000   1.0000
     1.0000   1.0000   1.0000   1.0000   1.0000   1.0000   1.0000   1.0000
     1.0000   1.0000   1.0000   1.0000   1.0000   1.0000   1.0000   1.0000
     1.0000   1.0000   1.0000   1.0000   1.0000   1.0000   1.0000   1.0000
     1.0000   1.0000   1.0000   1.0000   1.0000   1.0000   1.0000   1.0000
     1.0000   1.0000   1.0000   1.0000   1.0000   1.0000   1.0000   1.0000
     1.0000   1.0000   1.0000   1.0000   1.0000   1.0000   1.0000   1.0000
     1.0000   1.0000   1.0000   1.0000   1.0000   1.0000   1.0000   1.0000
     1.0000   1.0000   1.0000   1.0000   1.0000   1.0000   1.0000   1.0000
     1.0000   1.0000   1.0000   1.0000   1.0000   1.0000   1.0000   1.0000
     1.0000   1.0000   1.0000   1.0000   1.0000   1.0000   1.0000   1.0000
     1.0000   1.0000   1.0000   1.0000   1.0000   1.0000   1.0000   1.0000
     1.0000   1.0000   1.0000   1.0000   1.0000   1.0000   1.0000   1.0000
     1.0000   1.0000   1.0000   1.0000   1.0000   1.0000   1.0000   1.0000
     1.0000   1.0000   1.0000   1.0000   1.0000   1.0000   1.0000   1.0000
     1.0000   1.0000   1.0000   1.0000   1.0000   1.0000   1.0000   1.0000
     1.0000   1.0000   1.0000   1.0000   1.0000   1.0000   1.0000   1.0000
     1.0000   1.0000   1.0000   1.0000   1.0000   1.0000   1.0000   1.0000
     1.0000   1.0000   1.0000   1.0000   1.0000   1.0000   1.0000   1.0000
     1.0000   1.0000   1.0000   1.0000   1.0000   1.0000   1.0000   1.0000
     1.0000   1.0000   1.0000   1.0000   1.0000   1.0000   1.0000   1.0000
     1.0000   1.0000   1.0000   1.0000   1.0000   1.0000   1.0000   1.0000
     1.0000   1.0000   1.0000   1.0000   1.0000   1.0000   1.0000   1.0000
     1.0000   1.0000   1.0000   1.0000   1.0000   1.0000   1.0000   1.0000
     1.0000   1.0000   1.0000   1.0000   1.0000   1.0000   1.0000   1.0000
     1.0000   1.0000   1.0000   1.0000   1.0000   1.0000   1.0000   1.0000
     1.0000   1.0000   1.0000   1.0000   1.0000   1.0000   1.0000   1.0000
     1.0000   1.0000   1.0000   1.0000   1.0000   1.0000   1.0000   1.0000
     1.0000   1.0000   1.0000   1.0000   1.0000   1.0000   1.0000   1.0000
     1.0000   1.0000   1.0000   1.0000   1.0000   1.0000   1.0000   1.0000
     1.0000   1.0000   1.0000   1.0000   1.0000   1.0000   1.0000   1.0000
     1.0000   1.0000   1.0000   1.0000   1.0000   1.0000   1.0000   1.0000
     1.0000   1.0000   1.0000   1.0000   1.0000   1.0000   1.0000   1.0000
     1.0000   1.0000   1.0000   1.0000   1.0000   1.0000   1.0000   1.0000
     1.0000   1.0000   1.0000   1.0000   1.0000   1.0000   1.0000   1.0000
     1.0000   1.0000   1.0000   1.0000   1.0000   1.0000   1.0000   1.0000
     1.0000   1.0000   1.0000   1.0000   1.0000   1.0000   1.0000   1.0000
     1.0000   1.0000   1.0000   1.0000   1.0000   1.0000   1.0000   1.0000
     1.0000   1.0000   1.0000   1.0000   1.0000   1.0000   1.0000   1.0000
     1.0000   1.0000   1.0000   1.0000   1.0000   1.0000   1.0000   1.0000
     1.0000   1.0000   1.0000   1.0000   1.0000   1.0000   0.0000   0.0000
     0.0000   0.0000   0.0000   0.0000   0.0000   0.0000   0.0000   0.0000
     0.0000   0.0000   0.0000   0.0000   0.0000   0.0000   0.0000   0.0000
     0.0000   0.0000   0.0000   0.0000   0.0000   0.0000   0.0000   0.0000
     0.0000

          k = 0.0000 0.3849-0.3067 ( 51248 PWs)   bands (ev):

    -6.3019  -6.2953  -6.0498  -6.0409  -5.9145  -5.9044  -5.8888  -5.8677
    -5.8673  -5.8537  -5.7642  -5.7547  -5.7163  -5.7162  -5.6972  -5.6972
    -5.6903  -5.6793  -5.6759  -5.6739  -5.6711  -5.6652  -5.6649  -5.6544
    -5.6312  -5.6227  -5.6138  -5.6106  -5.6095  -5.6043  -5.5940  -5.5924
    -5.5877  -5.5839  -5.5823  -5.5821  -5.5731  -5.5709  -5.5689  -5.5630
    -5.5585  -5.5559  -5.5447  -5.5423  -5.5422  -5.5392  -5.5379  -5.5347
    -5.5265  -5.5173  -5.5163  -5.4888  -5.4876  -4.2604  -4.2033  -4.1970
    -4.1935  -4.1845  -4.1814  -4.1803  -4.1755  -4.1740  -4.1695  -4.1667
    -4.1662  -4.1658  -4.1656  -4.1617  -4.1613  -4.1598  -4.1591  -4.1565
    -4.1562  -4.1513  -4.1498  -4.1477  -4.1472  -4.1456  -4.1436  -4.1432
    -4.1425  -4.1411  -4.1405  -4.1395  -4.1379  -4.1366  -4.1360  -4.1344
    -4.1328  -4.1325  -4.1311  -4.1308  -4.1287  -4.1275  -4.1269  -4.1249
    -4.1247  -4.1239  -4.1230  -4.1215  -4.1206  -4.1191  -4.1180  -4.1160
    -4.1137  -4.1113  -4.1105  -4.1069  -4.1046  -4.1041  -4.1018  -4.0969
    -4.0945  -4.0921  -4.0908  -4.0891  -4.0874  -4.0826  -4.0824  -4.0796
    -4.0787  -4.0770  -4.0768  -4.0726  -4.0712  -4.0708  -4.0706  -4.0676
    -4.0661  -4.0636  -4.0628  -4.0617  -4.0613  -4.0571  -4.0557  -4.0547
    -4.0533  -4.0527  -4.0488  -4.0485  -4.0466  -4.0437  -4.0417  -4.0403
    -4.0385  -4.0363  -4.0340  -4.0289  -4.0263  -4.0238  -4.0237  -4.0205
    -4.0178  -4.0146  -4.0133  -4.0105  -4.0074  -4.0071  -4.0056  -4.0047
    -4.0036  -4.0033  -4.0007  -3.9998  -3.9982  -3.9964  -3.9961  -3.9948
    -3.9928  -3.9913  -3.9907  -3.9902  -3.9888  -3.9867  -3.9851  -3.9843
    -3.9822  -3.9809  -3.9800  -3.9796  -3.9776  -3.9761  -3.9748  -3.9731
    -3.9724  -3.9708  -3.9706  -3.9698  -3.9665  -3.9655  -3.9646  -3.9636
    -3.9633  -3.9617  -3.9611  -3.9599  -3.9591  -3.9570  -3.9562  -3.9554
    -3.9539  -3.9532  -3.9514  -3.9504  -3.9481  -3.9476  -3.9451  -3.9431
    -3.9406  -3.9398  -3.9390  -3.9354  -3.9332  -3.9305  -3.9298  -3.9276
    -3.9258  -3.9243  -3.9230  -3.9210  -3.9192  -3.9171  -3.9163  -3.9158
    -3.9128  -3.9126  -3.9092  -3.9082  -3.9081  -3.9068  -3.9061  -3.9056
    -3.9022  -3.9019  -3.9006  -3.9002  -3.8989  -3.8971  -3.8966  -3.8954
    -3.8948  -3.8937  -3.8918  -3.8897  -3.8878  -3.8876  -3.8859  -3.8855
    -3.8829  -3.8812  -3.8806  -3.8774  -3.8743  -3.8723  -3.8707  -3.8686
    -3.8678  -3.8651  -3.8608  -3.8558  -3.8527  -3.8361  -3.8348  -3.8061
    -3.7768  -3.7758  -3.7619  -3.7569  -3.7343  -3.7278  -3.7255  -3.7187
    -3.7002  -3.6645  -3.6365  -3.6307  -3.6053  -3.5985  -3.5641  -3.5586
    -3.4411  -3.4328  -3.1744  -3.1686  -3.1682  -3.1577  -3.0780  -3.0750
    -3.0619  -3.0292  -2.8558  -2.8322  -2.7957  -2.7876  -2.6950  -2.6875
    -2.6858  -2.6740  -2.5888  -2.5881  -2.5843  -2.5760  -2.5615  -2.5535
    -2.5430  -2.4835  -2.3556  -2.3531  -2.3504  -2.3443  -2.3438  -2.3315
    -2.3256  -2.2431  -2.1870  -2.1798  -2.1349  -2.1234  -2.1226  -2.0839
    -2.0687  -2.0624  -2.0573  -0.1964   2.8733   2.8816   2.9527   2.9566
     3.0067   3.0087   3.1756   3.1876   3.1883   3.1939   3.2052   3.2145
     3.2242   3.2316   3.3189   3.3218   3.3225   3.3276   3.3575   3.3616
     3.3798   3.4002   3.4037   3.4203   3.5283   3.5427   3.5485   3.6120
     3.9200   3.9331   3.9366   3.9402   3.9465   3.9821   4.2792   4.2857
     4.2871   4.3237   4.3986   4.4244   4.4263   4.4931   4.9801   4.9992
     5.0139   5.0227   5.0259   5.0432   5.2515   5.2533   5.2753   5.2910
     5.4038   5.4151   5.4234   5.4311   5.4517   5.4839   5.5315   5.5794
     5.6759   5.6824   5.6934   5.7273   5.7746   5.7806   5.7829   5.8034
     5.9013   5.9519   6.1444   6.1498   6.1583   6.2115   6.3693   6.3740
     6.3765   6.4015   6.5292   6.5815   6.7515   6.7598   6.8333   6.8400
     6.8416   6.8505   6.8648   6.8674   6.8726   6.8942   6.9210   6.9295
     6.9307   7.0148   7.1881   7.2000   7.2058   7.2108   7.3274   7.3325
     7.3603   7.3641   7.3683   7.3695   7.4040   7.4213   7.4306   7.4345
     7.4802   7.5017   7.5366   7.5403   7.5509   7.5532   7.5627   7.5629
     7.5717   7.5743   7.5855   7.6262   7.6274   7.6700   7.7244   7.7247
     7.7262   7.7310   7.7322   7.7778   7.7868   7.8127   7.8605   7.8766
     7.8974   7.9049   7.9783   8.0635   8.0852   8.0926   8.1335   8.1432
     8.1466   8.1583   8.1811   8.1931   8.2087   8.2273   8.3128   8.3733
     8.3919   8.4196   8.4953   8.5370   8.5647   8.6251   8.6784   8.7615
     8.7832   8.8709   9.0149   9.0730   9.1826   9.2786  12.3056  12.3642
    13.2151  13.2653  13.6261  13.6360  13.8016  13.8043  13.8503  13.8574
    13.8904  13.8972  13.9270  13.9725  14.0752  14.1007  14.2166  14.2249
    14.2271  14.2328  14.2381  14.2396  14.2483  14.3547  14.3727  14.3826
    14.3987

     occupation numbers 
     1.0000   1.0000   1.0000   1.0000   1.0000   1.0000   1.0000   1.0000
     1.0000   1.0000   1.0000   1.0000   1.0000   1.0000   1.0000   1.0000
     1.0000   1.0000   1.0000   1.0000   1.0000   1.0000   1.0000   1.0000
     1.0000   1.0000   1.0000   1.0000   1.0000   1.0000   1.0000   1.0000
     1.0000   1.0000   1.0000   1.0000   1.0000   1.0000   1.0000   1.0000
     1.0000   1.0000   1.0000   1.0000   1.0000   1.0000   1.0000   1.0000
     1.0000   1.0000   1.0000   1.0000   1.0000   1.0000   1.0000   1.0000
     1.0000   1.0000   1.0000   1.0000   1.0000   1.0000   1.0000   1.0000
     1.0000   1.0000   1.0000   1.0000   1.0000   1.0000   1.0000   1.0000
     1.0000   1.0000   1.0000   1.0000   1.0000   1.0000   1.0000   1.0000
     1.0000   1.0000   1.0000   1.0000   1.0000   1.0000   1.0000   1.0000
     1.0000   1.0000   1.0000   1.0000   1.0000   1.0000   1.0000   1.0000
     1.0000   1.0000   1.0000   1.0000   1.0000   1.0000   1.0000   1.0000
     1.0000   1.0000   1.0000   1.0000   1.0000   1.0000   1.0000   1.0000
     1.0000   1.0000   1.0000   1.0000   1.0000   1.0000   1.0000   1.0000
     1.0000   1.0000   1.0000   1.0000   1.0000   1.0000   1.0000   1.0000
     1.0000   1.0000   1.0000   1.0000   1.0000   1.0000   1.0000   1.0000
     1.0000   1.0000   1.0000   1.0000   1.0000   1.0000   1.0000   1.0000
     1.0000   1.0000   1.0000   1.0000   1.0000   1.0000   1.0000   1.0000
     1.0000   1.0000   1.0000   1.0000   1.0000   1.0000   1.0000   1.0000
     1.0000   1.0000   1.0000   1.0000   1.0000   1.0000   1.0000   1.0000
     1.0000   1.0000   1.0000   1.0000   1.0000   1.0000   1.0000   1.0000
     1.0000   1.0000   1.0000   1.0000   1.0000   1.0000   1.0000   1.0000
     1.0000   1.0000   1.0000   1.0000   1.0000   1.0000   1.0000   1.0000
     1.0000   1.0000   1.0000   1.0000   1.0000   1.0000   1.0000   1.0000
     1.0000   1.0000   1.0000   1.0000   1.0000   1.0000   1.0000   1.0000
     1.0000   1.0000   1.0000   1.0000   1.0000   1.0000   1.0000   1.0000
     1.0000   1.0000   1.0000   1.0000   1.0000   1.0000   1.0000   1.0000
     1.0000   1.0000   1.0000   1.0000   1.0000   1.0000   1.0000   1.0000
     1.0000   1.0000   1.0000   1.0000   1.0000   1.0000   1.0000   1.0000
     1.0000   1.0000   1.0000   1.0000   1.0000   1.0000   1.0000   1.0000
     1.0000   1.0000   1.0000   1.0000   1.0000   1.0000   1.0000   1.0000
     1.0000   1.0000   1.0000   1.0000   1.0000   1.0000   1.0000   1.0000
     1.0000   1.0000   1.0000   1.0000   1.0000   1.0000   1.0000   1.0000
     1.0000   1.0000   1.0000   1.0000   1.0000   1.0000   1.0000   1.0000
     1.0000   1.0000   1.0000   1.0000   1.0000   1.0000   1.0000   1.0000
     1.0000   1.0000   1.0000   1.0000   1.0000   1.0000   1.0000   1.0000
     1.0000   1.0000   1.0000   1.0000   1.0000   1.0000   1.0000   1.0000
     1.0000   1.0000   1.0000   1.0000   1.0000   1.0000   1.0000   1.0000
     1.0000   1.0000   1.0000   1.0000   1.0000   1.0000   1.0000   1.0000
     1.0000   1.0000   1.0000   1.0000   1.0000   1.0000   1.0000   1.0000
     1.0000   1.0000   1.0000   1.0000   1.0000   1.0000   1.0000   1.0000
     1.0000   1.0000   1.0000   1.0000   1.0000   1.0000   1.0000   1.0000
     1.0000   1.0000   1.0000   1.0000   1.0000   1.0000   1.0000   1.0000
     1.0000   1.0000   1.0000   1.0000   1.0000   1.0000   1.0000   1.0000
     1.0000   1.0000   1.0000   1.0000   1.0000   1.0000   1.0000   1.0000
     1.0000   1.0000   1.0000   1.0000   1.0000   1.0000   1.0000   1.0000
     1.0000   1.0000   1.0000   1.0000   1.0000   1.0000   1.0000   1.0000
     1.0000   1.0000   1.0000   1.0000   1.0000   1.0000   1.0000   1.0000
     1.0000   1.0000   1.0000   1.0000   1.0000   1.0000   1.0000   1.0000
     1.0000   1.0000   1.0000   1.0000   1.0000   1.0000   1.0000   1.0000
     1.0000   1.0000   1.0000   1.0000   1.0000   1.0000   1.0000   1.0000
     1.0000   1.0000   1.0000   1.0000   1.0000   1.0000   1.0000   1.0000
     1.0000   1.0000   1.0000   1.0000   1.0000   1.0000   1.0000   1.0000
     1.0000   1.0000   1.0000   1.0000   1.0000   1.0000   1.0000   1.0000
     1.0000   1.0000   1.0000   1.0000   1.0000   1.0000   1.0000   1.0000
     1.0000   1.0000   1.0000   1.0000   1.0000   1.0000   1.0000   1.0000
     1.0000   1.0000   1.0000   1.0000   1.0000   1.0000   1.0000   1.0000
     1.0000   1.0000   1.0000   1.0000   1.0000   1.0000   1.0000   1.0000
     1.0000   1.0000   1.0000   1.0000   1.0000   1.0000   1.0000   1.0000
     1.0000   1.0000   1.0000   1.0000   1.0000   1.0000   0.0000   0.0000
     0.0000   0.0000   0.0000   0.0000   0.0000   0.0000   0.0000   0.0000
     0.0000   0.0000   0.0000   0.0000   0.0000   0.0000   0.0000   0.0000
     0.0000   0.0000   0.0000   0.0000   0.0000   0.0000   0.0000   0.0000
     0.0000

          k = 0.3333 0.5774 0.0000 ( 51216 PWs)   bands (ev):

    -6.1971  -6.1935  -6.1454  -5.9890  -5.9848  -5.9747  -5.9723  -5.9447
    -5.9299  -5.7471  -5.7353  -5.7283  -5.7036  -5.7009  -5.6888  -5.6850
    -5.6757  -5.6745  -5.6701  -5.6695  -5.6640  -5.6592  -5.6592  -5.6480
    -5.6376  -5.6346  -5.6281  -5.6232  -5.6182  -5.6153  -5.6122  -5.6047
    -5.5972  -5.5959  -5.5836  -5.5750  -5.5745  -5.5721  -5.5673  -5.5550
    -5.5538  -5.5494  -5.5476  -5.5460  -5.5419  -5.5352  -5.5351  -5.5337
    -5.5232  -5.5176  -5.5148  -5.4889  -5.4860  -4.2580  -4.1917  -4.1907
    -4.1905  -4.1820  -4.1802  -4.1769  -4.1739  -4.1734  -4.1653  -4.1641
    -4.1631  -4.1624  -4.1591  -4.1587  -4.1571  -4.1569  -4.1542  -4.1538
    -4.1517  -4.1507  -4.1501  -4.1491  -4.1483  -4.1469  -4.1434  -4.1426
    -4.1416  -4.1375  -4.1370  -4.1352  -4.1347  -4.1329  -4.1307  -4.1305
    -4.1289  -4.1282  -4.1276  -4.1262  -4.1243  -4.1238  -4.1228  -4.1204
    -4.1198  -4.1174  -4.1166  -4.1160  -4.1145  -4.1128  -4.1099  -4.1086
    -4.1081  -4.1077  -4.1072  -4.1067  -4.1062  -4.1057  -4.1044  -4.1023
    -4.1011  -4.1004  -4.0998  -4.0991  -4.0974  -4.0968  -4.0958  -4.0949
    -4.0917  -4.0913  -4.0883  -4.0874  -4.0870  -4.0847  -4.0845  -4.0763
    -4.0729  -4.0720  -4.0698  -4.0641  -4.0624  -4.0617  -4.0547  -4.0519
    -4.0482  -4.0447  -4.0427  -4.0425  -4.0418  -4.0401  -4.0368  -4.0312
    -4.0305  -4.0302  -4.0260  -4.0252  -4.0249  -4.0231  -4.0215  -4.0209
    -4.0195  -4.0186  -4.0174  -4.0157  -4.0152  -4.0148  -4.0127  -4.0121
    -4.0099  -4.0087  -4.0075  -4.0061  -4.0043  -4.0029  -4.0017  -3.9997
    -3.9995  -3.9990  -3.9985  -3.9931  -3.9924  -3.9896  -3.9889  -3.9876
    -3.9841  -3.9840  -3.9837  -3.9793  -3.9791  -3.9783  -3.9767  -3.9762
    -3.9758  -3.9756  -3.9726  -3.9709  -3.9702  -3.9679  -3.9678  -3.9670
    -3.9662  -3.9653  -3.9642  -3.9639  -3.9629  -3.9603  -3.9578  -3.9570
    -3.9534  -3.9517  -3.9497  -3.9495  -3.9465  -3.9419  -3.9403  -3.9395
    -3.9385  -3.9372  -3.9343  -3.9339  -3.9325  -3.9310  -3.9293  -3.9273
    -3.9236  -3.9233  -3.9210  -3.9203  -3.9192  -3.9188  -3.9178  -3.9131
    -3.9116  -3.9103  -3.9096  -3.9089  -3.9072  -3.9057  -3.9046  -3.9040
    -3.9038  -3.9026  -3.8991  -3.8987  -3.8986  -3.8981  -3.8958  -3.8948
    -3.8928  -3.8928  -3.8914  -3.8912  -3.8905  -3.8898  -3.8866  -3.8848
    -3.8845  -3.8797  -3.8788  -3.8783  -3.8763  -3.8762  -3.8701  -3.8681
    -3.8668  -3.8657  -3.8599  -3.8536  -3.8407  -3.8359  -3.8272  -3.8254
    -3.8058  -3.8042  -3.7982  -3.7844  -3.7749  -3.7606  -3.7571  -3.7323
    -3.7286  -3.7205  -3.7173  -3.7093  -3.6671  -3.5667  -3.5643  -3.2077
    -3.1915  -3.1810  -3.1159  -3.1143  -3.1127  -3.1125  -3.0823  -3.0619
    -3.0059  -3.0049  -3.0023  -2.9968  -2.9684  -2.9111  -2.6629  -2.6492
    -2.6338  -2.5651  -2.5631  -2.5587  -2.5573  -2.5322  -2.4998  -2.4194
    -2.4124  -2.4075  -2.4032  -2.4017  -2.3977  -2.3968  -2.3794  -2.3459
    -2.3053  -2.2955  -2.2948  -2.2907  -2.2643  -2.1791  -2.1534  -2.1324
    -2.0335  -1.9922  -1.9696  -0.1894   2.7586   2.7657   2.7729   2.7792
     2.7882   2.7984   2.8576   2.8585   2.9280   3.0682   3.0684   3.0701
     3.2950   3.2969   3.3012   3.3021   3.3190   3.3261   3.4730   3.4746
     3.4771   3.5010   3.5125   3.5219   3.6031   3.6326   3.6338   4.0922
     4.0937   4.0951   4.0984   4.1024   4.1085   4.1214   4.1292   4.1299
     4.1380   4.1409   4.1577   4.1644   4.2571   4.3364   4.6063   4.6276
     4.6776   5.0779   5.1034   5.1037   5.2345   5.2405   5.2876   5.9040
     5.9084   5.9106   6.0073   6.0136   6.0159   6.0287   6.0367   6.0440
     6.0891   6.0899   6.0927   6.0945   6.1074   6.1134   6.1302   6.1349
     6.1395   6.1416   6.1472   6.1836   6.1857   6.2240   6.2705   6.4060
     6.4065   6.4298   6.5123   6.5264   6.5304   6.5315   6.5561   6.5838
     6.9043   6.9150   6.9159   6.9210   6.9213   6.9239   6.9257   6.9294
     6.9419   6.9444   6.9510   6.9514   6.9604   6.9682   6.9850   6.9856
     6.9948   7.0102   7.0176   7.0384   7.0633   7.0742   7.1254   7.1411
     7.1880   7.1910   7.2069   7.2300   7.2464   7.2880   7.5650   7.5674
     7.6104   7.7425   7.7487   7.7534   7.7638   7.7673   7.7711   7.7738
     7.7856   7.7898   7.7917   7.8030   7.8087   7.8211   7.8215   7.8245
     7.8332   7.8378   7.8404   7.9208   7.9585   7.9962   8.0388   8.0433
     8.0463   8.0471   8.1504   8.1856   8.2902   8.2912   8.3044   8.3051
     8.3837   8.4368   8.4530   8.4633   8.4735   8.5495   8.6397   8.6612
     8.8146   8.8426   8.8435   8.9366   9.0514   9.2292  12.8417  12.8502
    12.9202  13.6607  13.6616  13.6678  13.6761  13.7115  13.7378  13.7550
    13.7622  13.7646  13.7752  13.7753  13.9540  14.6468  14.6473  14.6509
    14.6670  14.6679  14.6942  14.7549  14.7621  14.7644  14.7686  14.7858
    14.8145

     occupation numbers 
     1.0000   1.0000   1.0000   1.0000   1.0000   1.0000   1.0000   1.0000
     1.0000   1.0000   1.0000   1.0000   1.0000   1.0000   1.0000   1.0000
     1.0000   1.0000   1.0000   1.0000   1.0000   1.0000   1.0000   1.0000
     1.0000   1.0000   1.0000   1.0000   1.0000   1.0000   1.0000   1.0000
     1.0000   1.0000   1.0000   1.0000   1.0000   1.0000   1.0000   1.0000
     1.0000   1.0000   1.0000   1.0000   1.0000   1.0000   1.0000   1.0000
     1.0000   1.0000   1.0000   1.0000   1.0000   1.0000   1.0000   1.0000
     1.0000   1.0000   1.0000   1.0000   1.0000   1.0000   1.0000   1.0000
     1.0000   1.0000   1.0000   1.0000   1.0000   1.0000   1.0000   1.0000
     1.0000   1.0000   1.0000   1.0000   1.0000   1.0000   1.0000   1.0000
     1.0000   1.0000   1.0000   1.0000   1.0000   1.0000   1.0000   1.0000
     1.0000   1.0000   1.0000   1.0000   1.0000   1.0000   1.0000   1.0000
     1.0000   1.0000   1.0000   1.0000   1.0000   1.0000   1.0000   1.0000
     1.0000   1.0000   1.0000   1.0000   1.0000   1.0000   1.0000   1.0000
     1.0000   1.0000   1.0000   1.0000   1.0000   1.0000   1.0000   1.0000
     1.0000   1.0000   1.0000   1.0000   1.0000   1.0000   1.0000   1.0000
     1.0000   1.0000   1.0000   1.0000   1.0000   1.0000   1.0000   1.0000
     1.0000   1.0000   1.0000   1.0000   1.0000   1.0000   1.0000   1.0000
     1.0000   1.0000   1.0000   1.0000   1.0000   1.0000   1.0000   1.0000
     1.0000   1.0000   1.0000   1.0000   1.0000   1.0000   1.0000   1.0000
     1.0000   1.0000   1.0000   1.0000   1.0000   1.0000   1.0000   1.0000
     1.0000   1.0000   1.0000   1.0000   1.0000   1.0000   1.0000   1.0000
     1.0000   1.0000   1.0000   1.0000   1.0000   1.0000   1.0000   1.0000
     1.0000   1.0000   1.0000   1.0000   1.0000   1.0000   1.0000   1.0000
     1.0000   1.0000   1.0000   1.0000   1.0000   1.0000   1.0000   1.0000
     1.0000   1.0000   1.0000   1.0000   1.0000   1.0000   1.0000   1.0000
     1.0000   1.0000   1.0000   1.0000   1.0000   1.0000   1.0000   1.0000
     1.0000   1.0000   1.0000   1.0000   1.0000   1.0000   1.0000   1.0000
     1.0000   1.0000   1.0000   1.0000   1.0000   1.0000   1.0000   1.0000
     1.0000   1.0000   1.0000   1.0000   1.0000   1.0000   1.0000   1.0000
     1.0000   1.0000   1.0000   1.0000   1.0000   1.0000   1.0000   1.0000
     1.0000   1.0000   1.0000   1.0000   1.0000   1.0000   1.0000   1.0000
     1.0000   1.0000   1.0000   1.0000   1.0000   1.0000   1.0000   1.0000
     1.0000   1.0000   1.0000   1.0000   1.0000   1.0000   1.0000   1.0000
     1.0000   1.0000   1.0000   1.0000   1.0000   1.0000   1.0000   1.0000
     1.0000   1.0000   1.0000   1.0000   1.0000   1.0000   1.0000   1.0000
     1.0000   1.0000   1.0000   1.0000   1.0000   1.0000   1.0000   1.0000
     1.0000   1.0000   1.0000   1.0000   1.0000   1.0000   1.0000   1.0000
     1.0000   1.0000   1.0000   1.0000   1.0000   1.0000   1.0000   1.0000
     1.0000   1.0000   1.0000   1.0000   1.0000   1.0000   1.0000   1.0000
     1.0000   1.0000   1.0000   1.0000   1.0000   1.0000   1.0000   1.0000
     1.0000   1.0000   1.0000   1.0000   1.0000   1.0000   1.0000   1.0000
     1.0000   1.0000   1.0000   1.0000   1.0000   1.0000   1.0000   1.0000
     1.0000   1.0000   1.0000   1.0000   1.0000   1.0000   1.0000   1.0000
     1.0000   1.0000   1.0000   1.0000   1.0000   1.0000   1.0000   1.0000
     1.0000   1.0000   1.0000   1.0000   1.0000   1.0000   1.0000   1.0000
     1.0000   1.0000   1.0000   1.0000   1.0000   1.0000   1.0000   1.0000
     1.0000   1.0000   1.0000   1.0000   1.0000   1.0000   1.0000   1.0000
     1.0000   1.0000   1.0000   1.0000   1.0000   1.0000   1.0000   1.0000
     1.0000   1.0000   1.0000   1.0000   1.0000   1.0000   1.0000   1.0000
     1.0000   1.0000   1.0000   1.0000   1.0000   1.0000   1.0000   1.0000
     1.0000   1.0000   1.0000   1.0000   1.0000   1.0000   1.0000   1.0000
     1.0000   1.0000   1.0000   1.0000   1.0000   1.0000   1.0000   1.0000
     1.0000   1.0000   1.0000   1.0000   1.0000   1.0000   1.0000   1.0000
     1.0000   1.0000   1.0000   1.0000   1.0000   1.0000   1.0000   1.0000
     1.0000   1.0000   1.0000   1.0000   1.0000   1.0000   1.0000   1.0000
     1.0000   1.0000   1.0000   1.0000   1.0000   1.0000   1.0000   1.0000
     1.0000   1.0000   1.0000   1.0000   1.0000   1.0000   1.0000   1.0000
     1.0000   1.0000   1.0000   1.0000   1.0000   1.0000   1.0000   1.0000
     1.0000   1.0000   1.0000   1.0000   1.0000   1.0000   1.0000   1.0000
     1.0000   1.0000   1.0000   1.0000   1.0000   1.0000   0.0000   0.0000
     0.0000   0.0000   0.0000   0.0000   0.0000   0.0000   0.0000   0.0000
     0.0000   0.0000   0.0000   0.0000   0.0000   0.0000   0.0000   0.0000
     0.0000   0.0000   0.0000   0.0000   0.0000   0.0000   0.0000   0.0000
     0.0000

          k = 0.3333 0.5774-0.3067 ( 51264 PWs)   bands (ev):

    -6.1498  -6.1451  -6.1212  -6.1192  -6.1091  -6.0592  -5.8165  -5.8123
    -5.8077  -5.8047  -5.7865  -5.7732  -5.7312  -5.7191  -5.7078  -5.7053
    -5.7006  -5.6977  -5.6702  -5.6623  -5.6498  -5.6456  -5.6412  -5.6397
    -5.6371  -5.6274  -5.6237  -5.6222  -5.6181  -5.6118  -5.5998  -5.5986
    -5.5899  -5.5896  -5.5831  -5.5819  -5.5759  -5.5684  -5.5582  -5.5570
    -5.5549  -5.5523  -5.5508  -5.5457  -5.5408  -5.5383  -5.5367  -5.5361
    -5.5244  -5.5182  -5.5151  -5.4895  -5.4866  -4.2580  -4.1913  -4.1906
    -4.1898  -4.1788  -4.1767  -4.1765  -4.1755  -4.1696  -4.1659  -4.1629
    -4.1621  -4.1598  -4.1589  -4.1568  -4.1562  -4.1553  -4.1531  -4.1530
    -4.1529  -4.1521  -4.1506  -4.1479  -4.1479  -4.1473  -4.1467  -4.1452
    -4.1442  -4.1440  -4.1417  -4.1399  -4.1389  -4.1370  -4.1340  -4.1336
    -4.1333  -4.1322  -4.1293  -4.1274  -4.1254  -4.1245  -4.1239  -4.1220
    -4.1220  -4.1187  -4.1186  -4.1175  -4.1166  -4.1165  -4.1139  -4.1121
    -4.1114  -4.1111  -4.1085  -4.1080  -4.1057  -4.1048  -4.1032  -4.1021
    -4.1013  -4.1007  -4.0995  -4.0981  -4.0959  -4.0946  -4.0910  -4.0905
    -4.0904  -4.0866  -4.0819  -4.0773  -4.0720  -4.0719  -4.0693  -4.0668
    -4.0618  -4.0594  -4.0589  -4.0578  -4.0571  -4.0541  -4.0532  -4.0509
    -4.0497  -4.0496  -4.0473  -4.0469  -4.0452  -4.0407  -4.0407  -4.0388
    -4.0375  -4.0370  -4.0352  -4.0340  -4.0317  -4.0297  -4.0263  -4.0258
    -4.0256  -4.0245  -4.0241  -4.0182  -4.0180  -4.0160  -4.0113  -4.0098
    -4.0086  -4.0085  -4.0076  -4.0068  -4.0011  -4.0011  -3.9995  -3.9994
    -3.9971  -3.9954  -3.9929  -3.9916  -3.9908  -3.9875  -3.9853  -3.9829
    -3.9825  -3.9818  -3.9815  -3.9796  -3.9776  -3.9770  -3.9768  -3.9761
    -3.9760  -3.9751  -3.9742  -3.9739  -3.9723  -3.9689  -3.9689  -3.9682
    -3.9680  -3.9638  -3.9607  -3.9593  -3.9582  -3.9576  -3.9554  -3.9530
    -3.9520  -3.9515  -3.9497  -3.9487  -3.9448  -3.9428  -3.9407  -3.9391
    -3.9388  -3.9379  -3.9362  -3.9339  -3.9339  -3.9326  -3.9322  -3.9306
    -3.9305  -3.9281  -3.9277  -3.9240  -3.9208  -3.9200  -3.9197  -3.9192
    -3.9147  -3.9134  -3.9124  -3.9103  -3.9072  -3.9071  -3.9053  -3.9051
    -3.9025  -3.9009  -3.8996  -3.8983  -3.8977  -3.8970  -3.8960  -3.8941
    -3.8939  -3.8939  -3.8917  -3.8915  -3.8909  -3.8901  -3.8894  -3.8851
    -3.8844  -3.8822  -3.8821  -3.8789  -3.8785  -3.8768  -3.8709  -3.8705
    -3.8671  -3.8664  -3.8642  -3.8616  -3.8611  -3.8590  -3.8527  -3.8351
    -3.8327  -3.7998  -3.7704  -3.7624  -3.7591  -3.7426  -3.7284  -3.7223
    -3.7197  -3.7007  -3.5921  -3.5842  -3.5393  -3.5309  -3.5219  -3.5207
    -3.5017  -3.4873  -3.1629  -3.1534  -3.1531  -3.1527  -3.1294  -3.0905
    -2.7468  -2.7463  -2.7432  -2.7419  -2.7065  -2.7047  -2.6575  -2.6502
    -2.6343  -2.6313  -2.6300  -2.6291  -2.6268  -2.6188  -2.6135  -2.6098
    -2.6092  -2.5192  -2.4467  -2.4426  -2.4398  -2.4352  -2.3968  -2.3097
    -2.2042  -2.1864  -2.1840  -2.1812  -2.1648  -2.1619  -2.1211  -2.1057
    -2.1023  -2.0982  -2.0820  -0.1944   2.8749   2.8863   2.8999   2.9022
     2.9049   2.9085   2.9142   2.9174   2.9182   2.9254   2.9466   2.9586
     3.2301   3.2311   3.2457   3.2464   3.2839   3.3286   3.4868   3.4946
     3.5025   3.5060   3.5270   3.5534   3.6990   3.6997   3.7002   3.7339
     3.7406   3.7473   3.8240   3.8252   3.8381   3.8468   3.8567   3.8780
     4.4719   4.4731   4.4778   4.4883   4.4976   4.5579   5.1716   5.1746
     5.1787   5.1823   5.2313   5.3486   5.5431   5.5458   5.5474   5.5589
     5.5604   5.5606   5.5693   5.5784   5.5837   5.5982   5.6262   5.7228
     5.8617   5.8681   5.8732   5.8857   5.8862   5.9016   6.3273   6.3322
     6.3348   6.3394   6.3455   6.3529   6.4058   6.4104   6.4160   6.4290
     6.4426   6.4486   6.5211   6.5297   6.5300   6.5376   6.5412   6.6091
     6.6556   6.6653   6.6812   6.6835   6.6872   6.6904   6.7259   6.7272
     6.7424   6.7740   6.8372   6.8917   7.3228   7.3383   7.3420   7.3454
     7.3486   7.3796   7.3800   7.3833   7.3975   7.4007   7.4093   7.4469
     7.5297   7.5304   7.5342   7.5361   7.5387   7.5396   7.5454   7.5493
     7.5552   7.5571   7.5967   7.5981   7.6345   7.6363   7.6408   7.6430
     7.6667   7.6783   7.6842   7.6907   7.6926   7.6961   7.6989   7.7014
     7.7087   7.7179   7.7212   7.7999   7.8561   7.9238   7.9429   7.9502
     7.9533   7.9643   7.9880   8.1193   8.1305   8.1470   8.1510   8.2689
     8.3139   8.3287   8.6975   8.7243   8.7255   8.7255   8.7258   8.7299
     8.7341   8.7376   8.7479   8.9560   9.0336   9.1981  13.0526  13.0533
    13.0682  13.0754  13.0831  13.2261  14.0371  14.0420  14.0486  14.0557
    14.0630  14.0900  14.2097  14.2184  14.2261  14.2388  14.2424  14.2649
    14.4319  14.4329  14.4415  14.4506  14.5208  14.5647  14.8548  14.8668
    14.8779

     occupation numbers 
     1.0000   1.0000   1.0000   1.0000   1.0000   1.0000   1.0000   1.0000
     1.0000   1.0000   1.0000   1.0000   1.0000   1.0000   1.0000   1.0000
     1.0000   1.0000   1.0000   1.0000   1.0000   1.0000   1.0000   1.0000
     1.0000   1.0000   1.0000   1.0000   1.0000   1.0000   1.0000   1.0000
     1.0000   1.0000   1.0000   1.0000   1.0000   1.0000   1.0000   1.0000
     1.0000   1.0000   1.0000   1.0000   1.0000   1.0000   1.0000   1.0000
     1.0000   1.0000   1.0000   1.0000   1.0000   1.0000   1.0000   1.0000
     1.0000   1.0000   1.0000   1.0000   1.0000   1.0000   1.0000   1.0000
     1.0000   1.0000   1.0000   1.0000   1.0000   1.0000   1.0000   1.0000
     1.0000   1.0000   1.0000   1.0000   1.0000   1.0000   1.0000   1.0000
     1.0000   1.0000   1.0000   1.0000   1.0000   1.0000   1.0000   1.0000
     1.0000   1.0000   1.0000   1.0000   1.0000   1.0000   1.0000   1.0000
     1.0000   1.0000   1.0000   1.0000   1.0000   1.0000   1.0000   1.0000
     1.0000   1.0000   1.0000   1.0000   1.0000   1.0000   1.0000   1.0000
     1.0000   1.0000   1.0000   1.0000   1.0000   1.0000   1.0000   1.0000
     1.0000   1.0000   1.0000   1.0000   1.0000   1.0000   1.0000   1.0000
     1.0000   1.0000   1.0000   1.0000   1.0000   1.0000   1.0000   1.0000
     1.0000   1.0000   1.0000   1.0000   1.0000   1.0000   1.0000   1.0000
     1.0000   1.0000   1.0000   1.0000   1.0000   1.0000   1.0000   1.0000
     1.0000   1.0000   1.0000   1.0000   1.0000   1.0000   1.0000   1.0000
     1.0000   1.0000   1.0000   1.0000   1.0000   1.0000   1.0000   1.0000
     1.0000   1.0000   1.0000   1.0000   1.0000   1.0000   1.0000   1.0000
     1.0000   1.0000   1.0000   1.0000   1.0000   1.0000   1.0000   1.0000
     1.0000   1.0000   1.0000   1.0000   1.0000   1.0000   1.0000   1.0000
     1.0000   1.0000   1.0000   1.0000   1.0000   1.0000   1.0000   1.0000
     1.0000   1.0000   1.0000   1.0000   1.0000   1.0000   1.0000   1.0000
     1.0000   1.0000   1.0000   1.0000   1.0000   1.0000   1.0000   1.0000
     1.0000   1.0000   1.0000   1.0000   1.0000   1.0000   1.0000   1.0000
     1.0000   1.0000   1.0000   1.0000   1.0000   1.0000   1.0000   1.0000
     1.0000   1.0000   1.0000   1.0000   1.0000   1.0000   1.0000   1.0000
     1.0000   1.0000   1.0000   1.0000   1.0000   1.0000   1.0000   1.0000
     1.0000   1.0000   1.0000   1.0000   1.0000   1.0000   1.0000   1.0000
     1.0000   1.0000   1.0000   1.0000   1.0000   1.0000   1.0000   1.0000
     1.0000   1.0000   1.0000   1.0000   1.0000   1.0000   1.0000   1.0000
     1.0000   1.0000   1.0000   1.0000   1.0000   1.0000   1.0000   1.0000
     1.0000   1.0000   1.0000   1.0000   1.0000   1.0000   1.0000   1.0000
     1.0000   1.0000   1.0000   1.0000   1.0000   1.0000   1.0000   1.0000
     1.0000   1.0000   1.0000   1.0000   1.0000   1.0000   1.0000   1.0000
     1.0000   1.0000   1.0000   1.0000   1.0000   1.0000   1.0000   1.0000
     1.0000   1.0000   1.0000   1.0000   1.0000   1.0000   1.0000   1.0000
     1.0000   1.0000   1.0000   1.0000   1.0000   1.0000   1.0000   1.0000
     1.0000   1.0000   1.0000   1.0000   1.0000   1.0000   1.0000   1.0000
     1.0000   1.0000   1.0000   1.0000   1.0000   1.0000   1.0000   1.0000
     1.0000   1.0000   1.0000   1.0000   1.0000   1.0000   1.0000   1.0000
     1.0000   1.0000   1.0000   1.0000   1.0000   1.0000   1.0000   1.0000
     1.0000   1.0000   1.0000   1.0000   1.0000   1.0000   1.0000   1.0000
     1.0000   1.0000   1.0000   1.0000   1.0000   1.0000   1.0000   1.0000
     1.0000   1.0000   1.0000   1.0000   1.0000   1.0000   1.0000   1.0000
     1.0000   1.0000   1.0000   1.0000   1.0000   1.0000   1.0000   1.0000
     1.0000   1.0000   1.0000   1.0000   1.0000   1.0000   1.0000   1.0000
     1.0000   1.0000   1.0000   1.0000   1.0000   1.0000   1.0000   1.0000
     1.0000   1.0000   1.0000   1.0000   1.0000   1.0000   1.0000   1.0000
     1.0000   1.0000   1.0000   1.0000   1.0000   1.0000   1.0000   1.0000
     1.0000   1.0000   1.0000   1.0000   1.0000   1.0000   1.0000   1.0000
     1.0000   1.0000   1.0000   1.0000   1.0000   1.0000   1.0000   1.0000
     1.0000   1.0000   1.0000   1.0000   1.0000   1.0000   1.0000   1.0000
     1.0000   1.0000   1.0000   1.0000   1.0000   1.0000   1.0000   1.0000
     1.0000   1.0000   1.0000   1.0000   1.0000   1.0000   1.0000   1.0000
     1.0000   1.0000   1.0000   1.0000   1.0000   1.0000   1.0000   1.0000
     1.0000   1.0000   1.0000   1.0000   1.0000   1.0000   1.0000   1.0000
     1.0000   1.0000   1.0000   1.0000   1.0000   1.0000   0.0000   0.0000
     0.0000   0.0000   0.0000   0.0000   0.0000   0.0000   0.0000   0.0000
     0.0000   0.0000   0.0000   0.0000   0.0000   0.0000   0.0000   0.0000
     0.0000   0.0000   0.0000   0.0000   0.0000   0.0000   0.0000   0.0000
     0.0000

 ------ SPIN DOWN ----------


          k = 0.0000 0.0000 0.0000 ( 51313 PWs)   bands (ev):

    -6.4676  -6.2015  -6.1940  -5.8543  -5.8393  -5.8393  -5.8207  -5.8207
    -5.7959  -5.7891  -5.7879  -5.7363  -5.7256  -5.7231  -5.7231  -5.7148
    -5.7148  -5.7108  -5.7108  -5.6938  -5.6938  -5.6852  -5.6768  -5.6536
    -5.6045  -5.5874  -5.5866  -5.5866  -5.5834  -5.5834  -5.5792  -5.5782
    -5.5782  -5.5720  -5.5720  -5.5665  -5.5639  -5.5639  -5.5636  -5.5587
    -5.5564  -5.5564  -5.5467  -5.5439  -5.5439  -5.5393  -5.5385  -5.5310
    -5.5277  -5.5054  -5.5054  -5.4772  -5.4772  -4.2181  -4.2073  -4.2054
    -4.2054  -4.1956  -4.1956  -4.1899  -4.1899  -4.1839  -4.1839  -4.1761
    -4.1761  -4.1745  -4.1659  -4.1659  -4.1649  -4.1582  -4.1582  -4.1546
    -4.1546  -4.1485  -4.1482  -4.1482  -4.1479  -4.1474  -4.1474  -4.1461
    -4.1461  -4.1437  -4.1428  -4.1428  -4.1418  -4.1401  -4.1401  -4.1356
    -4.1356  -4.1332  -4.1332  -4.1331  -4.1286  -4.1286  -4.1183  -4.1132
    -4.1132  -4.1112  -4.1112  -4.1103  -4.1093  -4.1084  -4.1079  -4.1079
    -4.1069  -4.1069  -4.1047  -4.1047  -4.1038  -4.1014  -4.0989  -4.0973
    -4.0973  -4.0967  -4.0967  -4.0916  -4.0828  -4.0804  -4.0768  -4.0768
    -4.0747  -4.0739  -4.0681  -4.0681  -4.0678  -4.0651  -4.0642  -4.0642
    -4.0588  -4.0554  -4.0554  -4.0467  -4.0467  -4.0464  -4.0412  -4.0412
    -4.0392  -4.0376  -4.0376  -4.0352  -4.0352  -4.0341  -4.0263  -4.0249
    -4.0249  -4.0235  -4.0235  -4.0206  -4.0164  -4.0164  -4.0156  -4.0125
    -4.0115  -4.0115  -4.0089  -4.0089  -4.0071  -4.0069  -4.0069  -4.0062
    -4.0055  -4.0017  -4.0006  -4.0006  -3.9966  -3.9966  -3.9956  -3.9956
    -3.9950  -3.9928  -3.9928  -3.9921  -3.9894  -3.9894  -3.9864  -3.9848
    -3.9848  -3.9844  -3.9813  -3.9813  -3.9787  -3.9777  -3.9777  -3.9687
    -3.9687  -3.9668  -3.9668  -3.9657  -3.9618  -3.9618  -3.9616  -3.9608
    -3.9591  -3.9591  -3.9586  -3.9580  -3.9580  -3.9560  -3.9557  -3.9557
    -3.9539  -3.9539  -3.9521  -3.9464  -3.9464  -3.9450  -3.9442  -3.9442
    -3.9410  -3.9410  -3.9398  -3.9398  -3.9358  -3.9358  -3.9338  -3.9338
    -3.9316  -3.9265  -3.9262  -3.9262  -3.9247  -3.9224  -3.9224  -3.9207
    -3.9207  -3.9193  -3.9177  -3.9157  -3.9148  -3.9148  -3.9047  -3.9047
    -3.9026  -3.9026  -3.9023  -3.9013  -3.9008  -3.9008  -3.8987  -3.8987
    -3.8949  -3.8949  -3.8938  -3.8867  -3.8860  -3.8860  -3.8823  -3.8823
    -3.8788  -3.8779  -3.8779  -3.8725  -3.8725  -3.8678  -3.8659  -3.8659
    -3.8649  -3.8649  -3.8636  -3.8461  -3.8351  -3.8351  -3.8039  -3.7715
    -3.7715  -3.7529  -3.7529  -3.7171  -3.7171  -3.7141  -3.6930  -3.5717
    -3.5717  -3.5287  -3.5039  -3.5039  -3.4878  -3.4878  -3.4688  -3.3961
    -3.3856  -3.3213  -3.3120  -3.3085  -3.3085  -3.2943  -3.2943  -3.2852
    -3.2852  -3.2728  -3.2583  -3.2583  -3.1171  -2.6453  -2.6355  -2.6332
    -2.6311  -2.6311  -2.6219  -2.6219  -2.6083  -2.6083  -2.5966  -2.5966
    -2.5898  -2.4633  -2.2043  -2.2033  -2.2015  -2.2015  -2.1958  -2.1958
    -2.1925  -2.1922  -2.1877  -2.1719  -2.1719  -2.1307  -2.1110  -2.1007
    -2.1007  -2.0660  -2.0660   0.0027   2.3954   3.3725   3.3725   3.3736
     3.3768   3.3787   3.3824   3.3824   3.3858   3.4049   3.4136   3.4136
     3.4476   3.4476   3.4610   3.5073   3.5125   3.5125   3.5127   3.5226
     3.5226   3.5270   3.5270   3.6049   3.6049   3.6159   3.6609   3.9976
     4.0015   4.0170   4.0170   4.0367   4.0484   4.1826   4.1826   4.3746
     4.3755   4.3794   4.3794   4.3907   4.3907   4.3941   4.3941   4.4453
     4.4453   4.4466   4.4873   4.5206   4.5206   4.5594   4.5594   4.5878
     4.6714   4.6714   4.7316   4.7316   4.7347   5.4035   5.4035   5.4103
     5.4484   5.4484   5.5589   5.8596   5.8596   5.8872   5.8872   6.1518
     6.1575   6.1626   6.1626   6.1660   6.1660   6.1778   6.1778   6.2254
     6.2260   6.2260   6.2632   6.3743   6.3943   6.3943   6.4997   6.6530
     6.6530   6.9536   6.9575   6.9575   6.9847   6.9952   7.0289   7.0289
     7.0376   7.3017   7.3046   7.3046   7.3075   7.3118   7.3118   7.3347
     7.3367   7.3372   7.3372   7.4449   7.4449   7.4726   7.4870   7.4896
     7.4896   7.4941   7.5408   7.5408   7.5687   7.9545   7.9683   7.9686
     7.9686   7.9719   7.9719   7.9795   7.9795   8.0134   8.0204   8.0204
     8.0233   8.0287   8.0318   8.0318   8.0568   8.0568   8.0781   8.0809
     8.0809   8.0841   8.0889   8.0889   8.1088   8.1163   8.1165   8.1165
     8.2119   8.2119   8.3288   8.3288   8.5098   8.5098   8.5186   8.5186
     8.5225   8.5287   8.5287   8.5532   8.7806   8.7976   8.7976   9.0104
     9.0104   9.1657   9.1657   9.3764   9.5524   9.5524  11.0214  12.6908
    12.7110  13.3351  13.4643  13.4740  13.5378  13.5401  13.5401  13.5484
    13.5527  13.5527  13.5591  13.5591  13.5742  13.5742  13.5889  13.7525
    13.9506  13.9565  13.9565  14.0081  14.0081  14.2186  14.4539  14.4539
    14.6810

     occupation numbers 
     1.0000   1.0000   1.0000   1.0000   1.0000   1.0000   1.0000   1.0000
     1.0000   1.0000   1.0000   1.0000   1.0000   1.0000   1.0000   1.0000
     1.0000   1.0000   1.0000   1.0000   1.0000   1.0000   1.0000   1.0000
     1.0000   1.0000   1.0000   1.0000   1.0000   1.0000   1.0000   1.0000
     1.0000   1.0000   1.0000   1.0000   1.0000   1.0000   1.0000   1.0000
     1.0000   1.0000   1.0000   1.0000   1.0000   1.0000   1.0000   1.0000
     1.0000   1.0000   1.0000   1.0000   1.0000   1.0000   1.0000   1.0000
     1.0000   1.0000   1.0000   1.0000   1.0000   1.0000   1.0000   1.0000
     1.0000   1.0000   1.0000   1.0000   1.0000   1.0000   1.0000   1.0000
     1.0000   1.0000   1.0000   1.0000   1.0000   1.0000   1.0000   1.0000
     1.0000   1.0000   1.0000   1.0000   1.0000   1.0000   1.0000   1.0000
     1.0000   1.0000   1.0000   1.0000   1.0000   1.0000   1.0000   1.0000
     1.0000   1.0000   1.0000   1.0000   1.0000   1.0000   1.0000   1.0000
     1.0000   1.0000   1.0000   1.0000   1.0000   1.0000   1.0000   1.0000
     1.0000   1.0000   1.0000   1.0000   1.0000   1.0000   1.0000   1.0000
     1.0000   1.0000   1.0000   1.0000   1.0000   1.0000   1.0000   1.0000
     1.0000   1.0000   1.0000   1.0000   1.0000   1.0000   1.0000   1.0000
     1.0000   1.0000   1.0000   1.0000   1.0000   1.0000   1.0000   1.0000
     1.0000   1.0000   1.0000   1.0000   1.0000   1.0000   1.0000   1.0000
     1.0000   1.0000   1.0000   1.0000   1.0000   1.0000   1.0000   1.0000
     1.0000   1.0000   1.0000   1.0000   1.0000   1.0000   1.0000   1.0000
     1.0000   1.0000   1.0000   1.0000   1.0000   1.0000   1.0000   1.0000
     1.0000   1.0000   1.0000   1.0000   1.0000   1.0000   1.0000   1.0000
     1.0000   1.0000   1.0000   1.0000   1.0000   1.0000   1.0000   1.0000
     1.0000   1.0000   1.0000   1.0000   1.0000   1.0000   1.0000   1.0000
     1.0000   1.0000   1.0000   1.0000   1.0000   1.0000   1.0000   1.0000
     1.0000   1.0000   1.0000   1.0000   1.0000   1.0000   1.0000   1.0000
     1.0000   1.0000   1.0000   1.0000   1.0000   1.0000   1.0000   1.0000
     1.0000   1.0000   1.0000   1.0000   1.0000   1.0000   1.0000   1.0000
     1.0000   1.0000   1.0000   1.0000   1.0000   1.0000   1.0000   1.0000
     1.0000   1.0000   1.0000   1.0000   1.0000   1.0000   1.0000   1.0000
     1.0000   1.0000   1.0000   1.0000   1.0000   1.0000   1.0000   1.0000
     1.0000   1.0000   1.0000   1.0000   1.0000   1.0000   1.0000   1.0000
     1.0000   1.0000   1.0000   1.0000   1.0000   1.0000   1.0000   1.0000
     1.0000   1.0000   1.0000   1.0000   1.0000   1.0000   1.0000   1.0000
     1.0000   1.0000   1.0000   1.0000   1.0000   1.0000   1.0000   1.0000
     1.0000   1.0000   1.0000   1.0000   1.0000   1.0000   1.0000   1.0000
     1.0000   1.0000   1.0000   1.0000   1.0000   1.0000   1.0000   1.0000
     1.0000   1.0000   1.0000   1.0000   1.0000   1.0000   1.0000   1.0000
     1.0000   1.0000   1.0000   1.0000   1.0000   1.0000   1.0000   1.0000
     1.0000   1.0000   1.0000   1.0000   1.0000   1.0000   1.0000   1.0000
     1.0000   1.0000   1.0000   1.0000   1.0000   1.0000   1.0000   1.0000
     1.0000   1.0000   1.0000   1.0000   1.0000   1.0000   1.0000   1.0000
     1.0000   1.0000   1.0000   1.0000   1.0000   1.0000   1.0000   1.0000
     1.0000   1.0000   1.0000   1.0000   1.0000   1.0000   1.0000   1.0000
     1.0000   1.0000   1.0000   1.0000   1.0000   1.0000   1.0000   1.0000
     1.0000   1.0000   1.0000   1.0000   1.0000   1.0000   1.0000   1.0000
     1.0000   1.0000   1.0000   1.0000   1.0000   1.0000   1.0000   1.0000
     1.0000   1.0000   1.0000   1.0000   1.0000   1.0000   1.0000   1.0000
     1.0000   1.0000   1.0000   1.0000   1.0000   1.0000   1.0000   1.0000
     1.0000   1.0000   1.0000   1.0000   1.0000   1.0000   1.0000   1.0000
     1.0000   1.0000   1.0000   1.0000   1.0000   1.0000   1.0000   1.0000
     1.0000   1.0000   1.0000   1.0000   1.0000   1.0000   1.0000   1.0000
     1.0000   1.0000   1.0000   1.0000   1.0000   1.0000   1.0000   1.0000
     1.0000   1.0000   1.0000   1.0000   1.0000   1.0000   1.0000   1.0000
     1.0000   1.0000   1.0000   1.0000   1.0000   1.0000   1.0000   1.0000
     1.0000   1.0000   1.0000   1.0000   1.0000   1.0000   1.0000   1.0000
     1.0000   1.0000   1.0000   1.0000   1.0000   1.0000   1.0000   1.0000
     1.0000   1.0000   1.0000   1.0000   1.0000   1.0000   1.0000   1.0000
     1.0000   1.0000   1.0000   1.0000   1.0000   1.0000   1.0000   1.0000
     1.0000   1.0000   1.0000   0.7627   0.0000   0.0000   0.0000   0.0000
     0.0000   0.0000   0.0000   0.0000   0.0000   0.0000   0.0000   0.0000
     0.0000   0.0000   0.0000   0.0000   0.0000   0.0000   0.0000   0.0000
     0.0000   0.0000   0.0000   0.0000   0.0000   0.0000   0.0000   0.0000
     0.0000

          k = 0.0000 0.0000-0.3067 ( 51390 PWs)   bands (ev):

    -6.4026  -6.3831  -5.9651  -5.9645  -5.8308  -5.8090  -5.8090  -5.8034
    -5.7985  -5.7985  -5.7911  -5.7911  -5.7860  -5.7804  -5.7804  -5.7172
    -5.7048  -5.6971  -5.6528  -5.6421  -5.6421  -5.6400  -5.6281  -5.6281
    -5.6234  -5.6234  -5.6126  -5.6112  -5.6112  -5.5963  -5.5827  -5.5767
    -5.5767  -5.5655  -5.5655  -5.5622  -5.5607  -5.5607  -5.5591  -5.5577
    -5.5558  -5.5558  -5.5531  -5.5515  -5.5452  -5.5452  -5.5385  -5.5253
    -5.5238  -5.5048  -5.5048  -5.4769  -5.4769  -4.2142  -4.2043  -4.2043
    -4.1973  -4.1913  -4.1913  -4.1866  -4.1866  -4.1814  -4.1796  -4.1796
    -4.1762  -4.1762  -4.1753  -4.1753  -4.1704  -4.1704  -4.1701  -4.1613
    -4.1560  -4.1560  -4.1490  -4.1490  -4.1466  -4.1463  -4.1463  -4.1450
    -4.1437  -4.1437  -4.1429  -4.1429  -4.1423  -4.1404  -4.1401  -4.1401
    -4.1356  -4.1356  -4.1343  -4.1343  -4.1296  -4.1276  -4.1276  -4.1248
    -4.1244  -4.1244  -4.1209  -4.1209  -4.1207  -4.1157  -4.1151  -4.1135
    -4.1135  -4.1010  -4.0912  -4.0912  -4.0882  -4.0857  -4.0831  -4.0831
    -4.0787  -4.0783  -4.0783  -4.0766  -4.0766  -4.0734  -4.0734  -4.0722
    -4.0707  -4.0707  -4.0694  -4.0694  -4.0688  -4.0688  -4.0680  -4.0650
    -4.0625  -4.0625  -4.0593  -4.0587  -4.0545  -4.0545  -4.0523  -4.0447
    -4.0443  -4.0394  -4.0394  -4.0370  -4.0321  -4.0321  -4.0290  -4.0290
    -4.0275  -4.0251  -4.0251  -4.0243  -4.0187  -4.0187  -4.0145  -4.0103
    -4.0103  -4.0096  -4.0090  -4.0090  -4.0068  -4.0068  -4.0057  -4.0041
    -4.0041  -4.0034  -4.0005  -4.0005  -4.0003  -3.9973  -3.9965  -3.9965
    -3.9906  -3.9906  -3.9850  -3.9841  -3.9835  -3.9835  -3.9802  -3.9787
    -3.9787  -3.9774  -3.9774  -3.9765  -3.9758  -3.9758  -3.9667  -3.9667
    -3.9650  -3.9650  -3.9642  -3.9639  -3.9639  -3.9628  -3.9616  -3.9616
    -3.9607  -3.9599  -3.9599  -3.9598  -3.9573  -3.9573  -3.9566  -3.9548
    -3.9548  -3.9537  -3.9493  -3.9493  -3.9479  -3.9449  -3.9449  -3.9404
    -3.9404  -3.9372  -3.9372  -3.9349  -3.9349  -3.9338  -3.9301  -3.9301
    -3.9298  -3.9248  -3.9232  -3.9224  -3.9224  -3.9220  -3.9209  -3.9209
    -3.9184  -3.9169  -3.9169  -3.9160  -3.9160  -3.9102  -3.9097  -3.9097
    -3.9060  -3.9060  -3.9043  -3.9043  -3.9011  -3.9001  -3.8969  -3.8969
    -3.8945  -3.8945  -3.8843  -3.8843  -3.8830  -3.8803  -3.8803  -3.8773
    -3.8772  -3.8772  -3.8757  -3.8757  -3.8707  -3.8657  -3.8657  -3.8651
    -3.8651  -3.8621  -3.8528  -3.8464  -3.8351  -3.8351  -3.8065  -3.7861
    -3.7715  -3.7715  -3.7528  -3.7528  -3.7171  -3.7171  -3.7141  -3.6771
    -3.5709  -3.5709  -3.4867  -3.4700  -3.4665  -3.4665  -3.4561  -3.4561
    -3.4530  -3.4471  -3.4471  -3.4159  -3.4159  -3.3407  -3.0336  -3.0241
    -3.0241  -3.0232  -3.0077  -3.0077  -2.9980  -2.9980  -2.9827  -2.9725
    -2.9725  -2.9081  -2.8815  -2.7709  -2.2841  -2.2637  -2.2637  -2.2607
    -2.2554  -2.2554  -2.2506  -2.2506  -2.2430  -2.2430  -2.2405  -2.2358
    -2.2035  -2.2030  -2.2000  -2.2000  -2.1930  -2.1912  -2.1872  -2.1821
    -2.1821  -2.1517  -2.1517  -0.0018   2.8652   2.8714   3.2248   3.2323
     3.2325   3.2325   3.3746   3.3853   3.3853   3.3872   3.3926   3.3926
     3.4026   3.4026   3.4311   3.4371   3.4371   3.5092   3.7464   3.7496
     3.7496   3.7505   3.7507   3.7685   3.7685   3.7776   3.8650   3.8694
     3.8694   3.8715   3.8821   3.8821   3.8895   3.8895   3.9737   3.9737
     3.9915   4.0616   4.2991   4.2991   4.3341   4.3341   4.7232   4.7232
     4.7278   4.7341   4.7341   4.7372   4.7433   4.7433   4.7745   4.8075
     4.8075   4.9463   5.2238   5.2238   5.2408   5.2408   5.3718   5.3718
     5.3791   5.3813   5.3813   5.3878   5.3916   5.3916   5.4055   5.4270
     5.4704   5.4704   5.5319   5.6260   6.4055   6.4055   6.4415   6.4415
     6.7653   6.7797   6.7846   6.7846   6.7888   6.7933   6.7933   6.8628
     7.0357   7.0424   7.0424   7.0559   7.0565   7.0565   7.0657   7.0660
     7.0660   7.0891   7.1749   7.1749   7.2105   7.2174   7.2174   7.2202
     7.2308   7.2308   7.2316   7.2316   7.2902   7.3133   7.3133   7.4279
     7.6773   7.6789   7.6789   7.6791   7.6849   7.6849   7.7037   7.7149
     7.7165   7.7165   7.8054   7.8054   7.8225   7.8779   7.8901   7.8901
     8.0981   8.1104   8.1104   8.1212   8.1262   8.1262   8.1403   8.1474
     8.1474   8.1540   8.1540   8.3254   8.3280   8.3280   8.3543   8.3543
     8.3896   8.3978   8.3978   8.4097   8.4106   8.4106   8.4206   8.4218
     8.4218   8.4302   8.4408   8.6286   8.6286   8.7586   8.7586   8.9728
     8.9728   9.0235   9.1957   9.1957   9.5465   9.5465  11.6932  11.7526
    13.3253  13.3278  13.3777  13.4150  13.6703  13.6791  13.6791  13.6872
    13.6872  13.6874  13.6921  13.6952  13.6953  13.7439  13.7439  13.8523
    14.0057  14.0061  14.0066  14.0143  14.0168  14.0213  14.0321  14.0361
    14.0435

     occupation numbers 
     1.0000   1.0000   1.0000   1.0000   1.0000   1.0000   1.0000   1.0000
     1.0000   1.0000   1.0000   1.0000   1.0000   1.0000   1.0000   1.0000
     1.0000   1.0000   1.0000   1.0000   1.0000   1.0000   1.0000   1.0000
     1.0000   1.0000   1.0000   1.0000   1.0000   1.0000   1.0000   1.0000
     1.0000   1.0000   1.0000   1.0000   1.0000   1.0000   1.0000   1.0000
     1.0000   1.0000   1.0000   1.0000   1.0000   1.0000   1.0000   1.0000
     1.0000   1.0000   1.0000   1.0000   1.0000   1.0000   1.0000   1.0000
     1.0000   1.0000   1.0000   1.0000   1.0000   1.0000   1.0000   1.0000
     1.0000   1.0000   1.0000   1.0000   1.0000   1.0000   1.0000   1.0000
     1.0000   1.0000   1.0000   1.0000   1.0000   1.0000   1.0000   1.0000
     1.0000   1.0000   1.0000   1.0000   1.0000   1.0000   1.0000   1.0000
     1.0000   1.0000   1.0000   1.0000   1.0000   1.0000   1.0000   1.0000
     1.0000   1.0000   1.0000   1.0000   1.0000   1.0000   1.0000   1.0000
     1.0000   1.0000   1.0000   1.0000   1.0000   1.0000   1.0000   1.0000
     1.0000   1.0000   1.0000   1.0000   1.0000   1.0000   1.0000   1.0000
     1.0000   1.0000   1.0000   1.0000   1.0000   1.0000   1.0000   1.0000
     1.0000   1.0000   1.0000   1.0000   1.0000   1.0000   1.0000   1.0000
     1.0000   1.0000   1.0000   1.0000   1.0000   1.0000   1.0000   1.0000
     1.0000   1.0000   1.0000   1.0000   1.0000   1.0000   1.0000   1.0000
     1.0000   1.0000   1.0000   1.0000   1.0000   1.0000   1.0000   1.0000
     1.0000   1.0000   1.0000   1.0000   1.0000   1.0000   1.0000   1.0000
     1.0000   1.0000   1.0000   1.0000   1.0000   1.0000   1.0000   1.0000
     1.0000   1.0000   1.0000   1.0000   1.0000   1.0000   1.0000   1.0000
     1.0000   1.0000   1.0000   1.0000   1.0000   1.0000   1.0000   1.0000
     1.0000   1.0000   1.0000   1.0000   1.0000   1.0000   1.0000   1.0000
     1.0000   1.0000   1.0000   1.0000   1.0000   1.0000   1.0000   1.0000
     1.0000   1.0000   1.0000   1.0000   1.0000   1.0000   1.0000   1.0000
     1.0000   1.0000   1.0000   1.0000   1.0000   1.0000   1.0000   1.0000
     1.0000   1.0000   1.0000   1.0000   1.0000   1.0000   1.0000   1.0000
     1.0000   1.0000   1.0000   1.0000   1.0000   1.0000   1.0000   1.0000
     1.0000   1.0000   1.0000   1.0000   1.0000   1.0000   1.0000   1.0000
     1.0000   1.0000   1.0000   1.0000   1.0000   1.0000   1.0000   1.0000
     1.0000   1.0000   1.0000   1.0000   1.0000   1.0000   1.0000   1.0000
     1.0000   1.0000   1.0000   1.0000   1.0000   1.0000   1.0000   1.0000
     1.0000   1.0000   1.0000   1.0000   1.0000   1.0000   1.0000   1.0000
     1.0000   1.0000   1.0000   1.0000   1.0000   1.0000   1.0000   1.0000
     1.0000   1.0000   1.0000   1.0000   1.0000   1.0000   1.0000   1.0000
     1.0000   1.0000   1.0000   1.0000   1.0000   1.0000   1.0000   1.0000
     1.0000   1.0000   1.0000   1.0000   1.0000   1.0000   1.0000   1.0000
     1.0000   1.0000   1.0000   1.0000   1.0000   1.0000   1.0000   1.0000
     1.0000   1.0000   1.0000   1.0000   1.0000   1.0000   1.0000   1.0000
     1.0000   1.0000   1.0000   1.0000   1.0000   1.0000   1.0000   1.0000
     1.0000   1.0000   1.0000   1.0000   1.0000   1.0000   1.0000   1.0000
     1.0000   1.0000   1.0000   1.0000   1.0000   1.0000   1.0000   1.0000
     1.0000   1.0000   1.0000   1.0000   1.0000   1.0000   1.0000   1.0000
     1.0000   1.0000   1.0000   1.0000   1.0000   1.0000   1.0000   1.0000
     1.0000   1.0000   1.0000   1.0000   1.0000   1.0000   1.0000   1.0000
     1.0000   1.0000   1.0000   1.0000   1.0000   1.0000   1.0000   1.0000
     1.0000   1.0000   1.0000   1.0000   1.0000   1.0000   1.0000   1.0000
     1.0000   1.0000   1.0000   1.0000   1.0000   1.0000   1.0000   1.0000
     1.0000   1.0000   1.0000   1.0000   1.0000   1.0000   1.0000   1.0000
     1.0000   1.0000   1.0000   1.0000   1.0000   1.0000   1.0000   1.0000
     1.0000   1.0000   1.0000   1.0000   1.0000   1.0000   1.0000   1.0000
     1.0000   1.0000   1.0000   1.0000   1.0000   1.0000   1.0000   1.0000
     1.0000   1.0000   1.0000   1.0000   1.0000   1.0000   1.0000   1.0000
     1.0000   1.0000   1.0000   1.0000   1.0000   1.0000   1.0000   1.0000
     1.0000   1.0000   1.0000   1.0000   1.0000   1.0000   1.0000   1.0000
     1.0000   1.0000   1.0000   1.0000   1.0000   1.0000   1.0000   1.0000
     1.0000   1.0000   1.0000   1.0000   1.0000   1.0000   1.0000   1.0000
     1.0000   1.0000   1.0000   1.0000   1.0000   1.0000   1.0000   1.0000
     1.0000   1.0000   1.0000   1.0000   0.0000   0.0000   0.0000   0.0000
     0.0000   0.0000   0.0000   0.0000   0.0000   0.0000   0.0000   0.0000
     0.0000   0.0000   0.0000   0.0000   0.0000   0.0000   0.0000   0.0000
     0.0000   0.0000   0.0000   0.0000   0.0000   0.0000   0.0000   0.0000
     0.0000

          k = 0.0000 0.3849 0.0000 ( 51300 PWs)   bands (ev):

    -6.3589  -6.1166  -6.1109  -6.0812  -5.9183  -5.9086  -5.9000  -5.8760
    -5.7683  -5.7664  -5.7661  -5.7636  -5.7444  -5.7383  -5.7199  -5.7151
    -5.6894  -5.6594  -5.6519  -5.6500  -5.6432  -5.6389  -5.6374  -5.6363
    -5.6285  -5.6266  -5.6129  -5.6081  -5.6033  -5.5985  -5.5944  -5.5899
    -5.5897  -5.5742  -5.5726  -5.5678  -5.5674  -5.5637  -5.5607  -5.5580
    -5.5513  -5.5495  -5.5443  -5.5424  -5.5402  -5.5378  -5.5340  -5.5315
    -5.5225  -5.5037  -5.5036  -5.4767  -5.4758  -4.2101  -4.2045  -4.1965
    -4.1901  -4.1853  -4.1851  -4.1811  -4.1778  -4.1737  -4.1700  -4.1682
    -4.1656  -4.1655  -4.1632  -4.1604  -4.1595  -4.1571  -4.1544  -4.1527
    -4.1513  -4.1502  -4.1475  -4.1472  -4.1444  -4.1438  -4.1421  -4.1417
    -4.1389  -4.1387  -4.1379  -4.1364  -4.1357  -4.1352  -4.1330  -4.1329
    -4.1317  -4.1309  -4.1301  -4.1287  -4.1266  -4.1260  -4.1239  -4.1229
    -4.1215  -4.1202  -4.1178  -4.1175  -4.1145  -4.1141  -4.1127  -4.1115
    -4.1114  -4.1096  -4.1075  -4.1048  -4.1047  -4.1018  -4.1017  -4.0998
    -4.0989  -4.0974  -4.0951  -4.0949  -4.0922  -4.0895  -4.0879  -4.0846
    -4.0833  -4.0820  -4.0805  -4.0788  -4.0776  -4.0739  -4.0711  -4.0710
    -4.0688  -4.0678  -4.0640  -4.0630  -4.0617  -4.0607  -4.0573  -4.0564
    -4.0502  -4.0454  -4.0453  -4.0425  -4.0409  -4.0408  -4.0372  -4.0335
    -4.0289  -4.0274  -4.0264  -4.0254  -4.0218  -4.0199  -4.0186  -4.0160
    -4.0145  -4.0137  -4.0110  -4.0108  -4.0089  -4.0087  -4.0068  -4.0056
    -4.0028  -4.0013  -4.0004  -3.9995  -3.9986  -3.9973  -3.9968  -3.9942
    -3.9930  -3.9920  -3.9904  -3.9900  -3.9892  -3.9885  -3.9863  -3.9853
    -3.9845  -3.9831  -3.9826  -3.9813  -3.9803  -3.9792  -3.9789  -3.9771
    -3.9747  -3.9739  -3.9730  -3.9718  -3.9705  -3.9694  -3.9673  -3.9653
    -3.9619  -3.9593  -3.9575  -3.9575  -3.9566  -3.9544  -3.9544  -3.9535
    -3.9507  -3.9504  -3.9495  -3.9493  -3.9463  -3.9451  -3.9444  -3.9413
    -3.9400  -3.9372  -3.9360  -3.9331  -3.9327  -3.9321  -3.9288  -3.9285
    -3.9264  -3.9260  -3.9210  -3.9209  -3.9193  -3.9190  -3.9162  -3.9148
    -3.9140  -3.9128  -3.9120  -3.9093  -3.9058  -3.9057  -3.9048  -3.9043
    -3.9034  -3.9019  -3.9002  -3.8991  -3.8990  -3.8977  -3.8964  -3.8948
    -3.8933  -3.8928  -3.8923  -3.8904  -3.8880  -3.8879  -3.8869  -3.8860
    -3.8818  -3.8816  -3.8798  -3.8770  -3.8743  -3.8721  -3.8709  -3.8706
    -3.8660  -3.8646  -3.8633  -3.8573  -3.8500  -3.8270  -3.8264  -3.7966
    -3.7889  -3.7718  -3.7581  -3.7512  -3.7304  -3.7228  -3.7193  -3.7133
    -3.6997  -3.6750  -3.6566  -3.6558  -3.5700  -3.5635  -3.4637  -3.4604
    -3.4488  -3.4356  -3.2903  -3.2747  -3.1123  -3.1037  -3.0100  -3.0005
    -2.9278  -2.9268  -2.9208  -2.9168  -2.8609  -2.7497  -2.7478  -2.7477
    -2.7448  -2.7399  -2.6877  -2.6070  -2.5898  -2.5373  -2.4855  -2.4843
    -2.4805  -2.4605  -2.3873  -2.3836  -2.3777  -2.3773  -2.3400  -2.3258
    -2.2661  -2.1847  -2.1770  -2.1765  -2.1690  -2.1468  -2.1162  -2.0664
    -2.0257  -2.0102  -1.9972   0.0100   2.5628   2.7773   2.7867   3.0229
     3.0336   3.1251   3.1312   3.1316   3.1428   3.1578   3.1808   3.1823
     3.1947   3.3445   3.3478   3.3799   3.3888   3.4077   3.4261   3.5013
     3.5085   3.5134   3.5334   3.5423   3.5613   3.8241   3.8291   3.8354
     3.8622   3.9058   3.9346   3.9471   3.9489   4.0851   4.0943   4.1431
     4.1589   4.1835   4.2069   4.2615   4.4270   4.4807   4.9501   4.9592
     4.9609   4.9893   5.0060   5.0338   5.0743   5.0746   5.1077   5.1221
     5.1593   5.2907   5.2974   5.3186   5.3305   5.7063   5.7210   5.7406
     5.7487   5.7749   5.7828   5.8846   6.2223   6.2314   6.2320   6.2354
     6.2724   6.2817   6.2886   6.3054   6.3115   6.3270   6.3576   6.3611
     6.3835   6.4171   6.4826   6.4925   6.5819   6.6015   6.6826   6.7415
     6.7628   6.7897   6.7970   6.7992   6.8218   6.8614   6.9192   6.9590
     7.0135   7.0319   7.0424   7.0443   7.0469   7.0672   7.0702   7.0951
     7.1159   7.1188   7.1212   7.1560   7.1603   7.2229   7.3127   7.3942
     7.4026   7.4096   7.4214   7.4944   7.5227   7.6074   7.6359   7.7796
     7.7862   7.7891   7.7999   7.8060   7.8107   7.8159   7.8237   7.8285
     7.8498   7.8534   7.8584   7.8610   7.8939   7.9109   7.9327   7.9934
     7.9951   7.9971   8.0096   8.0524   8.0717   8.0786   8.1432   8.1641
     8.1675   8.2022   8.2250   8.2864   8.2955   8.3078   8.3143   8.3516
     8.3527   8.4043   8.4831   8.4954   8.5223   8.6292   8.6372   8.8569
     8.8624   8.8974   9.0003   9.0626   9.3210   9.4567  11.9265  13.1208
    13.1542  13.1792  13.3233  13.3552  13.6783  13.7044  13.8854  13.8906
    13.8918  13.9105  13.9733  13.9751  14.0299  14.0373  14.0449  14.0648
    14.0888  14.1276  14.1875  14.2282  14.2415  14.3802  14.6574  14.7448
    14.7624

     occupation numbers 
     1.0000   1.0000   1.0000   1.0000   1.0000   1.0000   1.0000   1.0000
     1.0000   1.0000   1.0000   1.0000   1.0000   1.0000   1.0000   1.0000
     1.0000   1.0000   1.0000   1.0000   1.0000   1.0000   1.0000   1.0000
     1.0000   1.0000   1.0000   1.0000   1.0000   1.0000   1.0000   1.0000
     1.0000   1.0000   1.0000   1.0000   1.0000   1.0000   1.0000   1.0000
     1.0000   1.0000   1.0000   1.0000   1.0000   1.0000   1.0000   1.0000
     1.0000   1.0000   1.0000   1.0000   1.0000   1.0000   1.0000   1.0000
     1.0000   1.0000   1.0000   1.0000   1.0000   1.0000   1.0000   1.0000
     1.0000   1.0000   1.0000   1.0000   1.0000   1.0000   1.0000   1.0000
     1.0000   1.0000   1.0000   1.0000   1.0000   1.0000   1.0000   1.0000
     1.0000   1.0000   1.0000   1.0000   1.0000   1.0000   1.0000   1.0000
     1.0000   1.0000   1.0000   1.0000   1.0000   1.0000   1.0000   1.0000
     1.0000   1.0000   1.0000   1.0000   1.0000   1.0000   1.0000   1.0000
     1.0000   1.0000   1.0000   1.0000   1.0000   1.0000   1.0000   1.0000
     1.0000   1.0000   1.0000   1.0000   1.0000   1.0000   1.0000   1.0000
     1.0000   1.0000   1.0000   1.0000   1.0000   1.0000   1.0000   1.0000
     1.0000   1.0000   1.0000   1.0000   1.0000   1.0000   1.0000   1.0000
     1.0000   1.0000   1.0000   1.0000   1.0000   1.0000   1.0000   1.0000
     1.0000   1.0000   1.0000   1.0000   1.0000   1.0000   1.0000   1.0000
     1.0000   1.0000   1.0000   1.0000   1.0000   1.0000   1.0000   1.0000
     1.0000   1.0000   1.0000   1.0000   1.0000   1.0000   1.0000   1.0000
     1.0000   1.0000   1.0000   1.0000   1.0000   1.0000   1.0000   1.0000
     1.0000   1.0000   1.0000   1.0000   1.0000   1.0000   1.0000   1.0000
     1.0000   1.0000   1.0000   1.0000   1.0000   1.0000   1.0000   1.0000
     1.0000   1.0000   1.0000   1.0000   1.0000   1.0000   1.0000   1.0000
     1.0000   1.0000   1.0000   1.0000   1.0000   1.0000   1.0000   1.0000
     1.0000   1.0000   1.0000   1.0000   1.0000   1.0000   1.0000   1.0000
     1.0000   1.0000   1.0000   1.0000   1.0000   1.0000   1.0000   1.0000
     1.0000   1.0000   1.0000   1.0000   1.0000   1.0000   1.0000   1.0000
     1.0000   1.0000   1.0000   1.0000   1.0000   1.0000   1.0000   1.0000
     1.0000   1.0000   1.0000   1.0000   1.0000   1.0000   1.0000   1.0000
     1.0000   1.0000   1.0000   1.0000   1.0000   1.0000   1.0000   1.0000
     1.0000   1.0000   1.0000   1.0000   1.0000   1.0000   1.0000   1.0000
     1.0000   1.0000   1.0000   1.0000   1.0000   1.0000   1.0000   1.0000
     1.0000   1.0000   1.0000   1.0000   1.0000   1.0000   1.0000   1.0000
     1.0000   1.0000   1.0000   1.0000   1.0000   1.0000   1.0000   1.0000
     1.0000   1.0000   1.0000   1.0000   1.0000   1.0000   1.0000   1.0000
     1.0000   1.0000   1.0000   1.0000   1.0000   1.0000   1.0000   1.0000
     1.0000   1.0000   1.0000   1.0000   1.0000   1.0000   1.0000   1.0000
     1.0000   1.0000   1.0000   1.0000   1.0000   1.0000   1.0000   1.0000
     1.0000   1.0000   1.0000   1.0000   1.0000   1.0000   1.0000   1.0000
     1.0000   1.0000   1.0000   1.0000   1.0000   1.0000   1.0000   1.0000
     1.0000   1.0000   1.0000   1.0000   1.0000   1.0000   1.0000   1.0000
     1.0000   1.0000   1.0000   1.0000   1.0000   1.0000   1.0000   1.0000
     1.0000   1.0000   1.0000   1.0000   1.0000   1.0000   1.0000   1.0000
     1.0000   1.0000   1.0000   1.0000   1.0000   1.0000   1.0000   1.0000
     1.0000   1.0000   1.0000   1.0000   1.0000   1.0000   1.0000   1.0000
     1.0000   1.0000   1.0000   1.0000   1.0000   1.0000   1.0000   1.0000
     1.0000   1.0000   1.0000   1.0000   1.0000   1.0000   1.0000   1.0000
     1.0000   1.0000   1.0000   1.0000   1.0000   1.0000   1.0000   1.0000
     1.0000   1.0000   1.0000   1.0000   1.0000   1.0000   1.0000   1.0000
     1.0000   1.0000   1.0000   1.0000   1.0000   1.0000   1.0000   1.0000
     1.0000   1.0000   1.0000   1.0000   1.0000   1.0000   1.0000   1.0000
     1.0000   1.0000   1.0000   1.0000   1.0000   1.0000   1.0000   1.0000
     1.0000   1.0000   1.0000   1.0000   1.0000   1.0000   1.0000   1.0000
     1.0000   1.0000   1.0000   1.0000   1.0000   1.0000   1.0000   1.0000
     1.0000   1.0000   1.0000   1.0000   1.0000   1.0000   1.0000   1.0000
     1.0000   1.0000   1.0000   1.0000   1.0000   1.0000   1.0000   1.0000
     1.0000   1.0000   1.0000   1.0000   1.0000   1.0000   1.0000   1.0000
     1.0000   1.0000   1.0000   1.0000   1.0000   1.0000   1.0000   1.0000
     1.0000   1.0000   1.0000   1.0000   0.9998   0.0003   0.0000   0.0000
     0.0000   0.0000   0.0000   0.0000   0.0000   0.0000   0.0000   0.0000
     0.0000   0.0000   0.0000   0.0000   0.0000   0.0000   0.0000   0.0000
     0.0000   0.0000   0.0000   0.0000   0.0000   0.0000   0.0000   0.0000
     0.0000

          k = 0.0000 0.3849-0.3067 ( 51248 PWs)   bands (ev):

    -6.2968  -6.2821  -6.0414  -6.0313  -5.9029  -5.8997  -5.8705  -5.8653
    -5.8631  -5.8407  -5.7507  -5.7500  -5.7056  -5.6991  -5.6952  -5.6930
    -5.6804  -5.6727  -5.6708  -5.6630  -5.6613  -5.6610  -5.6526  -5.6500
    -5.6142  -5.6139  -5.6104  -5.6076  -5.6037  -5.6017  -5.5849  -5.5799
    -5.5793  -5.5768  -5.5746  -5.5714  -5.5701  -5.5661  -5.5636  -5.5547
    -5.5521  -5.5481  -5.5414  -5.5405  -5.5399  -5.5376  -5.5362  -5.5334
    -5.5236  -5.5046  -5.5040  -5.4770  -5.4761  -4.2098  -4.2016  -4.1952
    -4.1913  -4.1824  -4.1793  -4.1792  -4.1750  -4.1726  -4.1690  -4.1658
    -4.1654  -4.1654  -4.1653  -4.1611  -4.1602  -4.1584  -4.1582  -4.1560
    -4.1553  -4.1504  -4.1495  -4.1472  -4.1463  -4.1452  -4.1431  -4.1427
    -4.1421  -4.1404  -4.1396  -4.1391  -4.1374  -4.1360  -4.1356  -4.1341
    -4.1325  -4.1320  -4.1305  -4.1304  -4.1282  -4.1267  -4.1263  -4.1242
    -4.1240  -4.1235  -4.1225  -4.1210  -4.1202  -4.1187  -4.1175  -4.1156
    -4.1134  -4.1105  -4.1096  -4.1059  -4.1040  -4.1034  -4.1013  -4.0963
    -4.0937  -4.0915  -4.0903  -4.0886  -4.0867  -4.0820  -4.0820  -4.0790
    -4.0781  -4.0767  -4.0763  -4.0717  -4.0707  -4.0703  -4.0696  -4.0670
    -4.0657  -4.0632  -4.0621  -4.0611  -4.0607  -4.0565  -4.0553  -4.0541
    -4.0527  -4.0520  -4.0482  -4.0482  -4.0462  -4.0433  -4.0413  -4.0396
    -4.0379  -4.0357  -4.0331  -4.0285  -4.0257  -4.0231  -4.0228  -4.0199
    -4.0170  -4.0139  -4.0127  -4.0097  -4.0064  -4.0063  -4.0051  -4.0038
    -4.0031  -4.0028  -4.0000  -3.9993  -3.9978  -3.9960  -3.9957  -3.9945
    -3.9923  -3.9909  -3.9900  -3.9899  -3.9885  -3.9862  -3.9847  -3.9838
    -3.9817  -3.9805  -3.9794  -3.9791  -3.9772  -3.9756  -3.9745  -3.9727
    -3.9722  -3.9704  -3.9703  -3.9693  -3.9662  -3.9649  -3.9642  -3.9630
    -3.9628  -3.9614  -3.9605  -3.9595  -3.9587  -3.9566  -3.9559  -3.9551
    -3.9534  -3.9525  -3.9510  -3.9500  -3.9479  -3.9472  -3.9441  -3.9426
    -3.9399  -3.9390  -3.9384  -3.9345  -3.9329  -3.9296  -3.9285  -3.9259
    -3.9243  -3.9236  -3.9227  -3.9203  -3.9187  -3.9160  -3.9153  -3.9152
    -3.9121  -3.9119  -3.9087  -3.9080  -3.9075  -3.9065  -3.9057  -3.9054
    -3.9020  -3.9017  -3.9001  -3.8997  -3.8986  -3.8964  -3.8962  -3.8950
    -3.8943  -3.8934  -3.8908  -3.8894  -3.8875  -3.8869  -3.8858  -3.8842
    -3.8827  -3.8805  -3.8804  -3.8767  -3.8728  -3.8717  -3.8701  -3.8670
    -3.8655  -3.8634  -3.8576  -3.8509  -3.8506  -3.8264  -3.8219  -3.8012
    -3.7719  -3.7718  -3.7558  -3.7507  -3.7305  -3.7224  -3.7212  -3.7134
    -3.6959  -3.6617  -3.6342  -3.6294  -3.5997  -3.5926  -3.5617  -3.5560
    -3.4387  -3.4273  -3.1676  -3.1656  -3.1651  -3.1526  -3.0747  -3.0740
    -3.0547  -3.0214  -2.8544  -2.8242  -2.7941  -2.7794  -2.6855  -2.6842
    -2.6823  -2.6660  -2.5855  -2.5824  -2.5786  -2.5683  -2.5578  -2.5464
    -2.5387  -2.4771  -2.3487  -2.3484  -2.3422  -2.3417  -2.3317  -2.3280
    -2.3205  -2.2353  -2.1809  -2.1745  -2.1251  -2.1215  -2.1165  -2.0745
    -2.0632  -2.0597  -2.0455   0.0051   2.8756   2.8920   2.9567   2.9664
     3.0093   3.0140   3.1826   3.1902   3.1923   3.2028   3.2071   3.2210
     3.2333   3.2420   3.3225   3.3240   3.3323   3.3366   3.3605   3.3681
     3.3842   3.4067   3.4242   3.4362   3.5313   3.5531   3.5559   3.6239
     3.9222   3.9381   3.9433   3.9553   3.9612   4.0049   4.2841   4.2882
     4.3023   4.3423   4.4040   4.4316   4.4421   4.5147   4.9858   5.0082
     5.0166   5.0274   5.0415   5.0606   5.2540   5.2564   5.2941   5.3090
     5.4095   5.4200   5.4275   5.4419   5.4580   5.4932   5.5385   5.5919
     5.6787   5.6869   5.7087   5.7498   5.7809   5.7897   5.7962   5.8336
     5.9041   5.9800   6.1529   6.1559   6.1641   6.2223   6.3741   6.3775
     6.3983   6.4213   6.5325   6.6066   6.7557   6.7826   6.8469   6.8490
     6.8550   6.8579   6.8678   6.8726   6.8951   6.9173   6.9325   6.9347
     6.9507   7.0413   7.1964   7.2099   7.2201   7.2211   7.3347   7.3469
     7.3705   7.3709   7.3734   7.3742   7.4159   7.4296   7.4411   7.4482
     7.4833   7.5186   7.5420   7.5453   7.5607   7.5630   7.5743   7.5749
     7.5818   7.5886   7.5950   7.6353   7.6460   7.6878   7.7296   7.7308
     7.7344   7.7396   7.7432   7.7933   7.8059   7.8197   7.8712   7.8838
     7.9075   7.9217   7.9979   8.0792   8.0933   8.1074   8.1427   8.1599
     8.1644   8.1717   8.1968   8.2079   8.2143   8.2328   8.3412   8.3845
     8.4019   8.4327   8.5094   8.5747   8.5772   8.6522   8.7409   8.7652
     8.7985   8.9117   9.0767   9.1155   9.2357   9.4485  12.3093  12.3796
    13.2173  13.2805  13.6279  13.6400  13.8042  13.8107  13.8568  13.8631
    13.8924  13.8996  13.9437  13.9816  14.0763  14.1080  14.2272  14.2282
    14.2314  14.2341  14.2403  14.2442  14.2511  14.3651  14.3756  14.3849
    14.4025

     occupation numbers 
     1.0000   1.0000   1.0000   1.0000   1.0000   1.0000   1.0000   1.0000
     1.0000   1.0000   1.0000   1.0000   1.0000   1.0000   1.0000   1.0000
     1.0000   1.0000   1.0000   1.0000   1.0000   1.0000   1.0000   1.0000
     1.0000   1.0000   1.0000   1.0000   1.0000   1.0000   1.0000   1.0000
     1.0000   1.0000   1.0000   1.0000   1.0000   1.0000   1.0000   1.0000
     1.0000   1.0000   1.0000   1.0000   1.0000   1.0000   1.0000   1.0000
     1.0000   1.0000   1.0000   1.0000   1.0000   1.0000   1.0000   1.0000
     1.0000   1.0000   1.0000   1.0000   1.0000   1.0000   1.0000   1.0000
     1.0000   1.0000   1.0000   1.0000   1.0000   1.0000   1.0000   1.0000
     1.0000   1.0000   1.0000   1.0000   1.0000   1.0000   1.0000   1.0000
     1.0000   1.0000   1.0000   1.0000   1.0000   1.0000   1.0000   1.0000
     1.0000   1.0000   1.0000   1.0000   1.0000   1.0000   1.0000   1.0000
     1.0000   1.0000   1.0000   1.0000   1.0000   1.0000   1.0000   1.0000
     1.0000   1.0000   1.0000   1.0000   1.0000   1.0000   1.0000   1.0000
     1.0000   1.0000   1.0000   1.0000   1.0000   1.0000   1.0000   1.0000
     1.0000   1.0000   1.0000   1.0000   1.0000   1.0000   1.0000   1.0000
     1.0000   1.0000   1.0000   1.0000   1.0000   1.0000   1.0000   1.0000
     1.0000   1.0000   1.0000   1.0000   1.0000   1.0000   1.0000   1.0000
     1.0000   1.0000   1.0000   1.0000   1.0000   1.0000   1.0000   1.0000
     1.0000   1.0000   1.0000   1.0000   1.0000   1.0000   1.0000   1.0000
     1.0000   1.0000   1.0000   1.0000   1.0000   1.0000   1.0000   1.0000
     1.0000   1.0000   1.0000   1.0000   1.0000   1.0000   1.0000   1.0000
     1.0000   1.0000   1.0000   1.0000   1.0000   1.0000   1.0000   1.0000
     1.0000   1.0000   1.0000   1.0000   1.0000   1.0000   1.0000   1.0000
     1.0000   1.0000   1.0000   1.0000   1.0000   1.0000   1.0000   1.0000
     1.0000   1.0000   1.0000   1.0000   1.0000   1.0000   1.0000   1.0000
     1.0000   1.0000   1.0000   1.0000   1.0000   1.0000   1.0000   1.0000
     1.0000   1.0000   1.0000   1.0000   1.0000   1.0000   1.0000   1.0000
     1.0000   1.0000   1.0000   1.0000   1.0000   1.0000   1.0000   1.0000
     1.0000   1.0000   1.0000   1.0000   1.0000   1.0000   1.0000   1.0000
     1.0000   1.0000   1.0000   1.0000   1.0000   1.0000   1.0000   1.0000
     1.0000   1.0000   1.0000   1.0000   1.0000   1.0000   1.0000   1.0000
     1.0000   1.0000   1.0000   1.0000   1.0000   1.0000   1.0000   1.0000
     1.0000   1.0000   1.0000   1.0000   1.0000   1.0000   1.0000   1.0000
     1.0000   1.0000   1.0000   1.0000   1.0000   1.0000   1.0000   1.0000
     1.0000   1.0000   1.0000   1.0000   1.0000   1.0000   1.0000   1.0000
     1.0000   1.0000   1.0000   1.0000   1.0000   1.0000   1.0000   1.0000
     1.0000   1.0000   1.0000   1.0000   1.0000   1.0000   1.0000   1.0000
     1.0000   1.0000   1.0000   1.0000   1.0000   1.0000   1.0000   1.0000
     1.0000   1.0000   1.0000   1.0000   1.0000   1.0000   1.0000   1.0000
     1.0000   1.0000   1.0000   1.0000   1.0000   1.0000   1.0000   1.0000
     1.0000   1.0000   1.0000   1.0000   1.0000   1.0000   1.0000   1.0000
     1.0000   1.0000   1.0000   1.0000   1.0000   1.0000   1.0000   1.0000
     1.0000   1.0000   1.0000   1.0000   1.0000   1.0000   1.0000   1.0000
     1.0000   1.0000   1.0000   1.0000   1.0000   1.0000   1.0000   1.0000
     1.0000   1.0000   1.0000   1.0000   1.0000   1.0000   1.0000   1.0000
     1.0000   1.0000   1.0000   1.0000   1.0000   1.0000   1.0000   1.0000
     1.0000   1.0000   1.0000   1.0000   1.0000   1.0000   1.0000   1.0000
     1.0000   1.0000   1.0000   1.0000   1.0000   1.0000   1.0000   1.0000
     1.0000   1.0000   1.0000   1.0000   1.0000   1.0000   1.0000   1.0000
     1.0000   1.0000   1.0000   1.0000   1.0000   1.0000   1.0000   1.0000
     1.0000   1.0000   1.0000   1.0000   1.0000   1.0000   1.0000   1.0000
     1.0000   1.0000   1.0000   1.0000   1.0000   1.0000   1.0000   1.0000
     1.0000   1.0000   1.0000   1.0000   1.0000   1.0000   1.0000   1.0000
     1.0000   1.0000   1.0000   1.0000   1.0000   1.0000   1.0000   1.0000
     1.0000   1.0000   1.0000   1.0000   1.0000   1.0000   1.0000   1.0000
     1.0000   1.0000   1.0000   1.0000   1.0000   1.0000   1.0000   1.0000
     1.0000   1.0000   1.0000   1.0000   1.0000   1.0000   1.0000   1.0000
     1.0000   1.0000   1.0000   1.0000   1.0000   1.0000   1.0000   1.0000
     1.0000   1.0000   1.0000   1.0000   1.0000   1.0000   1.0000   1.0000
     1.0000   1.0000   1.0000   1.0000   1.0000   0.0012   0.0000   0.0000
     0.0000   0.0000   0.0000   0.0000   0.0000   0.0000   0.0000   0.0000
     0.0000   0.0000   0.0000   0.0000   0.0000   0.0000   0.0000   0.0000
     0.0000   0.0000   0.0000   0.0000   0.0000   0.0000   0.0000   0.0000
     0.0000

          k = 0.3333 0.5774 0.0000 ( 51216 PWs)   bands (ev):

    -6.1866  -6.1848  -6.1376  -5.9772  -5.9732  -5.9698  -5.9697  -5.9387
    -5.9100  -5.7378  -5.7248  -5.7191  -5.6929  -5.6919  -5.6849  -5.6830
    -5.6659  -5.6647  -5.6619  -5.6582  -5.6561  -5.6489  -5.6463  -5.6437
    -5.6319  -5.6310  -5.6204  -5.6201  -5.6159  -5.6044  -5.5980  -5.5940
    -5.5934  -5.5924  -5.5815  -5.5656  -5.5641  -5.5564  -5.5531  -5.5529
    -5.5493  -5.5478  -5.5452  -5.5449  -5.5403  -5.5340  -5.5339  -5.5316
    -5.5203  -5.5042  -5.5024  -5.4770  -5.4748  -4.2057  -4.1905  -4.1899
    -4.1880  -4.1800  -4.1786  -4.1754  -4.1732  -4.1724  -4.1640  -4.1636
    -4.1621  -4.1614  -4.1587  -4.1581  -4.1563  -4.1563  -4.1536  -4.1533
    -4.1513  -4.1502  -4.1498  -4.1488  -4.1479  -4.1463  -4.1428  -4.1419
    -4.1410  -4.1371  -4.1363  -4.1346  -4.1336  -4.1323  -4.1299  -4.1299
    -4.1285  -4.1276  -4.1264  -4.1254  -4.1239  -4.1232  -4.1222  -4.1199
    -4.1189  -4.1166  -4.1161  -4.1156  -4.1142  -4.1124  -4.1094  -4.1082
    -4.1077  -4.1072  -4.1070  -4.1064  -4.1059  -4.1050  -4.1038  -4.1019
    -4.1007  -4.1000  -4.0993  -4.0986  -4.0971  -4.0959  -4.0955  -4.0944
    -4.0914  -4.0910  -4.0877  -4.0869  -4.0865  -4.0841  -4.0841  -4.0756
    -4.0721  -4.0711  -4.0692  -4.0633  -4.0619  -4.0608  -4.0540  -4.0515
    -4.0476  -4.0438  -4.0421  -4.0415  -4.0412  -4.0394  -4.0358  -4.0306
    -4.0297  -4.0295  -4.0255  -4.0243  -4.0236  -4.0226  -4.0212  -4.0202
    -4.0190  -4.0179  -4.0169  -4.0153  -4.0147  -4.0137  -4.0122  -4.0115
    -4.0096  -4.0079  -4.0064  -4.0055  -4.0037  -4.0025  -4.0008  -3.9994
    -3.9984  -3.9981  -3.9981  -3.9927  -3.9920  -3.9893  -3.9884  -3.9872
    -3.9838  -3.9833  -3.9831  -3.9790  -3.9788  -3.9781  -3.9764  -3.9760
    -3.9756  -3.9753  -3.9723  -3.9705  -3.9697  -3.9674  -3.9673  -3.9664
    -3.9658  -3.9652  -3.9639  -3.9637  -3.9627  -3.9601  -3.9571  -3.9567
    -3.9528  -3.9510  -3.9490  -3.9489  -3.9446  -3.9410  -3.9401  -3.9379
    -3.9378  -3.9366  -3.9338  -3.9327  -3.9320  -3.9308  -3.9289  -3.9258
    -3.9229  -3.9220  -3.9205  -3.9195  -3.9186  -3.9185  -3.9168  -3.9129
    -3.9112  -3.9101  -3.9076  -3.9069  -3.9065  -3.9047  -3.9044  -3.9034
    -3.9032  -3.9022  -3.8989  -3.8984  -3.8984  -3.8977  -3.8956  -3.8941
    -3.8927  -3.8926  -3.8907  -3.8907  -3.8904  -3.8897  -3.8857  -3.8844
    -3.8834  -3.8796  -3.8779  -3.8771  -3.8761  -3.8756  -3.8682  -3.8678
    -3.8654  -3.8632  -3.8591  -3.8498  -3.8330  -3.8272  -3.8246  -3.8199
    -3.8037  -3.7982  -3.7924  -3.7791  -3.7692  -3.7535  -3.7506  -3.7290
    -3.7241  -3.7147  -3.7126  -3.7045  -3.6632  -3.5647  -3.5620  -3.2042
    -3.1866  -3.1773  -3.1124  -3.1105  -3.1102  -3.1085  -3.0793  -3.0535
    -3.0012  -2.9995  -2.9975  -2.9935  -2.9646  -2.8991  -2.6567  -2.6435
    -2.6322  -2.5577  -2.5554  -2.5549  -2.5536  -2.5285  -2.4922  -2.4141
    -2.4085  -2.4057  -2.3995  -2.3931  -2.3888  -2.3874  -2.3750  -2.3355
    -2.2956  -2.2928  -2.2871  -2.2860  -2.2582  -2.1771  -2.1474  -2.1237
    -2.0248  -1.9864  -1.9606   0.0132   2.7641   2.7682   2.7755   2.7914
     2.7930   2.8116   2.8604   2.8605   2.9328   3.0749   3.0780   3.0797
     3.2981   3.3035   3.3092   3.3097   3.3249   3.3439   3.4762   3.4779
     3.4898   3.5108   3.5185   3.5331   3.6089   3.6425   3.6483   4.1004
     4.1005   4.1015   4.1017   4.1074   4.1138   4.1324   4.1366   4.1373
     4.1432   4.1447   4.1742   4.1876   4.2696   4.3539   4.6191   4.6416
     4.7041   5.0832   5.1103   5.1111   5.2411   5.2453   5.2948   5.9118
     5.9185   5.9217   6.0149   6.0191   6.0314   6.0319   6.0442   6.0628
     6.0971   6.0990   6.1043   6.1068   6.1178   6.1255   6.1349   6.1394
     6.1461   6.1483   6.1530   6.1916   6.2045   6.2480   6.2887   6.4184
     6.4254   6.4465   6.5188   6.5337   6.5380   6.5427   6.5694   6.5926
     6.9173   6.9221   6.9252   6.9259   6.9269   6.9338   6.9342   6.9387
     6.9504   6.9600   6.9611   6.9638   6.9696   6.9845   6.9908   6.9931
     7.0019   7.0213   7.0498   7.0615   7.0683   7.0848   7.1469   7.1485
     7.1984   7.2108   7.2148   7.2420   7.2754   7.3158   7.5755   7.5802
     7.6408   7.7537   7.7575   7.7633   7.7707   7.7732   7.7764   7.7811
     7.7951   7.7960   7.8009   7.8208   7.8213   7.8296   7.8297   7.8298
     7.8467   7.8480   7.8571   7.9291   7.9881   8.0269   8.0481   8.0520
     8.0535   8.0541   8.1784   8.1984   8.2973   8.3058   8.3124   8.3199
     8.4012   8.4491   8.4569   8.4762   8.4815   8.5698   8.6728   8.7186
     8.8222   8.8485   8.8485   9.0689   9.2139   9.2821  12.8516  12.8628
    12.9299  13.6653  13.6653  13.6765  13.6850  13.7199  13.7446  13.7563
    13.7665  13.7690  13.7799  13.7820  13.9655  14.6490  14.6540  14.6545
    14.6728  14.6742  14.7014  14.7598  14.7649  14.7674  14.7703  14.7924
    14.8194

     occupation numbers 
     1.0000   1.0000   1.0000   1.0000   1.0000   1.0000   1.0000   1.0000
     1.0000   1.0000   1.0000   1.0000   1.0000   1.0000   1.0000   1.0000
     1.0000   1.0000   1.0000   1.0000   1.0000   1.0000   1.0000   1.0000
     1.0000   1.0000   1.0000   1.0000   1.0000   1.0000   1.0000   1.0000
     1.0000   1.0000   1.0000   1.0000   1.0000   1.0000   1.0000   1.0000
     1.0000   1.0000   1.0000   1.0000   1.0000   1.0000   1.0000   1.0000
     1.0000   1.0000   1.0000   1.0000   1.0000   1.0000   1.0000   1.0000
     1.0000   1.0000   1.0000   1.0000   1.0000   1.0000   1.0000   1.0000
     1.0000   1.0000   1.0000   1.0000   1.0000   1.0000   1.0000   1.0000
     1.0000   1.0000   1.0000   1.0000   1.0000   1.0000   1.0000   1.0000
     1.0000   1.0000   1.0000   1.0000   1.0000   1.0000   1.0000   1.0000
     1.0000   1.0000   1.0000   1.0000   1.0000   1.0000   1.0000   1.0000
     1.0000   1.0000   1.0000   1.0000   1.0000   1.0000   1.0000   1.0000
     1.0000   1.0000   1.0000   1.0000   1.0000   1.0000   1.0000   1.0000
     1.0000   1.0000   1.0000   1.0000   1.0000   1.0000   1.0000   1.0000
     1.0000   1.0000   1.0000   1.0000   1.0000   1.0000   1.0000   1.0000
     1.0000   1.0000   1.0000   1.0000   1.0000   1.0000   1.0000   1.0000
     1.0000   1.0000   1.0000   1.0000   1.0000   1.0000   1.0000   1.0000
     1.0000   1.0000   1.0000   1.0000   1.0000   1.0000   1.0000   1.0000
     1.0000   1.0000   1.0000   1.0000   1.0000   1.0000   1.0000   1.0000
     1.0000   1.0000   1.0000   1.0000   1.0000   1.0000   1.0000   1.0000
     1.0000   1.0000   1.0000   1.0000   1.0000   1.0000   1.0000   1.0000
     1.0000   1.0000   1.0000   1.0000   1.0000   1.0000   1.0000   1.0000
     1.0000   1.0000   1.0000   1.0000   1.0000   1.0000   1.0000   1.0000
     1.0000   1.0000   1.0000   1.0000   1.0000   1.0000   1.0000   1.0000
     1.0000   1.0000   1.0000   1.0000   1.0000   1.0000   1.0000   1.0000
     1.0000   1.0000   1.0000   1.0000   1.0000   1.0000   1.0000   1.0000
     1.0000   1.0000   1.0000   1.0000   1.0000   1.0000   1.0000   1.0000
     1.0000   1.0000   1.0000   1.0000   1.0000   1.0000   1.0000   1.0000
     1.0000   1.0000   1.0000   1.0000   1.0000   1.0000   1.0000   1.0000
     1.0000   1.0000   1.0000   1.0000   1.0000   1.0000   1.0000   1.0000
     1.0000   1.0000   1.0000   1.0000   1.0000   1.0000   1.0000   1.0000
     1.0000   1.0000   1.0000   1.0000   1.0000   1.0000   1.0000   1.0000
     1.0000   1.0000   1.0000   1.0000   1.0000   1.0000   1.0000   1.0000
     1.0000   1.0000   1.0000   1.0000   1.0000   1.0000   1.0000   1.0000
     1.0000   1.0000   1.0000   1.0000   1.0000   1.0000   1.0000   1.0000
     1.0000   1.0000   1.0000   1.0000   1.0000   1.0000   1.0000   1.0000
     1.0000   1.0000   1.0000   1.0000   1.0000   1.0000   1.0000   1.0000
     1.0000   1.0000   1.0000   1.0000   1.0000   1.0000   1.0000   1.0000
     1.0000   1.0000   1.0000   1.0000   1.0000   1.0000   1.0000   1.0000
     1.0000   1.0000   1.0000   1.0000   1.0000   1.0000   1.0000   1.0000
     1.0000   1.0000   1.0000   1.0000   1.0000   1.0000   1.0000   1.0000
     1.0000   1.0000   1.0000   1.0000   1.0000   1.0000   1.0000   1.0000
     1.0000   1.0000   1.0000   1.0000   1.0000   1.0000   1.0000   1.0000
     1.0000   1.0000   1.0000   1.0000   1.0000   1.0000   1.0000   1.0000
     1.0000   1.0000   1.0000   1.0000   1.0000   1.0000   1.0000   1.0000
     1.0000   1.0000   1.0000   1.0000   1.0000   1.0000   1.0000   1.0000
     1.0000   1.0000   1.0000   1.0000   1.0000   1.0000   1.0000   1.0000
     1.0000   1.0000   1.0000   1.0000   1.0000   1.0000   1.0000   1.0000
     1.0000   1.0000   1.0000   1.0000   1.0000   1.0000   1.0000   1.0000
     1.0000   1.0000   1.0000   1.0000   1.0000   1.0000   1.0000   1.0000
     1.0000   1.0000   1.0000   1.0000   1.0000   1.0000   1.0000   1.0000
     1.0000   1.0000   1.0000   1.0000   1.0000   1.0000   1.0000   1.0000
     1.0000   1.0000   1.0000   1.0000   1.0000   1.0000   1.0000   1.0000
     1.0000   1.0000   1.0000   1.0000   1.0000   1.0000   1.0000   1.0000
     1.0000   1.0000   1.0000   1.0000   1.0000   1.0000   1.0000   1.0000
     1.0000   1.0000   1.0000   1.0000   1.0000   1.0000   1.0000   1.0000
     1.0000   1.0000   1.0000   1.0000   1.0000   1.0000   1.0000   1.0000
     1.0000   1.0000   1.0000   1.0000   1.0000   1.0000   1.0000   1.0000
     1.0000   1.0000   1.0000   1.0000   1.0000   1.0000   1.0000   1.0000
     1.0000   1.0000   1.0000   1.0000   1.0000   1.0000   0.0000   0.0000
     0.0000   0.0000   0.0000   0.0000   0.0000   0.0000   0.0000   0.0000
     0.0000   0.0000   0.0000   0.0000   0.0000   0.0000   0.0000   0.0000
     0.0000   0.0000   0.0000   0.0000   0.0000   0.0000   0.0000   0.0000
     0.0000

          k = 0.3333 0.5774-0.3067 ( 51264 PWs)   bands (ev):

    -6.1335  -6.1309  -6.1186  -6.1176  -6.1065  -6.0408  -5.8061  -5.8025
    -5.8022  -5.8010  -5.7704  -5.7664  -5.7172  -5.7040  -5.7039  -5.7004
    -5.6953  -5.6888  -5.6549  -5.6452  -5.6434  -5.6420  -5.6397  -5.6348
    -5.6276  -5.6259  -5.6216  -5.6173  -5.6117  -5.5980  -5.5898  -5.5885
    -5.5876  -5.5845  -5.5782  -5.5662  -5.5617  -5.5577  -5.5526  -5.5510
    -5.5504  -5.5492  -5.5482  -5.5449  -5.5383  -5.5361  -5.5359  -5.5353
    -5.5219  -5.5054  -5.5031  -5.4774  -5.4753  -4.2056  -4.1901  -4.1899
    -4.1871  -4.1767  -4.1759  -4.1751  -4.1738  -4.1687  -4.1642  -4.1620
    -4.1615  -4.1595  -4.1581  -4.1565  -4.1556  -4.1548  -4.1525  -4.1522
    -4.1521  -4.1515  -4.1503  -4.1476  -4.1474  -4.1470  -4.1461  -4.1444
    -4.1440  -4.1435  -4.1414  -4.1392  -4.1383  -4.1360  -4.1336  -4.1332
    -4.1329  -4.1316  -4.1289  -4.1267  -4.1248  -4.1235  -4.1227  -4.1216
    -4.1215  -4.1181  -4.1180  -4.1167  -4.1162  -4.1159  -4.1134  -4.1112
    -4.1110  -4.1104  -4.1083  -4.1077  -4.1054  -4.1045  -4.1029  -4.1017
    -4.1011  -4.1002  -4.0994  -4.0969  -4.0951  -4.0942  -4.0905  -4.0900
    -4.0898  -4.0862  -4.0812  -4.0765  -4.0712  -4.0706  -4.0689  -4.0662
    -4.0612  -4.0583  -4.0581  -4.0571  -4.0566  -4.0537  -4.0527  -4.0505
    -4.0495  -4.0489  -4.0469  -4.0464  -4.0445  -4.0401  -4.0399  -4.0385
    -4.0370  -4.0364  -4.0348  -4.0337  -4.0310  -4.0290  -4.0258  -4.0252
    -4.0251  -4.0237  -4.0232  -4.0178  -4.0163  -4.0140  -4.0111  -4.0093
    -4.0081  -4.0077  -4.0064  -4.0064  -4.0006  -4.0005  -3.9990  -3.9989
    -3.9966  -3.9950  -3.9923  -3.9911  -3.9903  -3.9869  -3.9849  -3.9826
    -3.9820  -3.9814  -3.9812  -3.9795  -3.9773  -3.9767  -3.9764  -3.9755
    -3.9754  -3.9748  -3.9738  -3.9736  -3.9719  -3.9681  -3.9676  -3.9676
    -3.9674  -3.9638  -3.9604  -3.9591  -3.9579  -3.9571  -3.9550  -3.9522
    -3.9513  -3.9505  -3.9493  -3.9476  -3.9441  -3.9418  -3.9399  -3.9388
    -3.9385  -3.9371  -3.9342  -3.9336  -3.9334  -3.9324  -3.9319  -3.9303
    -3.9299  -3.9272  -3.9271  -3.9237  -3.9199  -3.9198  -3.9193  -3.9189
    -3.9145  -3.9122  -3.9118  -3.9100  -3.9064  -3.9063  -3.9047  -3.9046
    -3.9022  -3.8992  -3.8989  -3.8981  -3.8973  -3.8958  -3.8957  -3.8940
    -3.8934  -3.8930  -3.8913  -3.8912  -3.8907  -3.8891  -3.8891  -3.8846
    -3.8836  -3.8815  -3.8805  -3.8785  -3.8784  -3.8762  -3.8702  -3.8702
    -3.8651  -3.8633  -3.8622  -3.8583  -3.8578  -3.8539  -3.8486  -3.8248
    -3.8207  -3.7939  -3.7652  -3.7586  -3.7524  -3.7376  -3.7236  -3.7169
    -3.7149  -3.6965  -3.5896  -3.5817  -3.5377  -3.5285  -3.5185  -3.5175
    -3.4982  -3.4804  -3.1584  -3.1515  -3.1509  -3.1496  -3.1227  -3.0817
    -2.7405  -2.7402  -2.7400  -2.7396  -2.7022  -2.6938  -2.6502  -2.6397
    -2.6329  -2.6298  -2.6291  -2.6245  -2.6239  -2.6113  -2.6095  -2.6011
    -2.5995  -2.5118  -2.4388  -2.4377  -2.4342  -2.4307  -2.3909  -2.3054
    -2.1947  -2.1843  -2.1829  -2.1762  -2.1539  -2.1462  -2.1121  -2.1035
    -2.1004  -2.0939  -2.0690   0.0081   2.8830   2.8897   2.9034   2.9053
     2.9066   2.9094   2.9161   2.9195   2.9236   2.9494   2.9547   2.9901
     3.2346   3.2351   3.2475   3.2476   3.2879   3.3367   3.4952   3.4964
     3.5045   3.5113   3.5385   3.5619   3.7029   3.7047   3.7068   3.7444
     3.7530   3.7584   3.8259   3.8272   3.8442   3.8750   3.8870   3.8930
     4.4747   4.4757   4.4807   4.5101   4.5190   4.5860   5.1771   5.1790
     5.1850   5.1901   5.2397   5.3680   5.5513   5.5522   5.5557   5.5620
     5.5636   5.5638   5.5744   5.5843   5.5889   5.6078   5.6436   5.7374
     5.8706   5.8709   5.8769   5.8913   5.9101   5.9265   6.3375   6.3400
     6.3402   6.3524   6.3617   6.3631   6.4154   6.4164   6.4299   6.4334
     6.4531   6.4652   6.5300   6.5327   6.5332   6.5542   6.5622   6.6283
     6.6712   6.6713   6.6870   6.6962   6.6989   6.7081   6.7286   6.7320
     6.7464   6.8080   6.8697   6.9367   7.3302   7.3416   7.3461   7.3526
     7.3590   7.3908   7.3954   7.3972   7.4034   7.4045   7.4139   7.4765
     7.5353   7.5386   7.5441   7.5463   7.5474   7.5504   7.5509   7.5585
     7.5722   7.5765   7.6069   7.6145   7.6428   7.6434   7.6513   7.6558
     7.6847   7.6894   7.6939   7.6989   7.7007   7.7026   7.7072   7.7133
     7.7170   7.7266   7.7404   7.8122   7.8786   7.9337   7.9500   7.9576
     7.9725   7.9808   8.0077   8.1292   8.1355   8.1585   8.1627   8.2959
     8.3640   8.3949   8.7115   8.7276   8.7320   8.7332   8.7352   8.7359
     8.7396   8.7462   8.7562   9.0983   9.2045   9.2546  13.0553  13.0556
    13.0834  13.0867  13.0936  13.2434  14.0412  14.0429  14.0515  14.0587
    14.0687  14.0934  14.2157  14.2202  14.2281  14.2413  14.2528  14.2747
    14.4366  14.4370  14.4490  14.4585  14.5277  14.5741  14.8622  14.8711
    14.8836

     occupation numbers 
     1.0000   1.0000   1.0000   1.0000   1.0000   1.0000   1.0000   1.0000
     1.0000   1.0000   1.0000   1.0000   1.0000   1.0000   1.0000   1.0000
     1.0000   1.0000   1.0000   1.0000   1.0000   1.0000   1.0000   1.0000
     1.0000   1.0000   1.0000   1.0000   1.0000   1.0000   1.0000   1.0000
     1.0000   1.0000   1.0000   1.0000   1.0000   1.0000   1.0000   1.0000
     1.0000   1.0000   1.0000   1.0000   1.0000   1.0000   1.0000   1.0000
     1.0000   1.0000   1.0000   1.0000   1.0000   1.0000   1.0000   1.0000
     1.0000   1.0000   1.0000   1.0000   1.0000   1.0000   1.0000   1.0000
     1.0000   1.0000   1.0000   1.0000   1.0000   1.0000   1.0000   1.0000
     1.0000   1.0000   1.0000   1.0000   1.0000   1.0000   1.0000   1.0000
     1.0000   1.0000   1.0000   1.0000   1.0000   1.0000   1.0000   1.0000
     1.0000   1.0000   1.0000   1.0000   1.0000   1.0000   1.0000   1.0000
     1.0000   1.0000   1.0000   1.0000   1.0000   1.0000   1.0000   1.0000
     1.0000   1.0000   1.0000   1.0000   1.0000   1.0000   1.0000   1.0000
     1.0000   1.0000   1.0000   1.0000   1.0000   1.0000   1.0000   1.0000
     1.0000   1.0000   1.0000   1.0000   1.0000   1.0000   1.0000   1.0000
     1.0000   1.0000   1.0000   1.0000   1.0000   1.0000   1.0000   1.0000
     1.0000   1.0000   1.0000   1.0000   1.0000   1.0000   1.0000   1.0000
     1.0000   1.0000   1.0000   1.0000   1.0000   1.0000   1.0000   1.0000
     1.0000   1.0000   1.0000   1.0000   1.0000   1.0000   1.0000   1.0000
     1.0000   1.0000   1.0000   1.0000   1.0000   1.0000   1.0000   1.0000
     1.0000   1.0000   1.0000   1.0000   1.0000   1.0000   1.0000   1.0000
     1.0000   1.0000   1.0000   1.0000   1.0000   1.0000   1.0000   1.0000
     1.0000   1.0000   1.0000   1.0000   1.0000   1.0000   1.0000   1.0000
     1.0000   1.0000   1.0000   1.0000   1.0000   1.0000   1.0000   1.0000
     1.0000   1.0000   1.0000   1.0000   1.0000   1.0000   1.0000   1.0000
     1.0000   1.0000   1.0000   1.0000   1.0000   1.0000   1.0000   1.0000
     1.0000   1.0000   1.0000   1.0000   1.0000   1.0000   1.0000   1.0000
     1.0000   1.0000   1.0000   1.0000   1.0000   1.0000   1.0000   1.0000
     1.0000   1.0000   1.0000   1.0000   1.0000   1.0000   1.0000   1.0000
     1.0000   1.0000   1.0000   1.0000   1.0000   1.0000   1.0000   1.0000
     1.0000   1.0000   1.0000   1.0000   1.0000   1.0000   1.0000   1.0000
     1.0000   1.0000   1.0000   1.0000   1.0000   1.0000   1.0000   1.0000
     1.0000   1.0000   1.0000   1.0000   1.0000   1.0000   1.0000   1.0000
     1.0000   1.0000   1.0000   1.0000   1.0000   1.0000   1.0000   1.0000
     1.0000   1.0000   1.0000   1.0000   1.0000   1.0000   1.0000   1.0000
     1.0000   1.0000   1.0000   1.0000   1.0000   1.0000   1.0000   1.0000
     1.0000   1.0000   1.0000   1.0000   1.0000   1.0000   1.0000   1.0000
     1.0000   1.0000   1.0000   1.0000   1.0000   1.0000   1.0000   1.0000
     1.0000   1.0000   1.0000   1.0000   1.0000   1.0000   1.0000   1.0000
     1.0000   1.0000   1.0000   1.0000   1.0000   1.0000   1.0000   1.0000
     1.0000   1.0000   1.0000   1.0000   1.0000   1.0000   1.0000   1.0000
     1.0000   1.0000   1.0000   1.0000   1.0000   1.0000   1.0000   1.0000
     1.0000   1.0000   1.0000   1.0000   1.0000   1.0000   1.0000   1.0000
     1.0000   1.0000   1.0000   1.0000   1.0000   1.0000   1.0000   1.0000
     1.0000   1.0000   1.0000   1.0000   1.0000   1.0000   1.0000   1.0000
     1.0000   1.0000   1.0000   1.0000   1.0000   1.0000   1.0000   1.0000
     1.0000   1.0000   1.0000   1.0000   1.0000   1.0000   1.0000   1.0000
     1.0000   1.0000   1.0000   1.0000   1.0000   1.0000   1.0000   1.0000
     1.0000   1.0000   1.0000   1.0000   1.0000   1.0000   1.0000   1.0000
     1.0000   1.0000   1.0000   1.0000   1.0000   1.0000   1.0000   1.0000
     1.0000   1.0000   1.0000   1.0000   1.0000   1.0000   1.0000   1.0000
     1.0000   1.0000   1.0000   1.0000   1.0000   1.0000   1.0000   1.0000
     1.0000   1.0000   1.0000   1.0000   1.0000   1.0000   1.0000   1.0000
     1.0000   1.0000   1.0000   1.0000   1.0000   1.0000   1.0000   1.0000
     1.0000   1.0000   1.0000   1.0000   1.0000   1.0000   1.0000   1.0000
     1.0000   1.0000   1.0000   1.0000   1.0000   1.0000   1.0000   1.0000
     1.0000   1.0000   1.0000   1.0000   1.0000   1.0000   1.0000   1.0000
     1.0000   1.0000   1.0000   1.0000   1.0000   1.0000   1.0000   1.0000
     1.0000   1.0000   1.0000   1.0000   1.0000   1.0000   1.0000   1.0000
     1.0000   1.0000   1.0000   1.0000   1.0000   1.0000   0.0000   0.0000
     0.0000   0.0000   0.0000   0.0000   0.0000   0.0000   0.0000   0.0000
     0.0000   0.0000   0.0000   0.0000   0.0000   0.0000   0.0000   0.0000
     0.0000   0.0000   0.0000   0.0000   0.0000   0.0000   0.0000   0.0000
     0.0000

     the Fermi energy is     9.3902 ev

!    total energy              =  -16525.38015832 Ry
     total all-electron energy =   -215840.872258 Ry
     estimated scf accuracy    <          8.3E-09 Ry
     smearing contrib. (-TS)   =      -0.00014441 Ry
     internal energy E=F+TS    =  -16525.38001391 Ry

     The total energy is F=E-TS. E is the sum of the following terms:
     one-electron contribution =   -4987.31556805 Ry
     hartree contribution      =    3540.16332129 Ry
     xc contribution           =   -2384.22821876 Ry
     ewald contribution        =   -6224.65797914 Ry
     one-center paw contrib.   =   -6469.34156924 Ry
      -> PAW hartree energy AE =     782.75137105 Ry
      -> PAW hartree energy PS =    -777.11921268 Ry
      -> PAW xc energy AE      =    -805.93467824 Ry
      -> PAW xc energy PS      =     210.95572587 Ry
      -> total E_H with PAW    =    3545.79547966 Ry
      -> total E_XC with PAW   =   -2979.20717114 Ry

     total magnetization       =     0.80 Bohr mag/cell
     absolute magnetization    =     0.95 Bohr mag/cell

     convergence has been achieved in  25 iterations

     Forces acting on atoms (cartesian axes, Ry/au):

     atom    1 type  1   force =     0.00000000    0.00000000    0.01713908
     atom    2 type  1   force =    -0.00536167    0.00309556    0.00620145
     atom    3 type  3   force =     0.00000000   -0.00000000   -0.01526712
     atom    4 type  2   force =     0.00920640   -0.00531532    0.00944999
     atom    5 type  1   force =    -0.00501770   -0.00107358   -0.00126171
     atom    6 type  1   force =     0.00000000   -0.00008755    0.00183853
     atom    7 type  2   force =     0.01058633    0.00102875   -0.00075103
     atom    8 type  2   force =     0.00000000   -0.00087875   -0.00169749
     atom    9 type  1   force =     0.00501770   -0.00107358   -0.00126171
     atom   10 type  1   force =     0.00536167    0.00309556    0.00620145
     atom   11 type  2   force =    -0.01058633    0.00102875   -0.00075103
     atom   12 type  2   force =    -0.00920640   -0.00531532    0.00944999
     atom   13 type  1   force =     0.00343860   -0.00380867   -0.00126171
     atom   14 type  1   force =     0.00000000   -0.00619112    0.00620145
     atom   15 type  2   force =    -0.00618409    0.00865366   -0.00075103
     atom   16 type  2   force =     0.00000000    0.01063063    0.00944999
     atom   17 type  1   force =    -0.00343860   -0.00380867   -0.00126171
     atom   18 type  1   force =    -0.00220859   -0.00127513    0.00089829
     atom   19 type  2   force =     0.00618409    0.00865366   -0.00075103
     atom   20 type  2   force =     0.00095580    0.00055183   -0.00039477
     atom   21 type  1   force =     0.00000000   -0.00000000   -0.00228637
     atom   22 type  1   force =     0.00220859   -0.00127513    0.00089829
     atom   23 type  2   force =     0.00000000    0.00000000    0.00023326
     atom   24 type  2   force =    -0.00095580    0.00055183   -0.00039477
     atom   25 type  1   force =    -0.00157910    0.00488225   -0.00126171
     atom   26 type  1   force =     0.00007582    0.00004378    0.00183853
     atom   27 type  2   force =     0.00440224   -0.00968241   -0.00075103
     atom   28 type  2   force =     0.00076102    0.00043937   -0.00169749
     atom   29 type  1   force =     0.00000000    0.00000000   -0.00184460
     atom   30 type  1   force =    -0.00007582    0.00004378    0.00183853
     atom   31 type  2   force =     0.00000000    0.00000000    0.00026040
     atom   32 type  2   force =    -0.00076102    0.00043937   -0.00169749
     atom   33 type  1   force =     0.00157910    0.00488225   -0.00126171
     atom   34 type  1   force =     0.00000000    0.00255026    0.00089829
     atom   35 type  2   force =    -0.00440224   -0.00968241   -0.00075103
     atom   36 type  2   force =     0.00000000   -0.00110366   -0.00039477
     atom   37 type  1   force =     0.00000000   -0.00000000   -0.00682457
     atom   38 type  1   force =    -0.00008584    0.00004956   -0.00081081
     atom   39 type  2   force =     0.00000000    0.00000000    0.00103904
     atom   40 type  2   force =     0.00013186   -0.00007613    0.00016704
     atom   41 type  1   force =    -0.00340851   -0.00097080    0.00032876
     atom   42 type  1   force =     0.00000000    0.00032929    0.00000998
     atom   43 type  2   force =     0.00071714    0.00051402    0.00073580
     atom   44 type  2   force =    -0.00000000   -0.00029314    0.00017115
     atom   45 type  1   force =     0.00340851   -0.00097080    0.00032876
     atom   46 type  1   force =     0.00008584    0.00004956   -0.00081081
     atom   47 type  2   force =    -0.00071714    0.00051402    0.00073580
     atom   48 type  2   force =    -0.00013186   -0.00007613    0.00016704
     atom   49 type  1   force =     0.00254499   -0.00246646    0.00032876
     atom   50 type  1   force =     0.00000000   -0.00009912   -0.00081081
     atom   51 type  2   force =    -0.00080372    0.00036405    0.00073580
     atom   52 type  2   force =     0.00000000    0.00015226    0.00016704
     atom   53 type  1   force =    -0.00254499   -0.00246646    0.00032876
     atom   54 type  1   force =    -0.00009043   -0.00005221   -0.00000598
     atom   55 type  2   force =     0.00080372    0.00036405    0.00073580
     atom   56 type  2   force =     0.00005637    0.00003254    0.00020365
     atom   57 type  1   force =     0.00000000   -0.00000000    0.00022002
     atom   58 type  1   force =     0.00009043   -0.00005221   -0.00000598
     atom   59 type  2   force =     0.00000000    0.00000000   -0.00016273
     atom   60 type  2   force =    -0.00005637    0.00003254    0.00020365
     atom   61 type  1   force =    -0.00086352    0.00343726    0.00032876
     atom   62 type  1   force =    -0.00028517   -0.00016464    0.00000998
     atom   63 type  2   force =    -0.00008658   -0.00087807    0.00073580
     atom   64 type  2   force =     0.00025387    0.00014657    0.00017115
     atom   65 type  1   force =     0.00000000   -0.00000000    0.00096229
     atom   66 type  1   force =     0.00028517   -0.00016464    0.00000998
     atom   67 type  2   force =     0.00000000   -0.00000000   -0.00034867
     atom   68 type  2   force =    -0.00025387    0.00014657    0.00017115
     atom   69 type  1   force =     0.00086352    0.00343726    0.00032876
     atom   70 type  1   force =     0.00000000    0.00010442   -0.00000598
     atom   71 type  2   force =     0.00008658   -0.00087807    0.00073580
     atom   72 type  2   force =    -0.00000000   -0.00006509    0.00020365
     atom   73 type  1   force =     0.00000000    0.00000000    0.00021791
     atom   74 type  1   force =     0.00074234   -0.00042859    0.00319675
     atom   75 type  2   force =     0.00000000   -0.00000000   -0.00116640
     atom   76 type  2   force =     0.00911381   -0.00526186   -0.01375729
     atom   77 type  1   force =     0.00006017    0.00022194   -0.00009067
     atom   78 type  1   force =     0.00000000    0.00030063   -0.00139371
     atom   79 type  2   force =     0.00089836    0.00054231   -0.00053979
     atom   80 type  2   force =     0.00000000   -0.00060917    0.00116072
     atom   81 type  1   force =    -0.00006017    0.00022194   -0.00009067
     atom   82 type  1   force =    -0.00074234   -0.00042859    0.00319675
     atom   83 type  2   force =    -0.00089836    0.00054231   -0.00053979
     atom   84 type  2   force =    -0.00911381   -0.00526186   -0.01375729
     atom   85 type  1   force =    -0.00022229   -0.00005886   -0.00009067
     atom   86 type  1   force =    -0.00000000    0.00085718    0.00319675
     atom   87 type  2   force =    -0.00091883    0.00050685   -0.00053979
     atom   88 type  2   force =     0.00000000    0.01052373   -0.01375729
     atom   89 type  1   force =     0.00022229   -0.00005886   -0.00009067
     atom   90 type  1   force =    -0.00032600   -0.00018821   -0.00103112
     atom   91 type  2   force =     0.00091883    0.00050685   -0.00053979
     atom   92 type  2   force =     0.00094879    0.00054778    0.00130664
     atom   93 type  1   force =     0.00000000   -0.00000000   -0.00036947
     atom   94 type  1   force =     0.00032600   -0.00018821   -0.00103112
     atom   95 type  2   force =     0.00000000    0.00000000    0.00074192
     atom   96 type  2   force =    -0.00094879    0.00054778    0.00130664
     atom   97 type  1   force =    -0.00016212   -0.00016308   -0.00009067
     atom   98 type  1   force =    -0.00026036   -0.00015032   -0.00139371
     atom   99 type  2   force =    -0.00002047   -0.00104915   -0.00053979
     atom  100 type  2   force =     0.00052756    0.00030459    0.00116072
     atom  101 type  1   force =     0.00000000   -0.00000000   -0.00048874
     atom  102 type  1   force =     0.00026036   -0.00015032   -0.00139371
     atom  103 type  2   force =     0.00000000   -0.00000000    0.00087757
     atom  104 type  2   force =    -0.00052756    0.00030459    0.00116072
     atom  105 type  1   force =     0.00016212   -0.00016308   -0.00009067
     atom  106 type  1   force =     0.00000000    0.00037643   -0.00103112
     atom  107 type  2   force =     0.00002047   -0.00104915   -0.00053979
     atom  108 type  2   force =     0.00000000   -0.00109556    0.00130664
     The non-local contrib.  to forces
     atom    1 type  1   force =     0.00000000    0.00000000   -0.37748052
     atom    2 type  1   force =     0.23280608   -0.13441065    0.04984282
     atom    3 type  3   force =     0.00000000    0.00000000    0.01686727
     atom    4 type  2   force =     0.02903048   -0.01676075    0.07158066
     atom    5 type  1   force =     0.02366258    0.00714769    0.01236791
     atom    6 type  1   force =     0.00000000   -0.01188962   -0.00027429
     atom    7 type  2   force =     0.04849424    0.00680549    0.01005019
     atom    8 type  2   force =     0.00000000   -0.00210567    0.00982981
     atom    9 type  1   force =    -0.02366258    0.00714769    0.01236791
     atom   10 type  1   force =    -0.23280608   -0.13441065    0.04984282
     atom   11 type  2   force =    -0.04849424    0.00680549    0.01005019
     atom   12 type  2   force =    -0.02903048   -0.01676075    0.07158066
     atom   13 type  1   force =    -0.01802137    0.01691856    0.01236791
     atom   14 type  1   force =     0.00000000    0.26882131    0.04984282
     atom   15 type  2   force =    -0.03014085    0.03859450    0.01005019
     atom   16 type  2   force =    -0.00000000    0.03352151    0.07158066
     atom   17 type  1   force =     0.01802137    0.01691856    0.01236791
     atom   18 type  1   force =     0.00567508    0.00327651   -0.00674685
     atom   19 type  2   force =     0.03014085    0.03859450    0.01005019
     atom   20 type  2   force =     0.00347803    0.00200804    0.01072342
     atom   21 type  1   force =     0.00000000    0.00000000    0.01600257
     atom   22 type  1   force =    -0.00567508    0.00327651   -0.00674685
     atom   23 type  2   force =     0.00000000   -0.00000000    0.01508466
     atom   24 type  2   force =    -0.00347803    0.00200804    0.01072342
     atom   25 type  1   force =     0.00564121   -0.02406624    0.01236791
     atom   26 type  1   force =     0.01029671    0.00594481   -0.00027429
     atom   27 type  2   force =     0.01835340   -0.04539999    0.01005019
     atom   28 type  2   force =     0.00182356    0.00105283    0.00982981
     atom   29 type  1   force =     0.00000000    0.00000000    0.01135699
     atom   30 type  1   force =    -0.01029671    0.00594481   -0.00027429
     atom   31 type  2   force =     0.00000000    0.00000000    0.01601803
     atom   32 type  2   force =    -0.00182356    0.00105283    0.00982981
     atom   33 type  1   force =    -0.00564121   -0.02406624    0.01236791
     atom   34 type  1   force =    -0.00000000   -0.00655302   -0.00674685
     atom   35 type  2   force =    -0.01835340   -0.04539999    0.01005019
     atom   36 type  2   force =     0.00000000   -0.00401609    0.01072342
     atom   37 type  1   force =     0.00000000    0.00000000    0.02128421
     atom   38 type  1   force =     0.00114074   -0.00065860    0.00419604
     atom   39 type  2   force =     0.00000000   -0.00000000    0.01957753
     atom   40 type  2   force =     0.00065088   -0.00037579    0.01342232
     atom   41 type  1   force =     0.02331296    0.00980692   -0.00027965
     atom   42 type  1   force =     0.00000000   -0.00243373    0.00187621
     atom   43 type  2   force =     0.00293370    0.00196377    0.01721854
     atom   44 type  2   force =     0.00000000   -0.00123742    0.01347281
     atom   45 type  1   force =    -0.02331296    0.00980692   -0.00027965
     atom   46 type  1   force =    -0.00114074   -0.00065860    0.00419604
     atom   47 type  2   force =    -0.00293370    0.00196377    0.01721854
     atom   48 type  2   force =    -0.00065088   -0.00037579    0.01342232
     atom   49 type  1   force =    -0.02014952    0.01528616   -0.00027965
     atom   50 type  1   force =    -0.00000000    0.00131721    0.00419604
     atom   51 type  2   force =    -0.00316753    0.00155877    0.01721854
     atom   52 type  2   force =     0.00000000    0.00075157    0.01342232
     atom   53 type  1   force =     0.02014952    0.01528616   -0.00027965
     atom   54 type  1   force =     0.00099083    0.00057206    0.00171157
     atom   55 type  2   force =     0.00316753    0.00155877    0.01721854
     atom   56 type  2   force =     0.00047275    0.00027294    0.01351701
     atom   57 type  1   force =     0.00000000    0.00000000    0.00173992
     atom   58 type  1   force =    -0.00099083    0.00057206    0.00171157
     atom   59 type  2   force =     0.00000000    0.00000000    0.01183357
     atom   60 type  2   force =    -0.00047275    0.00027294    0.01351701
     atom   61 type  1   force =     0.00316344   -0.02509308   -0.00027965
     atom   62 type  1   force =     0.00210767    0.00121686    0.00187621
     atom   63 type  2   force =    -0.00023383   -0.00352254    0.01721854
     atom   64 type  2   force =     0.00107163    0.00061871    0.01347281
     atom   65 type  1   force =     0.00000000   -0.00000000   -0.00444832
     atom   66 type  1   force =    -0.00210767    0.00121686    0.00187621
     atom   67 type  2   force =     0.00000000    0.00000000    0.01107821
     atom   68 type  2   force =    -0.00107163    0.00061871    0.01347281
     atom   69 type  1   force =    -0.00316344   -0.02509308   -0.00027965
     atom   70 type  1   force =     0.00000000   -0.00114412    0.00171157
     atom   71 type  2   force =     0.00023383   -0.00352254    0.01721854
     atom   72 type  2   force =     0.00000000   -0.00054588    0.01351701
     atom   73 type  1   force =     0.00000000   -0.00000000   -0.00112726
     atom   74 type  1   force =    -0.00599950    0.00346382   -0.02960343
     atom   75 type  2   force =     0.00000000    0.00000000    0.00804814
     atom   76 type  2   force =     0.04547638   -0.02625580   -0.03591032
     atom   77 type  1   force =    -0.00034887   -0.00132406    0.00128921
     atom   78 type  1   force =     0.00000000   -0.00194934    0.01112082
     atom   79 type  2   force =     0.00510573    0.00330552    0.01034101
     atom   80 type  2   force =     0.00000000   -0.00311806    0.01712016
     atom   81 type  1   force =     0.00034887   -0.00132406    0.00128921
     atom   82 type  1   force =     0.00599950    0.00346382   -0.02960343
     atom   83 type  2   force =    -0.00510573    0.00330552    0.01034101
     atom   84 type  2   force =    -0.04547638   -0.02625580   -0.03591032
     atom   85 type  1   force =     0.00132110    0.00035990    0.00128921
     atom   86 type  1   force =     0.00000000   -0.00692763   -0.02960343
     atom   87 type  2   force =    -0.00541553    0.00276893    0.01034101
     atom   88 type  2   force =     0.00000000    0.05251160   -0.03591032
     atom   89 type  1   force =    -0.00132110    0.00035990    0.00128921
     atom   90 type  1   force =     0.00109549    0.00063248    0.00837642
     atom   91 type  2   force =     0.00541553    0.00276893    0.01034101
     atom   92 type  2   force =     0.00414033    0.00239042    0.01715157
     atom   93 type  1   force =     0.00000000    0.00000000    0.00435121
     atom   94 type  1   force =    -0.00109549    0.00063248    0.00837642
     atom   95 type  2   force =     0.00000000    0.00000000    0.01542843
     atom   96 type  2   force =    -0.00414033    0.00239042    0.01715157
     atom   97 type  1   force =     0.00097224    0.00096416    0.00128921
     atom   98 type  1   force =     0.00168818    0.00097467    0.01112082
     atom   99 type  2   force =    -0.00030980   -0.00607445    0.01034101
     atom  100 type  2   force =     0.00270032    0.00155903    0.01712016
     atom  101 type  1   force =     0.00000000    0.00000000    0.00518849
     atom  102 type  1   force =    -0.00168818    0.00097467    0.01112082
     atom  103 type  2   force =     0.00000000   -0.00000000    0.01579335
     atom  104 type  2   force =    -0.00270032    0.00155903    0.01712016
     atom  105 type  1   force =    -0.00097224    0.00096416    0.00128921
     atom  106 type  1   force =     0.00000000   -0.00126497    0.00837642
     atom  107 type  2   force =     0.00030980   -0.00607445    0.01034101
     atom  108 type  2   force =    -0.00000000   -0.00478084    0.01715157
     The ionic contribution  to forces
     atom    1 type  1   force =     0.00000000   -0.00000020    2.04963769
     atom    2 type  1   force =    -1.46298672    0.84465575   -0.47540403
     atom    3 type  3   force =     0.00000000   -0.00000008   -0.12598438
     atom    4 type  2   force =    -0.11263123    0.06502765   -0.39371126
     atom    5 type  1   force =    -0.29585915   -0.00000020    0.47906860
     atom    6 type  1   force =     0.00000000    0.04452445    0.07450488
     atom    7 type  2   force =    -0.20803577   -0.00000010   -0.15748047
     atom    8 type  2   force =     0.00000000    0.00940947   -0.24594237
     atom    9 type  1   force =     0.29585915   -0.00000020    0.47906860
     atom   10 type  1   force =     1.46298672    0.84465575   -0.47540403
     atom   11 type  2   force =     0.20803577   -0.00000010   -0.15748047
     atom   12 type  2   force =     0.11263123    0.06502765   -0.39371126
     atom   13 type  1   force =     0.14792958   -0.25622174    0.47906859
     atom   14 type  1   force =    -0.00000000   -1.68931161   -0.47540400
     atom   15 type  2   force =     0.10401789   -0.18016436   -0.15748046
     atom   16 type  2   force =    -0.00000000   -0.13005533   -0.39371131
     atom   17 type  1   force =    -0.14792958   -0.25622174    0.47906859
     atom   18 type  1   force =    -0.28796156   -0.16625473    0.04478687
     atom   19 type  2   force =    -0.10401789   -0.18016436   -0.15748046
     atom   20 type  2   force =    -0.05057982   -0.02920226   -0.26306085
     atom   21 type  1   force =     0.00000000   -0.00000020    0.34204980
     atom   22 type  1   force =     0.28796156   -0.16625473    0.04478687
     atom   23 type  2   force =     0.00000000   -0.00000010   -0.15748046
     atom   24 type  2   force =     0.05057982   -0.02920226   -0.26306085
     atom   25 type  1   force =    -0.14792958    0.25622183    0.47906859
     atom   26 type  1   force =    -0.03855933   -0.02226207    0.07450497
     atom   27 type  2   force =    -0.10401788    0.18016437   -0.15748047
     atom   28 type  2   force =    -0.00814886   -0.00470464   -0.24594246
     atom   29 type  1   force =     0.00000000    0.00000029    0.34204980
     atom   30 type  1   force =     0.03855933   -0.02226207    0.07450497
     atom   31 type  2   force =     0.00000000    0.00000011   -0.15748047
     atom   32 type  2   force =     0.00814886   -0.00470464   -0.24594246
     atom   33 type  1   force =     0.14792958    0.25622183    0.47906859
     atom   34 type  1   force =     0.00000000    0.33250954    0.04478691
     atom   35 type  2   force =     0.10401788    0.18016437   -0.15748047
     atom   36 type  2   force =     0.00000000    0.05840465   -0.26306089
     atom   37 type  1   force =     0.00000000   -0.00000020   -0.55068265
     atom   38 type  1   force =    -0.02085400    0.01204004   -0.00625619
     atom   39 type  2   force =     0.00000000   -0.00000010   -0.25688313
     atom   40 type  2   force =    -0.00336171    0.00194086   -0.15748042
     atom   41 type  1   force =    -0.13235983   -0.00000020   -0.15099521
     atom   42 type  1   force =     0.00000000    0.00372700    0.02942063
     atom   43 type  2   force =    -0.01265757   -0.00000010   -0.22935684
     atom   44 type  2   force =     0.00000000    0.00067097   -0.15748042
     atom   45 type  1   force =     0.13235983   -0.00000020   -0.15099521
     atom   46 type  1   force =     0.02085400    0.01204004   -0.00625619
     atom   47 type  2   force =     0.01265757   -0.00000010   -0.22935684
     atom   48 type  2   force =     0.00336171    0.00194086   -0.15748042
     atom   49 type  1   force =     0.06617992   -0.11462717   -0.15099522
     atom   50 type  1   force =    -0.00000000   -0.02408017   -0.00625614
     atom   51 type  2   force =     0.00632878   -0.01096187   -0.22935683
     atom   52 type  2   force =     0.00000000   -0.00388175   -0.15748047
     atom   53 type  1   force =    -0.06617992   -0.11462717   -0.15099522
     atom   54 type  1   force =    -0.01556431   -0.00898610    0.02316790
     atom   55 type  2   force =    -0.00632878   -0.01096187   -0.22935683
     atom   56 type  2   force =    -0.00265993   -0.00153570   -0.15748047
     atom   57 type  1   force =     0.00000000   -0.00000020   -0.06090352
     atom   58 type  1   force =     0.01556431   -0.00898610    0.02316790
     atom   59 type  2   force =     0.00000000   -0.00000010   -0.21877207
     atom   60 type  2   force =     0.00265993   -0.00153570   -0.15748047
     atom   61 type  1   force =    -0.06617991    0.11462726   -0.15099521
     atom   62 type  1   force =    -0.00322771   -0.00186334    0.02942072
     atom   63 type  2   force =    -0.00632878    0.01096188   -0.22935684
     atom   64 type  2   force =    -0.00058109   -0.00033539   -0.15748051
     atom   65 type  1   force =     0.00000000    0.00000029   -0.06090351
     atom   66 type  1   force =     0.00322771   -0.00186334    0.02942072
     atom   67 type  2   force =     0.00000000    0.00000011   -0.21877208
     atom   68 type  2   force =     0.00058109   -0.00033539   -0.15748051
     atom   69 type  1   force =     0.06617991    0.11462726   -0.15099521
     atom   70 type  1   force =     0.00000000    0.01797229    0.02316794
     atom   71 type  2   force =     0.00632878    0.01096188   -0.22935684
     atom   72 type  2   force =     0.00000000    0.00307153   -0.15748051
     atom   73 type  1   force =     0.00000000   -0.00000020    0.21371832
     atom   74 type  1   force =    -0.05573622    0.03217929    0.45234148
     atom   75 type  2   force =     0.00000000   -0.00000010   -0.05807781
     atom   76 type  2   force =    -0.11263123    0.06502765    0.07875042
     atom   77 type  1   force =    -0.01024306   -0.00000020    0.20401723
     atom   78 type  1   force =     0.00000000    0.00833312    0.35506323
     atom   79 type  2   force =    -0.01265757   -0.00000010   -0.08560410
     atom   80 type  2   force =     0.00000000    0.00940947   -0.06901847
     atom   81 type  1   force =     0.01024306   -0.00000020    0.20401723
     atom   82 type  1   force =     0.05573622    0.03217929    0.45234148
     atom   83 type  2   force =     0.01265757   -0.00000010   -0.08560410
     atom   84 type  2   force =     0.11263123    0.06502765    0.07875042
     atom   85 type  1   force =     0.00512153   -0.00887094    0.20401722
     atom   86 type  1   force =    -0.00000000   -0.06435869    0.45234153
     atom   87 type  2   force =     0.00632878   -0.01096187   -0.08560409
     atom   88 type  2   force =     0.00000000   -0.13005533    0.07875037
     atom   89 type  1   force =    -0.00512153   -0.00887094    0.20401722
     atom   90 type  1   force =    -0.03744694   -0.02162004    0.37090012
     atom   91 type  2   force =    -0.00632878   -0.01096187   -0.08560409
     atom   92 type  2   force =    -0.05057982   -0.02920226   -0.05190008
     atom   93 type  1   force =     0.00000000   -0.00000020    0.19968204
     atom   94 type  1   force =     0.03744694   -0.02162004    0.37090012
     atom   95 type  2   force =     0.00000000   -0.00000010   -0.09618885
     atom   96 type  2   force =     0.05057982   -0.02920226   -0.05190008
     atom   97 type  1   force =    -0.00512153    0.00887104    0.20401722
     atom   98 type  1   force =    -0.00721672   -0.00416640    0.35506331
     atom   99 type  2   force =    -0.00632878    0.01096188   -0.08560410
     atom  100 type  2   force =    -0.00814886   -0.00470464   -0.06901856
     atom  101 type  1   force =     0.00000000    0.00000029    0.19968204
     atom  102 type  1   force =     0.00721672   -0.00416640    0.35506331
     atom  103 type  2   force =     0.00000000    0.00000011   -0.09618886
     atom  104 type  2   force =     0.00814886   -0.00470464   -0.06901856
     atom  105 type  1   force =     0.00512153    0.00887104    0.20401722
     atom  106 type  1   force =     0.00000000    0.04324017    0.37090016
     atom  107 type  2   force =     0.00632878    0.01096188   -0.08560410
     atom  108 type  2   force =     0.00000000    0.05840465   -0.05190012
     The local contribution  to forces
     atom    1 type  1   force =     0.00000000    0.00000000   -1.66351704
     atom    2 type  1   force =     1.23028570   -0.71030349    0.43364711
     atom    3 type  3   force =     0.00000000    0.00000000    0.09421693
     atom    4 type  2   force =     0.09332663   -0.05388197    0.33288120
     atom    5 type  1   force =     0.26724099   -0.00809689   -0.49282515
     atom    6 type  1   force =     0.00000000   -0.03300578   -0.07249638
     atom    7 type  2   force =     0.17101025   -0.00565074    0.14682763
     atom    8 type  2   force =    -0.00000000   -0.00821877    0.23456117
     atom    9 type  1   force =    -0.26724099   -0.00809689   -0.49282515
     atom   10 type  1   force =    -1.23028570   -0.71030349    0.43364711
     atom   11 type  2   force =    -0.17101025   -0.00565074    0.14682763
     atom   12 type  2   force =    -0.09332663   -0.05388197    0.33288120
     atom   13 type  1   force =    -0.12660838    0.23548593   -0.49282515
     atom   14 type  1   force =    -0.00000000    1.42061388    0.43364712
     atom   15 type  2   force =    -0.08061144    0.15092459    0.14682763
     atom   16 type  2   force =    -0.00000000    0.10776450    0.33288120
     atom   17 type  1   force =     0.12660838    0.23548593   -0.49282515
     atom   18 type  1   force =     0.28001083    0.16166663   -0.03735528
     atom   19 type  2   force =     0.08061144    0.15092459    0.14682763
     atom   20 type  2   force =     0.04811769    0.02778095    0.25209958
     atom   21 type  1   force =     0.00000000    0.00000000   -0.36046447
     atom   22 type  1   force =    -0.28001083    0.16166663   -0.03735528
     atom   23 type  2   force =    -0.00000000    0.00000000    0.14286922
     atom   24 type  2   force =    -0.04811769    0.02778095    0.25209958
     atom   25 type  1   force =     0.14063260   -0.22738558   -0.49282515
     atom   26 type  1   force =     0.02858583    0.01650634   -0.07249638
     atom   27 type  2   force =     0.09039881   -0.14527357    0.14682763
     atom   28 type  2   force =     0.00711782    0.00410966    0.23456117
     atom   29 type  1   force =     0.00000000    0.00000345   -0.35539818
     atom   30 type  1   force =    -0.02858583    0.01650634   -0.07249638
     atom   31 type  2   force =     0.00000000    0.00000028    0.14198096
     atom   32 type  2   force =    -0.00711782    0.00410966    0.23456117
     atom   33 type  1   force =    -0.14063260   -0.22738558   -0.49282515
     atom   34 type  1   force =    -0.00000000   -0.32332636   -0.03735528
     atom   35 type  2   force =    -0.09039881   -0.14527357    0.14682763
     atom   36 type  2   force =    -0.00000000   -0.05556134    0.25209958
     atom   37 type  1   force =     0.00000000    0.00000000    0.52207476
     atom   38 type  1   force =     0.01964434   -0.01133936    0.00099451
     atom   39 type  2   force =     0.00000000    0.00000000    0.23866643
     atom   40 type  2   force =     0.00285489   -0.00164809    0.14443219
     atom   41 type  1   force =     0.10584404   -0.01065975    0.15139019
     atom   42 type  1   force =    -0.00000000   -0.00098447   -0.03150864
     atom   43 type  2   force =     0.01049462   -0.00141407    0.21315247
     atom   44 type  2   force =    -0.00000000    0.00025073    0.14438689
     atom   45 type  1   force =    -0.10584404   -0.01065975    0.15139019
     atom   46 type  1   force =    -0.01964434   -0.01133936    0.00099451
     atom   47 type  2   force =    -0.01049462   -0.00141407    0.21315247
     atom   48 type  2   force =    -0.00285489   -0.00164809    0.14443219
     atom   49 type  1   force =    -0.04369041    0.09699350    0.15139019
     atom   50 type  1   force =    -0.00000000    0.02268563    0.00099451
     atom   51 type  2   force =    -0.00402269    0.00979565    0.21315247
     atom   52 type  2   force =    -0.00000000    0.00329673    0.14443219
     atom   53 type  1   force =     0.04369041    0.09699350    0.15139019
     atom   54 type  1   force =     0.01449831    0.00837291   -0.02510832
     atom   55 type  2   force =     0.00402269    0.00979565    0.21315247
     atom   56 type  2   force =     0.00225265    0.00130075    0.14437571
     atom   57 type  1   force =     0.00000000    0.00000000    0.05917735
     atom   58 type  1   force =    -0.01449831    0.00837291   -0.02510832
     atom   59 type  2   force =     0.00000000    0.00000000    0.20695217
     atom   60 type  2   force =    -0.00225265    0.00130075    0.14437571
     atom   61 type  1   force =     0.06215363   -0.08633030    0.15139018
     atom   62 type  1   force =     0.00085457    0.00049569   -0.03150864
     atom   63 type  2   force =     0.00647194   -0.00838130    0.21315247
     atom   64 type  2   force =    -0.00021698   -0.00012509    0.14438689
     atom   65 type  1   force =     0.00000000    0.00000345    0.06607542
     atom   66 type  1   force =    -0.00085457    0.00049569   -0.03150864
     atom   67 type  2   force =     0.00000000    0.00000028    0.20750835
     atom   68 type  2   force =     0.00021698   -0.00012509    0.14438689
     atom   69 type  1   force =    -0.06215363   -0.08633030    0.15139018
     atom   70 type  1   force =    -0.00000000   -0.01673891   -0.02510832
     atom   71 type  2   force =    -0.00647194   -0.00838130    0.21315247
     atom   72 type  2   force =    -0.00000000   -0.00260096    0.14437571
     atom   73 type  1   force =     0.00000000    0.00000000   -0.21264714
     atom   74 type  1   force =     0.06241173   -0.03603113   -0.42017269
     atom   75 type  2   force =     0.00000000    0.00000000    0.04897525
     atom   76 type  2   force =     0.07710938   -0.04451894   -0.05727927
     atom   77 type  1   force =     0.01065029    0.00153889   -0.20564498
     atom   78 type  1   force =    -0.00000000   -0.00610736   -0.36773043
     atom   79 type  2   force =     0.00854648   -0.00270094    0.07487348
     atom   80 type  2   force =    -0.00000000   -0.00695804    0.05333346
     atom   81 type  1   force =    -0.01065029    0.00153889   -0.20564498
     atom   82 type  1   force =    -0.06241173   -0.03603113   -0.42017269
     atom   83 type  2   force =    -0.00854648   -0.00270094    0.07487348
     atom   84 type  2   force =    -0.07710938   -0.04451894   -0.05727927
     atom   85 type  1   force =    -0.00665786    0.00845398   -0.20564498
     atom   86 type  1   force =    -0.00000000    0.07206916   -0.42017269
     atom   87 type  2   force =    -0.00193416    0.00875194    0.07487348
     atom   88 type  2   force =    -0.00000000    0.08903843   -0.05727927
     atom   89 type  1   force =     0.00665786    0.00845398   -0.20564498
     atom   90 type  1   force =     0.03602477    0.02080121   -0.38048082
     atom   91 type  2   force =     0.00193416    0.00875194    0.07487348
     atom   92 type  2   force =     0.04746278    0.02740283    0.03632888
     atom   93 type  1   force =     0.00000000    0.00000000   -0.20460829
     atom   94 type  1   force =    -0.03602477    0.02080121   -0.38048082
     atom   95 type  2   force =     0.00000000    0.00000000    0.08174623
     atom   96 type  2   force =    -0.04746278    0.02740283    0.03632888
     atom   97 type  1   force =     0.00399243   -0.00998941   -0.20564498
     atom   98 type  1   force =     0.00529112    0.00305713   -0.36773043
     atom   99 type  2   force =     0.00661233   -0.00605072    0.07487348
     atom  100 type  2   force =     0.00602600    0.00347929    0.05333346
     atom  101 type  1   force =     0.00000000    0.00000345   -0.20555454
     atom  102 type  1   force =    -0.00529112    0.00305713   -0.36773043
     atom  103 type  2   force =     0.00000000    0.00000028    0.08152304
     atom  104 type  2   force =    -0.00602600    0.00347929    0.05333346
     atom  105 type  1   force =    -0.00399243   -0.00998941   -0.20564498
     atom  106 type  1   force =    -0.00000000   -0.04159552   -0.38048082
     atom  107 type  2   force =    -0.00661233   -0.00605072    0.07487348
     atom  108 type  2   force =    -0.00000000   -0.05480511    0.03632888
     The core correction contribution to forces
     atom    1 type  1   force =    -0.00000000    0.00000000    0.00849921
     atom    2 type  1   force =    -0.00546318    0.00315434   -0.00187952
     atom    3 type  3   force =    -0.00000000   -0.00000000   -0.00036660
     atom    4 type  2   force =    -0.00051821    0.00029919   -0.00130023
     atom    5 type  1   force =    -0.00005585   -0.00012432    0.00012591
     atom    6 type  1   force =     0.00000000    0.00028554    0.00010406
     atom    7 type  2   force =    -0.00087924   -0.00012650   -0.00014839
     atom    8 type  2   force =     0.00000000    0.00003634   -0.00014769
     atom    9 type  1   force =     0.00005585   -0.00012432    0.00012591
     atom   10 type  1   force =     0.00546318    0.00315434   -0.00187952
     atom   11 type  2   force =     0.00087924   -0.00012650   -0.00014839
     atom   12 type  2   force =     0.00051821    0.00029919   -0.00130023
     atom   13 type  1   force =     0.00013559    0.00001379    0.00012591
     atom   14 type  1   force =     0.00000000   -0.00630817   -0.00187952
     atom   15 type  2   force =     0.00054917   -0.00069819   -0.00014839
     atom   16 type  2   force =     0.00000000   -0.00059838   -0.00130023
     atom   17 type  1   force =    -0.00013559    0.00001379    0.00012591
     atom   18 type  1   force =     0.00006937    0.00004022    0.00021460
     atom   19 type  2   force =    -0.00054917   -0.00069819   -0.00014839
     atom   20 type  2   force =    -0.00005958   -0.00003440   -0.00015765
     atom   21 type  1   force =    -0.00000000    0.00000000    0.00012296
     atom   22 type  1   force =    -0.00006937    0.00004022    0.00021460
     atom   23 type  2   force =    -0.00000000   -0.00000000   -0.00024120
     atom   24 type  2   force =     0.00005958   -0.00003440   -0.00015765
     atom   25 type  1   force =     0.00007974    0.00011079    0.00012591
     atom   26 type  1   force =    -0.00024713   -0.00014251    0.00010406
     atom   27 type  2   force =    -0.00033007    0.00082469   -0.00014839
     atom   28 type  2   force =    -0.00003147   -0.00001817   -0.00014769
     atom   29 type  1   force =    -0.00000000    0.00000026    0.00014754
     atom   30 type  1   force =     0.00024713   -0.00014251    0.00010406
     atom   31 type  2   force =    -0.00000000   -0.00000000   -0.00025830
     atom   32 type  2   force =     0.00003147   -0.00001817   -0.00014769
     atom   33 type  1   force =    -0.00007974    0.00011079    0.00012591
     atom   34 type  1   force =    -0.00000000   -0.00007993    0.00021460
     atom   35 type  2   force =     0.00033007    0.00082469   -0.00014839
     atom   36 type  2   force =     0.00000000    0.00006879   -0.00015765
     atom   37 type  1   force =    -0.00000000    0.00000000    0.00049956
     atom   38 type  1   force =    -0.00001699    0.00000998    0.00025294
     atom   39 type  2   force =    -0.00000000   -0.00000000   -0.00032306
     atom   40 type  2   force =    -0.00001211    0.00000699   -0.00020771
     atom   41 type  1   force =    -0.00020562   -0.00011946    0.00021075
     atom   42 type  1   force =     0.00000000    0.00002245    0.00022031
     atom   43 type  2   force =    -0.00005351   -0.00003582   -0.00028012
     atom   44 type  2   force =     0.00000000    0.00002272   -0.00020853
     atom   45 type  1   force =     0.00020562   -0.00011946    0.00021075
     atom   46 type  1   force =     0.00001699    0.00000998    0.00025294
     atom   47 type  2   force =     0.00005351   -0.00003582   -0.00028012
     atom   48 type  2   force =     0.00001211    0.00000699   -0.00020771
     atom   49 type  1   force =     0.00020626   -0.00011834    0.00021075
     atom   50 type  1   force =     0.00000000   -0.00001945    0.00025294
     atom   51 type  2   force =     0.00005778   -0.00002843   -0.00028012
     atom   52 type  2   force =     0.00000000   -0.00001399   -0.00020771
     atom   53 type  1   force =    -0.00020626   -0.00011834    0.00021075
     atom   54 type  1   force =    -0.00001505   -0.00000852    0.00022142
     atom   55 type  2   force =    -0.00005778   -0.00002843   -0.00028012
     atom   56 type  2   force =    -0.00000923   -0.00000533   -0.00020920
     atom   57 type  1   force =    -0.00000000    0.00000000    0.00020360
     atom   58 type  1   force =     0.00001505   -0.00000852    0.00022142
     atom   59 type  2   force =    -0.00000000   -0.00000000   -0.00017806
     atom   60 type  2   force =     0.00000923   -0.00000533   -0.00020920
     atom   61 type  1   force =     0.00000064    0.00023806    0.00021075
     atom   62 type  1   force =    -0.00001930   -0.00001097    0.00022031
     atom   63 type  2   force =     0.00000427    0.00006425   -0.00028012
     atom   64 type  2   force =    -0.00001968   -0.00001136   -0.00020853
     atom   65 type  1   force =    -0.00000000    0.00000026    0.00023631
     atom   66 type  1   force =     0.00001930   -0.00001097    0.00022031
     atom   67 type  2   force =    -0.00000000   -0.00000000   -0.00016472
     atom   68 type  2   force =     0.00001968   -0.00001136   -0.00020853
     atom   69 type  1   force =    -0.00000064    0.00023806    0.00021075
     atom   70 type  1   force =     0.00000000    0.00001755    0.00022142
     atom   71 type  2   force =    -0.00000427    0.00006425   -0.00028012
     atom   72 type  2   force =     0.00000000    0.00001066   -0.00020920
     atom   73 type  1   force =    -0.00000000    0.00000000    0.00027317
     atom   74 type  1   force =     0.00006892   -0.00003962    0.00063154
     atom   75 type  2   force =    -0.00000000   -0.00000000   -0.00011358
     atom   76 type  2   force =    -0.00083873    0.00048424    0.00068008
     atom   77 type  1   force =     0.00000328    0.00000715    0.00024736
     atom   78 type  1   force =     0.00000000    0.00002653    0.00015378
     atom   79 type  2   force =    -0.00009559   -0.00006231   -0.00015052
     atom   80 type  2   force =     0.00000000    0.00005741   -0.00027471
     atom   81 type  1   force =    -0.00000328    0.00000715    0.00024736
     atom   82 type  1   force =    -0.00006892   -0.00003962    0.00063154
     atom   83 type  2   force =     0.00009559   -0.00006231   -0.00015052
     atom   84 type  2   force =     0.00083873    0.00048424    0.00068008
     atom   85 type  1   force =    -0.00000784   -0.00000074    0.00024736
     atom   86 type  1   force =     0.00000000    0.00007975    0.00063154
     atom   87 type  2   force =     0.00010176   -0.00005163   -0.00015052
     atom   88 type  2   force =     0.00000000   -0.00096848    0.00068008
     atom   89 type  1   force =     0.00000784   -0.00000074    0.00024736
     atom   90 type  1   force =     0.00000267    0.00000171    0.00017550
     atom   91 type  2   force =    -0.00010176   -0.00005163   -0.00015052
     atom   92 type  2   force =    -0.00007261   -0.00004192   -0.00027468
     atom   93 type  1   force =    -0.00000000    0.00000000    0.00020590
     atom   94 type  1   force =    -0.00000267    0.00000171    0.00017550
     atom   95 type  2   force =    -0.00000000   -0.00000000   -0.00024319
     atom   96 type  2   force =     0.00007261   -0.00004192   -0.00027468
     atom   97 type  1   force =    -0.00000456   -0.00000616    0.00024736
     atom   98 type  1   force =    -0.00002283   -0.00001301    0.00015378
     atom   99 type  2   force =     0.00000617    0.00011394   -0.00015052
     atom  100 type  2   force =    -0.00004972   -0.00002871   -0.00027471
     atom  101 type  1   force =    -0.00000000    0.00000026    0.00019481
     atom  102 type  1   force =     0.00002283   -0.00001301    0.00015378
     atom  103 type  2   force =    -0.00000000   -0.00000000   -0.00024971
     atom  104 type  2   force =     0.00004972   -0.00002871   -0.00027471
     atom  105 type  1   force =     0.00000456   -0.00000616    0.00024736
     atom  106 type  1   force =     0.00000000   -0.00000291    0.00017550
     atom  107 type  2   force =    -0.00000617    0.00011394   -0.00015052
     atom  108 type  2   force =     0.00000000    0.00008384   -0.00027468
     The Hubbard contrib.    to forces
     atom    1 type  1   force =     0.00000000    0.00000000    0.00000000
     atom    2 type  1   force =     0.00000000    0.00000000    0.00000000
     atom    3 type  3   force =     0.00000000    0.00000000    0.00000000
     atom    4 type  2   force =     0.00000000    0.00000000    0.00000000
     atom    5 type  1   force =     0.00000000    0.00000000    0.00000000
     atom    6 type  1   force =     0.00000000    0.00000000    0.00000000
     atom    7 type  2   force =     0.00000000    0.00000000    0.00000000
     atom    8 type  2   force =     0.00000000    0.00000000    0.00000000
     atom    9 type  1   force =     0.00000000    0.00000000    0.00000000
     atom   10 type  1   force =     0.00000000    0.00000000    0.00000000
     atom   11 type  2   force =     0.00000000    0.00000000    0.00000000
     atom   12 type  2   force =     0.00000000    0.00000000    0.00000000
     atom   13 type  1   force =     0.00000000    0.00000000    0.00000000
     atom   14 type  1   force =     0.00000000    0.00000000    0.00000000
     atom   15 type  2   force =     0.00000000    0.00000000    0.00000000
     atom   16 type  2   force =     0.00000000    0.00000000    0.00000000
     atom   17 type  1   force =     0.00000000    0.00000000    0.00000000
     atom   18 type  1   force =     0.00000000    0.00000000    0.00000000
     atom   19 type  2   force =     0.00000000    0.00000000    0.00000000
     atom   20 type  2   force =     0.00000000    0.00000000    0.00000000
     atom   21 type  1   force =     0.00000000    0.00000000    0.00000000
     atom   22 type  1   force =     0.00000000    0.00000000    0.00000000
     atom   23 type  2   force =     0.00000000    0.00000000    0.00000000
     atom   24 type  2   force =     0.00000000    0.00000000    0.00000000
     atom   25 type  1   force =     0.00000000    0.00000000    0.00000000
     atom   26 type  1   force =     0.00000000    0.00000000    0.00000000
     atom   27 type  2   force =     0.00000000    0.00000000    0.00000000
     atom   28 type  2   force =     0.00000000    0.00000000    0.00000000
     atom   29 type  1   force =     0.00000000    0.00000000    0.00000000
     atom   30 type  1   force =     0.00000000    0.00000000    0.00000000
     atom   31 type  2   force =     0.00000000    0.00000000    0.00000000
     atom   32 type  2   force =     0.00000000    0.00000000    0.00000000
     atom   33 type  1   force =     0.00000000    0.00000000    0.00000000
     atom   34 type  1   force =     0.00000000    0.00000000    0.00000000
     atom   35 type  2   force =     0.00000000    0.00000000    0.00000000
     atom   36 type  2   force =     0.00000000    0.00000000    0.00000000
     atom   37 type  1   force =     0.00000000    0.00000000    0.00000000
     atom   38 type  1   force =     0.00000000    0.00000000    0.00000000
     atom   39 type  2   force =     0.00000000    0.00000000    0.00000000
     atom   40 type  2   force =     0.00000000    0.00000000    0.00000000
     atom   41 type  1   force =     0.00000000    0.00000000    0.00000000
     atom   42 type  1   force =     0.00000000    0.00000000    0.00000000
     atom   43 type  2   force =     0.00000000    0.00000000    0.00000000
     atom   44 type  2   force =     0.00000000    0.00000000    0.00000000
     atom   45 type  1   force =     0.00000000    0.00000000    0.00000000
     atom   46 type  1   force =     0.00000000    0.00000000    0.00000000
     atom   47 type  2   force =     0.00000000    0.00000000    0.00000000
     atom   48 type  2   force =     0.00000000    0.00000000    0.00000000
     atom   49 type  1   force =     0.00000000    0.00000000    0.00000000
     atom   50 type  1   force =     0.00000000    0.00000000    0.00000000
     atom   51 type  2   force =     0.00000000    0.00000000    0.00000000
     atom   52 type  2   force =     0.00000000    0.00000000    0.00000000
     atom   53 type  1   force =     0.00000000    0.00000000    0.00000000
     atom   54 type  1   force =     0.00000000    0.00000000    0.00000000
     atom   55 type  2   force =     0.00000000    0.00000000    0.00000000
     atom   56 type  2   force =     0.00000000    0.00000000    0.00000000
     atom   57 type  1   force =     0.00000000    0.00000000    0.00000000
     atom   58 type  1   force =     0.00000000    0.00000000    0.00000000
     atom   59 type  2   force =     0.00000000    0.00000000    0.00000000
     atom   60 type  2   force =     0.00000000    0.00000000    0.00000000
     atom   61 type  1   force =     0.00000000    0.00000000    0.00000000
     atom   62 type  1   force =     0.00000000    0.00000000    0.00000000
     atom   63 type  2   force =     0.00000000    0.00000000    0.00000000
     atom   64 type  2   force =     0.00000000    0.00000000    0.00000000
     atom   65 type  1   force =     0.00000000    0.00000000    0.00000000
     atom   66 type  1   force =     0.00000000    0.00000000    0.00000000
     atom   67 type  2   force =     0.00000000    0.00000000    0.00000000
     atom   68 type  2   force =     0.00000000    0.00000000    0.00000000
     atom   69 type  1   force =     0.00000000    0.00000000    0.00000000
     atom   70 type  1   force =     0.00000000    0.00000000    0.00000000
     atom   71 type  2   force =     0.00000000    0.00000000    0.00000000
     atom   72 type  2   force =     0.00000000    0.00000000    0.00000000
     atom   73 type  1   force =     0.00000000    0.00000000    0.00000000
     atom   74 type  1   force =     0.00000000    0.00000000    0.00000000
     atom   75 type  2   force =     0.00000000    0.00000000    0.00000000
     atom   76 type  2   force =     0.00000000    0.00000000    0.00000000
     atom   77 type  1   force =     0.00000000    0.00000000    0.00000000
     atom   78 type  1   force =     0.00000000    0.00000000    0.00000000
     atom   79 type  2   force =     0.00000000    0.00000000    0.00000000
     atom   80 type  2   force =     0.00000000    0.00000000    0.00000000
     atom   81 type  1   force =     0.00000000    0.00000000    0.00000000
     atom   82 type  1   force =     0.00000000    0.00000000    0.00000000
     atom   83 type  2   force =     0.00000000    0.00000000    0.00000000
     atom   84 type  2   force =     0.00000000    0.00000000    0.00000000
     atom   85 type  1   force =     0.00000000    0.00000000    0.00000000
     atom   86 type  1   force =     0.00000000    0.00000000    0.00000000
     atom   87 type  2   force =     0.00000000    0.00000000    0.00000000
     atom   88 type  2   force =     0.00000000    0.00000000    0.00000000
     atom   89 type  1   force =     0.00000000    0.00000000    0.00000000
     atom   90 type  1   force =     0.00000000    0.00000000    0.00000000
     atom   91 type  2   force =     0.00000000    0.00000000    0.00000000
     atom   92 type  2   force =     0.00000000    0.00000000    0.00000000
     atom   93 type  1   force =     0.00000000    0.00000000    0.00000000
     atom   94 type  1   force =     0.00000000    0.00000000    0.00000000
     atom   95 type  2   force =     0.00000000    0.00000000    0.00000000
     atom   96 type  2   force =     0.00000000    0.00000000    0.00000000
     atom   97 type  1   force =     0.00000000    0.00000000    0.00000000
     atom   98 type  1   force =     0.00000000    0.00000000    0.00000000
     atom   99 type  2   force =     0.00000000    0.00000000    0.00000000
     atom  100 type  2   force =     0.00000000    0.00000000    0.00000000
     atom  101 type  1   force =     0.00000000    0.00000000    0.00000000
     atom  102 type  1   force =     0.00000000    0.00000000    0.00000000
     atom  103 type  2   force =     0.00000000    0.00000000    0.00000000
     atom  104 type  2   force =     0.00000000    0.00000000    0.00000000
     atom  105 type  1   force =     0.00000000    0.00000000    0.00000000
     atom  106 type  1   force =     0.00000000    0.00000000    0.00000000
     atom  107 type  2   force =     0.00000000    0.00000000    0.00000000
     atom  108 type  2   force =     0.00000000    0.00000000    0.00000000
     The SCF correction term to forces
     atom    1 type  1   force =     0.00000000    0.00000000   -0.00000097
     atom    2 type  1   force =    -0.00000355    0.00000205   -0.00000565
     atom    3 type  3   force =     0.00000000    0.00000000   -0.00000106
     atom    4 type  2   force =    -0.00000128    0.00000074   -0.00000107
     atom    5 type  1   force =    -0.00000505    0.00000064    0.00000032
     atom    6 type  1   force =    -0.00000000    0.00000036   -0.00000050
     atom    7 type  2   force =    -0.00000302    0.00000058   -0.00000070
     atom    8 type  2   force =     0.00000000    0.00000008    0.00000093
     atom    9 type  1   force =     0.00000505    0.00000064    0.00000032
     atom   10 type  1   force =     0.00000355    0.00000205   -0.00000565
     atom   11 type  2   force =     0.00000302    0.00000058   -0.00000070
     atom   12 type  2   force =     0.00000128    0.00000074   -0.00000107
     atom   13 type  1   force =     0.00000197   -0.00000470    0.00000032
     atom   14 type  1   force =     0.00000000   -0.00000410   -0.00000565
     atom   15 type  2   force =     0.00000100   -0.00000290   -0.00000070
     atom   16 type  2   force =     0.00000000   -0.00000148   -0.00000107
     atom   17 type  1   force =    -0.00000197   -0.00000470    0.00000032
     atom   18 type  1   force =    -0.00000226   -0.00000130   -0.00000178
     atom   19 type  2   force =    -0.00000100   -0.00000290   -0.00000070
     atom   20 type  2   force =    -0.00000050   -0.00000029    0.00000005
     atom   21 type  1   force =     0.00000000    0.00000000    0.00000206
     atom   22 type  1   force =     0.00000226   -0.00000130   -0.00000178
     atom   23 type  2   force =     0.00000000    0.00000000    0.00000033
     atom   24 type  2   force =     0.00000050   -0.00000029    0.00000005
     atom   25 type  1   force =    -0.00000308    0.00000405    0.00000032
     atom   26 type  1   force =    -0.00000031   -0.00000018   -0.00000050
     atom   27 type  2   force =    -0.00000201    0.00000232   -0.00000070
     atom   28 type  2   force =    -0.00000007   -0.00000004    0.00000093
     atom   29 type  1   force =     0.00000000    0.00000000   -0.00000146
     atom   30 type  1   force =     0.00000031   -0.00000018   -0.00000050
     atom   31 type  2   force =     0.00000000   -0.00000000   -0.00000053
     atom   32 type  2   force =     0.00000007   -0.00000004    0.00000093
     atom   33 type  1   force =     0.00000308    0.00000405    0.00000032
     atom   34 type  1   force =    -0.00000000    0.00000260   -0.00000178
     atom   35 type  2   force =     0.00000201    0.00000232   -0.00000070
     atom   36 type  2   force =     0.00000000    0.00000058    0.00000005
     atom   37 type  1   force =     0.00000000    0.00000000   -0.00000116
     atom   38 type  1   force =     0.00000008   -0.00000005    0.00000116
     atom   39 type  2   force =     0.00000000    0.00000000    0.00000058
     atom   40 type  2   force =    -0.00000011    0.00000006   -0.00000002
     atom   41 type  1   force =     0.00000115    0.00000219    0.00000198
     atom   42 type  1   force =    -0.00000000    0.00000054    0.00000070
     atom   43 type  2   force =     0.00000003    0.00000022    0.00000104
     atom   44 type  2   force =     0.00000000    0.00000005   -0.00000025
     atom   45 type  1   force =    -0.00000115    0.00000219    0.00000198
     atom   46 type  1   force =    -0.00000008   -0.00000005    0.00000116
     atom   47 type  2   force =    -0.00000003    0.00000022    0.00000104
     atom   48 type  2   force =     0.00000011    0.00000006   -0.00000002
     atom   49 type  1   force =    -0.00000247   -0.00000010    0.00000198
     atom   50 type  1   force =    -0.00000000    0.00000009    0.00000116
     atom   51 type  2   force =    -0.00000020   -0.00000008    0.00000104
     atom   52 type  2   force =     0.00000000   -0.00000013   -0.00000002
     atom   53 type  1   force =     0.00000247   -0.00000010    0.00000198
     atom   54 type  1   force =    -0.00000016   -0.00000009    0.00000074
     atom   55 type  2   force =     0.00000020   -0.00000008    0.00000104
     atom   56 type  2   force =     0.00000016    0.00000009   -0.00000009
     atom   57 type  1   force =     0.00000000    0.00000000    0.00000196
     atom   58 type  1   force =     0.00000016   -0.00000009    0.00000074
     atom   59 type  2   force =     0.00000000    0.00000000    0.00000096
     atom   60 type  2   force =    -0.00000016    0.00000009   -0.00000009
     atom   61 type  1   force =    -0.00000132   -0.00000209    0.00000198
     atom   62 type  1   force =    -0.00000046   -0.00000027    0.00000070
     atom   63 type  2   force =    -0.00000017   -0.00000014    0.00000104
     atom   64 type  2   force =    -0.00000005   -0.00000003   -0.00000025
     atom   65 type  1   force =     0.00000000    0.00000000    0.00000168
     atom   66 type  1   force =     0.00000046   -0.00000027    0.00000070
     atom   67 type  2   force =     0.00000000   -0.00000000    0.00000086
     atom   68 type  2   force =     0.00000005   -0.00000003   -0.00000025
     atom   69 type  1   force =     0.00000132   -0.00000209    0.00000198
     atom   70 type  1   force =    -0.00000000    0.00000018    0.00000074
     atom   71 type  2   force =     0.00000017   -0.00000014    0.00000104
     atom   72 type  2   force =     0.00000000   -0.00000018   -0.00000009
     atom   73 type  1   force =    -0.00000000    0.00000000    0.00000011
     atom   74 type  1   force =    -0.00000258    0.00000149   -0.00000087
     atom   75 type  2   force =     0.00000000    0.00000000    0.00000090
     atom   76 type  2   force =    -0.00000200    0.00000115    0.00000112
     atom   77 type  1   force =    -0.00000027    0.00000066   -0.00000020
     atom   78 type  1   force =    -0.00000000    0.00000019   -0.00000187
     atom   79 type  2   force =    -0.00000055    0.00000012   -0.00000036
     atom   80 type  2   force =     0.00000000    0.00000025   -0.00000038
     atom   81 type  1   force =     0.00000027    0.00000066   -0.00000020
     atom   82 type  1   force =     0.00000258    0.00000149   -0.00000087
     atom   83 type  2   force =     0.00000055    0.00000012   -0.00000036
     atom   84 type  2   force =     0.00000200    0.00000115    0.00000112
     atom   85 type  1   force =    -0.00000044   -0.00000056   -0.00000020
     atom   86 type  1   force =     0.00000000   -0.00000298   -0.00000087
     atom   87 type  2   force =     0.00000018   -0.00000054   -0.00000036
     atom   88 type  2   force =     0.00000000   -0.00000231    0.00000112
     atom   89 type  1   force =     0.00000044   -0.00000056   -0.00000020
     atom   90 type  1   force =    -0.00000193   -0.00000111   -0.00000305
     atom   91 type  2   force =    -0.00000018   -0.00000054   -0.00000036
     atom   92 type  2   force =    -0.00000187   -0.00000108    0.00000026
     atom   93 type  1   force =     0.00000000    0.00000000   -0.00000103
     atom   94 type  1   force =     0.00000193   -0.00000111   -0.00000305
     atom   95 type  2   force =     0.00000000    0.00000000   -0.00000142
     atom   96 type  2   force =     0.00000187   -0.00000108    0.00000026
     atom   97 type  1   force =    -0.00000070   -0.00000010   -0.00000020
     atom   98 type  1   force =    -0.00000016   -0.00000009   -0.00000187
     atom   99 type  2   force =    -0.00000038    0.00000042   -0.00000036
     atom  100 type  2   force =    -0.00000021   -0.00000012   -0.00000038
     atom  101 type  1   force =     0.00000000    0.00000000   -0.00000025
     atom  102 type  1   force =     0.00000016   -0.00000009   -0.00000187
     atom  103 type  2   force =     0.00000000   -0.00000000   -0.00000095
     atom  104 type  2   force =     0.00000021   -0.00000012   -0.00000038
     atom  105 type  1   force =     0.00000070   -0.00000010   -0.00000020
     atom  106 type  1   force =    -0.00000000    0.00000222   -0.00000305
     atom  107 type  2   force =     0.00000038    0.00000042   -0.00000036
     atom  108 type  2   force =     0.00000000    0.00000216    0.00000026

     Total force =     0.058084     Total SCF correction =     0.000025

     Writing all to output data dir ./tmp/GaN.save/ :
     XML data file, charge density, pseudopotentials, collected wavefunctions
 
     init_run     :     50.23s CPU     51.35s WALL (       1 calls)
     electrons    :   4683.86s CPU   4790.90s WALL (       1 calls)
     forces       :     27.46s CPU     28.37s WALL (       1 calls)

     Called by init_run:
     wfcinit      :     47.27s CPU     47.91s WALL (       1 calls)
     wfcinit:atom :      0.28s CPU      0.31s WALL (      12 calls)
     wfcinit:wfcr :     45.43s CPU     45.84s WALL (      12 calls)
     potinit      :      1.36s CPU      1.44s WALL (       1 calls)
     hinit0       :      0.47s CPU      0.49s WALL (       1 calls)

     Called by electrons:
     c_bands      :   4311.75s CPU   4396.26s WALL (      25 calls)
     sum_band     :    318.53s CPU    331.07s WALL (      25 calls)
     v_of_rho     :      6.99s CPU      7.83s WALL (      26 calls)
     v_h          :      0.31s CPU      0.31s WALL (      26 calls)
     v_xc         :      6.93s CPU      7.80s WALL (      27 calls)
     newd         :     19.15s CPU     28.06s WALL (      26 calls)
     PAW_pot      :     27.39s CPU     27.57s WALL (      26 calls)
     mix_rho      :      1.31s CPU      1.47s WALL (      25 calls)

     Called by c_bands:
     init_us_2    :     30.15s CPU     30.20s WALL (     624 calls)
     cegterg      :   4260.99s CPU   4344.87s WALL (     300 calls)

     Called by sum_band:
     sum_band:wei :      0.07s CPU      0.07s WALL (      25 calls)
     sum_band:loo :    290.54s CPU    293.67s WALL (      25 calls)
     sum_band:buf :      3.50s CPU      3.50s WALL (     300 calls)
     sum_band:ini :     14.48s CPU     14.49s WALL (     300 calls)
     sum_band:cal :    141.89s CPU    141.97s WALL (     300 calls)
     sum_band:bec :      1.21s CPU      1.22s WALL (     300 calls)
     addusdens    :     26.94s CPU     36.16s WALL (      25 calls)
                                        0.00s GPU  (      25 calls)
     addusd:skk   :      1.09s CPU      3.03s WALL (      75 calls)
                                        0.00s GPU  (      75 calls)

     Called by *egterg:
     cdiaghg      :    662.94s CPU    680.68s WALL (    2532 calls)
     cegterg:over :    434.52s CPU    439.82s WALL (    2232 calls)
     cegterg:upda :    299.35s CPU    308.53s WALL (    2232 calls)
     cegterg:last :    691.94s CPU    692.35s WALL (     880 calls)
     cdiaghg:chol :     18.82s CPU     28.06s WALL (    2532 calls)
     cdiaghg:inve :      8.25s CPU     10.99s WALL (    2532 calls)
     cdiaghg:para :    133.52s CPU    135.71s WALL (    5064 calls)
     h_psi        :   1619.01s CPU   1644.99s WALL (    2544 calls)
     s_psi        :    488.68s CPU    490.77s WALL (    2544 calls)
     g_psi        :      5.43s CPU      5.45s WALL (    2232 calls)

     Called by h_psi:
     h_psi:calbec :    486.46s CPU    486.80s WALL (    2544 calls)
     vloc_psi     :    635.67s CPU    650.83s WALL (    2544 calls)
     add_vuspsi   :    489.36s CPU    491.88s WALL (    2544 calls)

     General routines
     calbec       :    651.07s CPU    651.50s WALL (    2892 calls)
     fft          :      3.20s CPU      3.43s WALL (     663 calls)
     ffts         :      0.09s CPU      0.10s WALL (     102 calls)
     fftw         :    482.67s CPU    494.02s WALL ( 1173582 calls)
     interpolate  :      0.36s CPU      0.45s WALL (      52 calls)
 
     Parallel routines

     PAW routines
     PAW_pot      :     27.39s CPU     27.57s WALL (      26 calls)
     PAW_symme    :      0.02s CPU      0.03s WALL (      51 calls)
 
     PWSCF        :      1h19m CPU      1h21m WALL

 
   This run was terminated on:   9:37:16  30Aug2026            

=------------------------------------------------------------------------------=
   JOB DONE.
=------------------------------------------------------------------------------=
