
     Program PWSCF v.7.3.1 starts on 31Jul2026 at 14:49:14 

     This program is part of the open-source Quantum ESPRESSO suite
     for quantum simulation of materials; please cite
         "P. Giannozzi et al., J. Phys.:Condens. Matter 21 395502 (2009);
         "P. Giannozzi et al., J. Phys.:Condens. Matter 29 465901 (2017);
         "P. Giannozzi et al., J. Chem. Phys. 152 154105 (2020);
          URL http://www.quantum-espresso.org", 
     in publications or presentations arising from this work. More details at
     http://www.quantum-espresso.org/quote

     Parallel version (MPI & OpenMP), running on      12 processor cores
     Number of MPI processes:                12
     Threads/MPI process:                     1

     MPI processes distributed on     1 nodes
     2283 MiB available memory on the printing compute node when the environment starts
 
     Waiting for input...
     Reading input from standard input

     Current dimensions of program PWSCF are:
     Max number of different atomic species (ntypx) = 10
     Max number of k-points (npk) =  40000
     Max angular momentum in pseudopotentials (lmaxx) =  4
     file Ga.pbe-dn-kjpaw_psl.1.0.0.UPF: wavefunction(s)  4S renormalized
     file N.pbe-n-kjpaw_psl.1.0.0.UPF: wavefunction(s)  2S renormalized

     Atomic positions and unit cell read from directory:
     ./tmp/GaN.save/
 
     [opt_tetra]  Optimized tetrahedron method is used.
 
     R & G space division:  proc/nbgrp/npool/nimage =      12
     Subspace diagonalization in iterative solution of the eigenvalue problem:
     a serial algorithm will be used

 
     Parallelization info
     --------------------
     sticks:   dense  smooth     PW     G-vecs:    dense   smooth      PW
     Min         149      59     17                 8301     2091     332
     Max         150      61     19                 8308     2094     335
     Sum        1789     721    211                99623    25109    3995
 
     Using Slab Decomposition
 


     bravais-lattice index     =            4
     lattice parameter (alat)  =       6.0849  a.u.
     unit-cell volume          =     318.1254 (a.u.)^3
     number of atoms/cell      =            4
     number of atomic types    =            2
     number of electrons       =        36.00
     number of Kohn-Sham states=           37
     kinetic-energy cutoff     =      70.0000  Ry
     charge density cutoff     =     700.0000  Ry
     Exchange-correlation= SLA  PW   PBX  PBC
                           (   1   4   3   4   0   0   0)

     celldm(1)=   6.084918  celldm(2)=   0.000000  celldm(3)=   1.630435
     celldm(4)=   0.000000  celldm(5)=   0.000000  celldm(6)=   0.000000

     crystal axes: (cart. coord. in units of alat)
               a(1) = (   1.000000   0.000000   0.000000 )  
               a(2) = (  -0.500000   0.866025   0.000000 )  
               a(3) = (   0.000000   0.000000   1.630435 )  

     reciprocal axes: (cart. coord. in units 2 pi/alat)
               b(1) = (  1.000000  0.577350  0.000000 )  
               b(2) = (  0.000000  1.154701  0.000000 )  
               b(3) = (  0.000000  0.000000  0.613333 )  


     PseudoPot. # 1 for Ga read from file:
     /data-fast/greenano/Students/cohort2/rojassan/Project_GaN/PSEUDO/Ga.pbe-dn-kjpaw_psl.1.0.0.UPF
     MD5 check sum: 93aceff68ec27daa0acc11ebb2e245f0
     Pseudo is Projector augmented-wave + core cor, Zval = 13.0
     Generated using 'atomic' code by A. Dal Corso  v.7.3.1
     Shape of augmentation charge: PSQ
     Using radial grid of 1205 points,  6 beta functions with: 
                l(1) =   0
                l(2) =   0
                l(3) =   1
                l(4) =   1
                l(5) =   2
                l(6) =   2
     Q(r) pseudized with 0 coefficients 


     PseudoPot. # 2 for N  read from file:
     /data-fast/greenano/Students/cohort2/rojassan/Project_GaN/PSEUDO/N.pbe-n-kjpaw_psl.1.0.0.UPF
     MD5 check sum: 86f48117b7e7b472c01f85d0863ba463
     Pseudo is Projector augmented-wave + core cor, Zval =  5.0
     Generated using 'atomic' code by A. Dal Corso  v.7.3.1
     Shape of augmentation charge: PSQ
     Using radial grid of 1085 points,  4 beta functions with: 
                l(1) =   0
                l(2) =   0
                l(3) =   1
                l(4) =   1
     Q(r) pseudized with 0 coefficients 


     atomic species   valence    mass     pseudopotential
     Ga               13.00    69.72300     Ga( 1.00)
     N                 5.00    14.00700     N ( 1.00)

     12 Sym. Ops. (no inversion) found ( 6 have fractional translation)


                                    s                        frac. trans.

      isym =  1     identity                                     

 cryst.   s( 1) = (     1          0          0      )
                  (     0          1          0      )
                  (     0          0          1      )

 cart.    s( 1) = (  1.0000000  0.0000000  0.0000000 )
                  (  0.0000000  1.0000000  0.0000000 )
                  (  0.0000000  0.0000000  1.0000000 )


      isym =  2     180 deg rotation - cart. axis [0,0,1]        

 cryst.   s( 2) = (    -1          0          0      )    f =(  0.0000000 )
                  (     0         -1          0      )       (  0.0000000 )
                  (     0          0          1      )       ( -0.5000000 )

 cart.    s( 2) = ( -1.0000000  0.0000000  0.0000000 )    f =(  0.0000000 )
                  (  0.0000000 -1.0000000  0.0000000 )       (  0.0000000 )
                  (  0.0000000  0.0000000  1.0000000 )       ( -0.8152174 )


      isym =  3      60 deg rotation - cryst. axis [0,0,1]       

 cryst.   s( 3) = (     1          1          0      )    f =( -0.0000000 )
                  (    -1          0          0      )       ( -0.0000000 )
                  (     0          0          1      )       ( -0.5000000 )

 cart.    s( 3) = (  0.5000000 -0.8660254  0.0000000 )    f =( -0.0000000 )
                  (  0.8660254  0.5000000  0.0000000 )       ( -0.0000000 )
                  (  0.0000000  0.0000000  1.0000000 )       ( -0.8152174 )


      isym =  4      60 deg rotation - cryst. axis [0,0,-1]      

 cryst.   s( 4) = (     0         -1          0      )    f =(  0.0000000 )
                  (     1          1          0      )       (  0.0000000 )
                  (     0          0          1      )       ( -0.5000000 )

 cart.    s( 4) = (  0.5000000  0.8660254  0.0000000 )    f =( -0.0000000 )
                  ( -0.8660254  0.5000000  0.0000000 )       (  0.0000000 )
                  (  0.0000000  0.0000000  1.0000000 )       ( -0.8152174 )


      isym =  5     120 deg rotation - cryst. axis [0,0,1]       

 cryst.   s( 5) = (     0          1          0      )
                  (    -1         -1          0      )
                  (     0          0          1      )

 cart.    s( 5) = ( -0.5000000 -0.8660254  0.0000000 )
                  (  0.8660254 -0.5000000  0.0000000 )
                  (  0.0000000  0.0000000  1.0000000 )


      isym =  6     120 deg rotation - cryst. axis [0,0,-1]      

 cryst.   s( 6) = (    -1         -1          0      )
                  (     1          0          0      )
                  (     0          0          1      )

 cart.    s( 6) = ( -0.5000000  0.8660254  0.0000000 )
                  ( -0.8660254 -0.5000000  0.0000000 )
                  (  0.0000000  0.0000000  1.0000000 )


      isym =  7     inv. 180 deg rotation - cart. axis [0,1,0]   

 cryst.   s( 7) = (     1          0          0      )    f =( -0.0000000 )
                  (    -1         -1          0      )       (  0.0000000 )
                  (     0          0          1      )       ( -0.5000000 )

 cart.    s( 7) = (  1.0000000  0.0000000  0.0000000 )    f =( -0.0000000 )
                  (  0.0000000 -1.0000000  0.0000000 )       (  0.0000000 )
                  (  0.0000000  0.0000000  1.0000000 )       ( -0.8152174 )


      isym =  8     inv. 180 deg rotation - cart. axis [1,0,0]   

 cryst.   s( 8) = (    -1          0          0      )
                  (     1          1          0      )
                  (     0          0          1      )

 cart.    s( 8) = ( -1.0000000  0.0000000  0.0000000 )
                  (  0.0000000  1.0000000  0.0000000 )
                  (  0.0000000  0.0000000  1.0000000 )


      isym =  9     inv. 180 deg rotation - cryst. axis [1,-1,0] 

 cryst.   s( 9) = (     0          1          0      )    f =(  0.0000000 )
                  (     1          0          0      )       ( -0.0000000 )
                  (     0          0          1      )       ( -0.5000000 )

 cart.    s( 9) = ( -0.5000000  0.8660254  0.0000000 )    f =(  0.0000000 )
                  (  0.8660254  0.5000000  0.0000000 )       ( -0.0000000 )
                  (  0.0000000  0.0000000  1.0000000 )       ( -0.8152174 )


      isym = 10     inv. 180 deg rotation - cryst. axis [2,1,0]  

 cryst.   s(10) = (    -1         -1          0      )    f =(  0.0000000 )
                  (     0          1          0      )       (  0.0000000 )
                  (     0          0          1      )       ( -0.5000000 )

 cart.    s(10) = ( -0.5000000 -0.8660254  0.0000000 )    f =(  0.0000000 )
                  ( -0.8660254  0.5000000  0.0000000 )       (  0.0000000 )
                  (  0.0000000  0.0000000  1.0000000 )       ( -0.8152174 )


      isym = 11     inv. 180 deg rotation - cryst. axis [0,1,0]  

 cryst.   s(11) = (     1          1          0      )
                  (     0         -1          0      )
                  (     0          0          1      )

 cart.    s(11) = (  0.5000000  0.8660254  0.0000000 )
                  (  0.8660254 -0.5000000  0.0000000 )
                  (  0.0000000  0.0000000  1.0000000 )


      isym = 12     inv. 180 deg rotation - cryst. axis [1,1,0]  

 cryst.   s(12) = (     0         -1          0      )
                  (    -1          0          0      )
                  (     0          0          1      )

 cart.    s(12) = (  0.5000000 -0.8660254  0.0000000 )
                  ( -0.8660254 -0.5000000  0.0000000 )
                  (  0.0000000  0.0000000  1.0000000 )


     point group C_6v (6mm) 
     there are  6 classes
     the character table:

       E     2C6   2C3   C2    3s_v  3s_d 
A_1    1.00  1.00  1.00  1.00  1.00  1.00
A_2    1.00  1.00  1.00  1.00 -1.00 -1.00
B_1    1.00 -1.00  1.00 -1.00  1.00 -1.00
B_2    1.00 -1.00  1.00 -1.00 -1.00  1.00
E_1    2.00  1.00 -1.00 -2.00  0.00  0.00
E_2    2.00 -1.00 -1.00  2.00  0.00  0.00

     the symmetry operations in each class and the name of the first element:

     E        1
          identity                                               
     2C6      3    4
           60 deg rotation - cryst. axis [0,0,1]                 
     2C3      5    6
          120 deg rotation - cryst. axis [0,0,1]                 
     C2       2
          180 deg rotation - cart. axis [0,0,1]                  
     3s_v     8   12   11
          inv. 180 deg rotation - cart. axis [1,0,0]             
     3s_d     7    9   10
          inv. 180 deg rotation - cart. axis [0,1,0]             

   Cartesian axes

     site n.     atom                  positions (alat units)
         1        Ga     tau(   1) = (   0.0000000   0.5773503   0.0000000  )
         2        Ga     tau(   2) = (   0.5000000   0.2886751   0.8152174  )
         3        N      tau(   3) = (   0.0000000   0.5773503   0.6136663  )
         4        N      tau(   4) = (   0.5000000   0.2886751   1.4288837  )

   Crystallographic axes

     site n.     atom                  positions (cryst. coord.)
         1        Ga     tau(   1) = (  0.3333333  0.6666667  0.0000000  )
         2        Ga     tau(   2) = (  0.6666667  0.3333333  0.5000000  )
         3        N      tau(   3) = (  0.3333333  0.6666667  0.3763820  )
         4        N      tau(   4) = (  0.6666667  0.3333333  0.8763820  )

     number of k points=    40 (tetrahedron method)
                       cart. coord. in units 2pi/alat
        k(    1) = (   0.0000000   0.0000000   0.0000000), wk =   0.0052083
        k(    2) = (   0.0000000   0.0000000   0.1022222), wk =   0.0104167
        k(    3) = (   0.0000000   0.0000000   0.2044444), wk =   0.0104167
        k(    4) = (   0.0000000   0.0000000  -0.3066667), wk =   0.0052083
        k(    5) = (   0.0000000   0.1443376   0.0000000), wk =   0.0312500
        k(    6) = (   0.0000000   0.1443376   0.1022222), wk =   0.0625000
        k(    7) = (   0.0000000   0.1443376   0.2044444), wk =   0.0625000
        k(    8) = (   0.0000000   0.1443376  -0.3066667), wk =   0.0312500
        k(    9) = (   0.0000000   0.2886751   0.0000000), wk =   0.0312500
        k(   10) = (   0.0000000   0.2886751   0.1022222), wk =   0.0625000
        k(   11) = (   0.0000000   0.2886751   0.2044444), wk =   0.0625000
        k(   12) = (   0.0000000   0.2886751  -0.3066667), wk =   0.0312500
        k(   13) = (   0.0000000   0.4330127   0.0000000), wk =   0.0312500
        k(   14) = (   0.0000000   0.4330127   0.1022222), wk =   0.0625000
        k(   15) = (   0.0000000   0.4330127   0.2044444), wk =   0.0625000
        k(   16) = (   0.0000000   0.4330127  -0.3066667), wk =   0.0312500
        k(   17) = (   0.0000000  -0.5773503   0.0000000), wk =   0.0156250
        k(   18) = (   0.0000000  -0.5773503   0.1022222), wk =   0.0312500
        k(   19) = (   0.0000000  -0.5773503   0.2044444), wk =   0.0312500
        k(   20) = (   0.0000000  -0.5773503  -0.3066667), wk =   0.0156250
        k(   21) = (   0.1250000   0.2165064   0.0000000), wk =   0.0312500
        k(   22) = (   0.1250000   0.2165064   0.1022222), wk =   0.0625000
        k(   23) = (   0.1250000   0.2165064   0.2044444), wk =   0.0625000
        k(   24) = (   0.1250000   0.2165064  -0.3066667), wk =   0.0312500
        k(   25) = (   0.1250000   0.3608439   0.0000000), wk =   0.0625000
        k(   26) = (   0.1250000   0.3608439   0.1022222), wk =   0.1250000
        k(   27) = (   0.1250000   0.3608439   0.2044444), wk =   0.1250000
        k(   28) = (   0.1250000   0.3608439  -0.3066667), wk =   0.0625000
        k(   29) = (   0.1250000   0.5051815   0.0000000), wk =   0.0625000
        k(   30) = (   0.1250000   0.5051815   0.1022222), wk =   0.1250000
        k(   31) = (   0.1250000   0.5051815   0.2044444), wk =   0.1250000
        k(   32) = (   0.1250000   0.5051815  -0.3066667), wk =   0.0625000
        k(   33) = (   0.2500000   0.4330127   0.0000000), wk =   0.0312500
        k(   34) = (   0.2500000   0.4330127   0.1022222), wk =   0.0625000
        k(   35) = (   0.2500000   0.4330127   0.2044444), wk =   0.0625000
        k(   36) = (   0.2500000   0.4330127  -0.3066667), wk =   0.0312500
        k(   37) = (   0.2500000   0.5773503   0.0000000), wk =   0.0312500
        k(   38) = (   0.2500000   0.5773503   0.1022222), wk =   0.0625000
        k(   39) = (   0.2500000   0.5773503   0.2044444), wk =   0.0625000
        k(   40) = (   0.2500000   0.5773503  -0.3066667), wk =   0.0312500

                       cryst. coord.
        k(    1) = (   0.0000000   0.0000000   0.0000000), wk =   0.0052083
        k(    2) = (   0.0000000   0.0000000   0.1666667), wk =   0.0104167
        k(    3) = (   0.0000000   0.0000000   0.3333333), wk =   0.0104167
        k(    4) = (   0.0000000   0.0000000  -0.5000000), wk =   0.0052083
        k(    5) = (   0.0000000   0.1250000   0.0000000), wk =   0.0312500
        k(    6) = (   0.0000000   0.1250000   0.1666667), wk =   0.0625000
        k(    7) = (   0.0000000   0.1250000   0.3333333), wk =   0.0625000
        k(    8) = (   0.0000000   0.1250000  -0.5000000), wk =   0.0312500
        k(    9) = (   0.0000000   0.2500000   0.0000000), wk =   0.0312500
        k(   10) = (   0.0000000   0.2500000   0.1666667), wk =   0.0625000
        k(   11) = (   0.0000000   0.2500000   0.3333333), wk =   0.0625000
        k(   12) = (   0.0000000   0.2500000  -0.5000000), wk =   0.0312500
        k(   13) = (   0.0000000   0.3750000   0.0000000), wk =   0.0312500
        k(   14) = (   0.0000000   0.3750000   0.1666667), wk =   0.0625000
        k(   15) = (   0.0000000   0.3750000   0.3333333), wk =   0.0625000
        k(   16) = (   0.0000000   0.3750000  -0.5000000), wk =   0.0312500
        k(   17) = (   0.0000000  -0.5000000   0.0000000), wk =   0.0156250
        k(   18) = (   0.0000000  -0.5000000   0.1666667), wk =   0.0312500
        k(   19) = (   0.0000000  -0.5000000   0.3333333), wk =   0.0312500
        k(   20) = (   0.0000000  -0.5000000  -0.5000000), wk =   0.0156250
        k(   21) = (   0.1250000   0.1250000   0.0000000), wk =   0.0312500
        k(   22) = (   0.1250000   0.1250000   0.1666667), wk =   0.0625000
        k(   23) = (   0.1250000   0.1250000   0.3333333), wk =   0.0625000
        k(   24) = (   0.1250000   0.1250000  -0.5000000), wk =   0.0312500
        k(   25) = (   0.1250000   0.2500000   0.0000000), wk =   0.0625000
        k(   26) = (   0.1250000   0.2500000   0.1666667), wk =   0.1250000
        k(   27) = (   0.1250000   0.2500000   0.3333333), wk =   0.1250000
        k(   28) = (   0.1250000   0.2500000  -0.5000000), wk =   0.0625000
        k(   29) = (   0.1250000   0.3750000   0.0000000), wk =   0.0625000
        k(   30) = (   0.1250000   0.3750000   0.1666667), wk =   0.1250000
        k(   31) = (   0.1250000   0.3750000   0.3333333), wk =   0.1250000
        k(   32) = (   0.1250000   0.3750000  -0.5000000), wk =   0.0625000
        k(   33) = (   0.2500000   0.2500000   0.0000000), wk =   0.0312500
        k(   34) = (   0.2500000   0.2500000   0.1666667), wk =   0.0625000
        k(   35) = (   0.2500000   0.2500000   0.3333333), wk =   0.0625000
        k(   36) = (   0.2500000   0.2500000  -0.5000000), wk =   0.0312500
        k(   37) = (   0.2500000   0.3750000   0.0000000), wk =   0.0312500
        k(   38) = (   0.2500000   0.3750000   0.1666667), wk =   0.0625000
        k(   39) = (   0.2500000   0.3750000   0.3333333), wk =   0.0625000
        k(   40) = (   0.2500000   0.3750000  -0.5000000), wk =   0.0312500

     Dense  grid:    99623 G-vectors     FFT dimensions: (  54,  54,  90)

     Smooth grid:    25109 G-vectors     FFT dimensions: (  36,  36,  54)

     Dynamical RAM for                 wfc:       0.15 MB

     Dynamical RAM for     wfc (w. buffer):       0.15 MB

     Dynamical RAM for           str. fact:       0.25 MB

     Dynamical RAM for           local pot:       0.00 MB

     Dynamical RAM for          nlocal pot:       0.21 MB

     Dynamical RAM for                qrad:       4.24 MB

     Dynamical RAM for          rho,v,vnew:       0.91 MB

     Dynamical RAM for           G-vectors:       0.49 MB

     Dynamical RAM for          h,s,v(r/c):       0.25 MB

     Dynamical RAM for          <psi|beta>:       0.03 MB

     Dynamical RAM for                 psi:       0.30 MB

     Dynamical RAM for                hpsi:       0.30 MB

     Dynamical RAM for                spsi:       0.30 MB

     Dynamical RAM for      wfcinit/wfcrot:       0.33 MB

     Dynamical RAM for           addusdens:      23.82 MB

     Estimated static dynamical RAM per process >       7.53 MB

     Estimated max dynamical RAM per process >      31.35 MB

     Estimated total dynamical RAM >     376.16 MB

     The potential is recalculated from file :
     ./tmp/GaN.save/charge-density

     Starting wfcs are   26 randomized atomic wfcs +   11 random wfcs
     Checking if some PAW data can be deallocated... 
       PAW data deallocated on    6 nodes for type:  1
       PAW data deallocated on    6 nodes for type:  2

     Band Structure Calculation
     Davidson diagonalization with overlap

     Computing kpt #:     1  of    40
     c_bands:  3 eigenvalues not converged
     total cpu time spent up to now is        7.0 secs

     Computing kpt #:     2  of    40
     total cpu time spent up to now is       10.7 secs

     Computing kpt #:     3  of    40
     total cpu time spent up to now is       12.6 secs

     Computing kpt #:     4  of    40
     total cpu time spent up to now is       14.6 secs

     Computing kpt #:     5  of    40
     total cpu time spent up to now is       17.9 secs

     Computing kpt #:     6  of    40
     c_bands:  2 eigenvalues not converged
     total cpu time spent up to now is       22.0 secs

     Computing kpt #:     7  of    40
     total cpu time spent up to now is       26.4 secs

     Computing kpt #:     8  of    40
     total cpu time spent up to now is       30.1 secs

     Computing kpt #:     9  of    40
     total cpu time spent up to now is       33.7 secs

     Computing kpt #:    10  of    40
     total cpu time spent up to now is       36.8 secs

     Computing kpt #:    11  of    40
     total cpu time spent up to now is       40.6 secs

     Computing kpt #:    12  of    40
     total cpu time spent up to now is       43.9 secs

     Computing kpt #:    13  of    40
     c_bands:  1 eigenvalues not converged
     total cpu time spent up to now is       48.0 secs

     Computing kpt #:    14  of    40
     total cpu time spent up to now is       50.4 secs

     Computing kpt #:    15  of    40
     total cpu time spent up to now is       52.9 secs

     Computing kpt #:    16  of    40
     total cpu time spent up to now is       56.6 secs

     Computing kpt #:    17  of    40
     total cpu time spent up to now is       61.2 secs

     Computing kpt #:    18  of    40
     total cpu time spent up to now is       63.7 secs

     Computing kpt #:    19  of    40
     c_bands:  1 eigenvalues not converged
     total cpu time spent up to now is       68.0 secs

     Computing kpt #:    20  of    40
     total cpu time spent up to now is       71.7 secs

     Computing kpt #:    21  of    40
     c_bands:  1 eigenvalues not converged
     total cpu time spent up to now is       76.6 secs

     Computing kpt #:    22  of    40
     total cpu time spent up to now is       81.4 secs

     Computing kpt #:    23  of    40
     total cpu time spent up to now is       83.7 secs

     Computing kpt #:    24  of    40
     total cpu time spent up to now is       88.0 secs

     Computing kpt #:    25  of    40
     total cpu time spent up to now is       90.8 secs

     Computing kpt #:    26  of    40
     total cpu time spent up to now is       94.6 secs

     Computing kpt #:    27  of    40
     total cpu time spent up to now is       98.8 secs

     Computing kpt #:    28  of    40
     total cpu time spent up to now is      102.0 secs

     Computing kpt #:    29  of    40
     c_bands:  3 eigenvalues not converged
     total cpu time spent up to now is      107.1 secs

     Computing kpt #:    30  of    40
     total cpu time spent up to now is      111.1 secs

     Computing kpt #:    31  of    40
     c_bands:  1 eigenvalues not converged
     total cpu time spent up to now is      114.2 secs

     Computing kpt #:    32  of    40
     total cpu time spent up to now is      118.0 secs

     Computing kpt #:    33  of    40
     total cpu time spent up to now is      122.4 secs

     Computing kpt #:    34  of    40
     c_bands:  1 eigenvalues not converged
     total cpu time spent up to now is      126.5 secs

     Computing kpt #:    35  of    40
     c_bands:  2 eigenvalues not converged
     total cpu time spent up to now is      130.4 secs

     Computing kpt #:    36  of    40
     c_bands:  1 eigenvalues not converged
     total cpu time spent up to now is      134.7 secs

     Computing kpt #:    37  of    40
     c_bands:  2 eigenvalues not converged
     total cpu time spent up to now is      139.1 secs

     Computing kpt #:    38  of    40
     c_bands:  1 eigenvalues not converged
     total cpu time spent up to now is      144.5 secs

     Computing kpt #:    39  of    40
     total cpu time spent up to now is      148.7 secs

     Computing kpt #:    40  of    40
     total cpu time spent up to now is      152.5 secs

     ethr =  2.78E-11,  avg # of iterations =106.0

     total cpu time spent up to now is      152.5 secs

     End of band structure calculation

          k = 0.0000 0.0000 0.0000 (  3141 PWs)   bands (ev):

    -6.4749  -5.6733  -4.2029  -4.1884  -4.1884  -4.1334  -4.1334  -3.9620
    -3.9620  -3.8729  -3.8729  -2.6284   2.3875   8.2541   8.2541   9.2030
     9.2463   9.2463  10.9620  13.3254  18.2614  18.9899  18.9899  19.7684
    20.7438  20.7438  23.7117  24.7394  24.7394  26.9837  26.9837  27.0199
    27.1311  30.5187  32.9859  32.9859  35.3796

     occupation numbers 
     1.0000   1.0000   1.0000   1.0000   1.0000   1.0000   1.0000   1.0000
     1.0000   1.0000   1.0000   1.0000   1.0000   1.0000   1.0000   1.0000
     1.0000   1.0000   0.0000   0.0000   0.0000   0.0000   0.0000   0.0000
     0.0000   0.0000   0.0000   0.0000   0.0000   0.0000   0.0000   0.0000
     0.0000   0.0000   0.0000   0.0000   0.0000

          k = 0.0000 0.0000 0.1022 (  3135 PWs)   bands (ev):

    -6.3999  -5.6978  -4.1870  -4.1870  -4.1781  -4.1392  -4.1392  -3.9538
    -3.9538  -3.8769  -3.8769  -2.8862   2.8571   8.3173   8.3173   8.3762
     9.1766   9.1766  11.6669  13.3792  18.0726  19.0251  19.0251  19.1472
    20.5072  20.5072  23.9572  25.0986  25.0986  26.9250  27.4145  27.4145
    28.0519  30.5694  32.0944  32.0944  35.7590

     occupation numbers 
     1.0000   1.0000   1.0000   1.0000   1.0000   1.0000   1.0000   1.0000
     1.0000   1.0000   1.0000   1.0000   1.0000   1.0000   1.0000   1.0000
     1.0000   1.0000   0.0000   0.0000   0.0000   0.0000   0.0000   0.0000
     0.0000   0.0000   0.0000   0.0000   0.0000   0.0000   0.0000   0.0000
     0.0000   0.0000   0.0000   0.0000   0.0000

          k = 0.0000 0.0000 0.2044 (  3146 PWs)   bands (ev):

    -6.2030  -5.7872  -4.1815  -4.1815  -4.1536  -4.1536  -4.0786  -3.9334
    -3.9334  -3.8892  -3.8892  -3.4016   4.0020   6.9613   8.4924   8.4924
     8.9886   8.9886  12.6617  13.4640  17.6842  18.1205  19.1761  19.1761
    19.9971  19.9971  24.5186  26.0768  26.0768  26.2269  28.1180  28.1180
    30.3883  30.9146  30.9146  31.1715  33.6881

     occupation numbers 
     1.0000   1.0000   1.0000   1.0000   1.0000   1.0000   1.0000   1.0000
     1.0000   1.0000   1.0000   1.0000   1.0000   1.0000   1.0000   1.0000
     1.0000   1.0000   0.0000   0.0000   0.0000   0.0000   0.0000   0.0000
     0.0000   0.0000   0.0000   0.0000   0.0000   0.0000   0.0000   0.0000
     0.0000   0.0000   0.0000   0.0000   0.0000

          k = 0.0000 0.0000-0.3067 (  3134 PWs)   bands (ev):

    -5.9663  -5.9663  -4.1697  -4.1697  -4.1697  -4.1697  -3.9093  -3.9093
    -3.9093  -3.9093  -3.8359  -3.8359   5.4471   5.4471   8.7372   8.7372
     8.7372   8.7372  13.3119  13.3119  17.5656  17.5656  19.5053  19.5053
    19.5053  19.5053  25.3142  25.3142  27.3958  27.3958  27.3958  27.3958
    31.7074  31.7074  31.7074  31.7074  31.9687

     occupation numbers 
     1.0000   1.0000   1.0000   1.0000   1.0000   1.0000   1.0000   1.0000
     1.0000   1.0000   1.0000   1.0000   1.0000   1.0000   1.0000   1.0000
     1.0000   1.0000   0.0000   0.0000   0.0000   0.0000   0.0000   0.0000
     0.0000   0.0000   0.0000   0.0000   0.0000   0.0000   0.0000   0.0000
     0.0000   0.0000   0.0000   0.0000   0.0000

          k = 0.0000 0.1443 0.0000 (  3140 PWs)   bands (ev):

    -6.3366  -5.6412  -4.1869  -4.1690  -4.1371  -4.1139  -4.1062  -3.9732
    -3.9625  -3.8939  -3.8699  -2.5247   2.6000   7.2174   7.9579   8.0699
     9.0536   9.1124  12.0327  14.1787  17.7441  18.2325  19.3492  19.7521
    20.2903  21.0499  22.4998  24.1746  25.7076  27.0254  28.4540  28.5445
    28.7368  31.1603  32.8237  32.9392  35.8135

     occupation numbers 
     1.0000   1.0000   1.0000   1.0000   1.0000   1.0000   1.0000   1.0000
     1.0000   1.0000   1.0000   1.0000   1.0000   1.0000   1.0000   1.0000
     1.0000   1.0000   0.0000   0.0000   0.0000   0.0000   0.0000   0.0000
     0.0000   0.0000   0.0000   0.0000   0.0000   0.0000   0.0000   0.0000
     0.0000   0.0000   0.0000   0.0000   0.0000

          k = 0.0000 0.1443 0.1022 (  3137 PWs)   bands (ev):

    -6.2678  -5.6604  -4.1809  -4.1668  -4.1299  -4.1123  -4.1093  -3.9588
    -3.9546  -3.8996  -3.8746  -2.7710   3.0363   7.2902   7.6846   8.0293
     8.8776   9.0284  12.4174  14.2206  17.5694  18.1016  19.2961  19.3910
    20.0823  20.8322  23.1450  24.5837  25.9425  27.1729  28.2444  28.8294
    29.2671  31.0559  31.9642  32.9537  34.5827

     occupation numbers 
     1.0000   1.0000   1.0000   1.0000   1.0000   1.0000   1.0000   1.0000
     1.0000   1.0000   1.0000   1.0000   1.0000   1.0000   1.0000   1.0000
     1.0000   1.0000   0.0000   0.0000   0.0000   0.0000   0.0000   0.0000
     0.0000   0.0000   0.0000   0.0000   0.0000   0.0000   0.0000   0.0000
     0.0000   0.0000   0.0000   0.0000   0.0000

          k = 0.0000 0.1443 0.2044 (  3120 PWs)   bands (ev):

    -6.0899  -5.7327  -4.1690  -4.1591  -4.1391  -4.1274  -4.0442  -3.9343
    -3.9280  -3.8937  -3.8884  -3.2722   4.0934   6.6386   7.6135   8.2284
     8.4784   8.8044  13.2208  14.2483  17.1314  17.6241  18.9453  19.5551
    19.7780  20.3592  24.2034  25.6729  26.0687  27.2371  28.5387  28.7016
    29.8646  30.9959  31.3072  33.2508  33.7794

     occupation numbers 
     1.0000   1.0000   1.0000   1.0000   1.0000   1.0000   1.0000   1.0000
     1.0000   1.0000   1.0000   1.0000   1.0000   1.0000   1.0000   1.0000
     1.0000   1.0000   0.0000   0.0000   0.0000   0.0000   0.0000   0.0000
     0.0000   0.0000   0.0000   0.0000   0.0000   0.0000   0.0000   0.0000
     0.0000   0.0000   0.0000   0.0000   0.0000

          k = 0.0000 0.1443-0.3067 (  3112 PWs)   bands (ev):

    -5.8829  -5.8829  -4.1550  -4.1550  -4.1451  -4.1451  -3.9633  -3.9633
    -3.9098  -3.9098  -3.6970  -3.6970   5.3866   5.3866   8.0138   8.0138
     8.5102   8.5102  13.9491  13.9491  17.0698  17.0698  19.3015  19.3015
    19.8878  19.8878  25.2527  25.2527  27.1965  27.1965  28.0877  28.0877
    30.3588  30.3588  32.5911  32.5911  34.3167

     occupation numbers 
     1.0000   1.0000   1.0000   1.0000   1.0000   1.0000   1.0000   1.0000
     1.0000   1.0000   1.0000   1.0000   1.0000   1.0000   1.0000   1.0000
     1.0000   1.0000   0.0000   0.0000   0.0000   0.0000   0.0000   0.0000
     0.0000   0.0000   0.0000   0.0000   0.0000   0.0000   0.0000   0.0000
     0.0000   0.0000   0.0000   0.0000   0.0000

          k = 0.0000 0.2887 0.0000 (  3164 PWs)   bands (ev):

    -6.0203  -5.5810  -4.1520  -4.1349  -4.0742  -4.0409  -3.9959  -3.9651
    -3.9474  -3.8634  -3.8507  -2.2629   3.1585   5.3725   6.3936   7.3444
     8.5611   8.7681  13.3553  15.0174  16.5111  17.6299  19.1889  19.7835
    20.5117  21.6973  21.7993  24.6838  25.3040  28.1652  30.4030  30.9653
    31.4220  31.9153  33.1259  34.5494  35.3425

     occupation numbers 
     1.0000   1.0000   1.0000   1.0000   1.0000   1.0000   1.0000   1.0000
     1.0000   1.0000   1.0000   1.0000   1.0000   1.0000   1.0000   1.0000
     1.0000   1.0000   0.0000   0.0000   0.0000   0.0000   0.0000   0.0000
     0.0000   0.0000   0.0000   0.0000   0.0000   0.0000   0.0000   0.0000
     0.0000   0.0000   0.0000   0.0000   0.0000

          k = 0.0000 0.2887 0.1022 (  3143 PWs)   bands (ev):

    -5.9702  -5.5896  -4.1521  -4.1290  -4.0860  -4.0475  -3.9930  -3.9646
    -3.9418  -3.8691  -3.8055  -2.4705   3.4330   5.5333   6.1763   7.4291
     8.5064   8.6594  13.3859  15.0860  16.4594  17.4492  19.0779  19.8934
    20.1559  21.5415  22.1601  24.9985  25.6079  28.0899  29.9301  31.1051
    31.5382  32.2025  32.3841  33.9396  35.7863

     occupation numbers 
     1.0000   1.0000   1.0000   1.0000   1.0000   1.0000   1.0000   1.0000
     1.0000   1.0000   1.0000   1.0000   1.0000   1.0000   1.0000   1.0000
     1.0000   1.0000   0.0000   0.0000   0.0000   0.0000   0.0000   0.0000
     0.0000   0.0000   0.0000   0.0000   0.0000   0.0000   0.0000   0.0000
     0.0000   0.0000   0.0000   0.0000   0.0000

          k = 0.0000 0.2887 0.2044 (  3138 PWs)   bands (ev):

    -5.8463  -5.6267  -4.1461  -4.1127  -4.1069  -4.0655  -3.9904  -3.9715
    -3.9265  -3.8845  -3.6520  -2.9229   4.0514   5.3866   6.3585   7.6670
     8.0862   8.3743  13.6877  14.9873  16.3754  17.1483  18.8565  19.6546
    20.2011  21.1411  22.9812  25.3787  25.9261  28.5659  29.2503  29.7850
    31.6155  31.9667  33.1044  34.8380  35.5429

     occupation numbers 
     1.0000   1.0000   1.0000   1.0000   1.0000   1.0000   1.0000   1.0000
     1.0000   1.0000   1.0000   1.0000   1.0000   1.0000   1.0000   1.0000
     1.0000   1.0000   0.0000   0.0000   0.0000   0.0000   0.0000   0.0000
     0.0000   0.0000   0.0000   0.0000   0.0000   0.0000   0.0000   0.0000
     0.0000   0.0000   0.0000   0.0000   0.0000

          k = 0.0000 0.2887-0.3067 (  3144 PWs)   bands (ev):

    -5.7137  -5.7137  -4.1288  -4.1288  -4.0896  -4.0896  -3.9831  -3.9831
    -3.9055  -3.9055  -3.3581  -3.3581   4.7397   4.7397   7.2399   7.2399
     8.0090   8.0090  14.3464  14.3464  16.7112  16.7112  19.0970  19.0970
    20.6480  20.6480  24.2112  24.2112  27.3901  27.3901  29.4397  29.4397
    31.6196  31.6196  34.3611  34.3611  36.3200

     occupation numbers 
     1.0000   1.0000   1.0000   1.0000   1.0000   1.0000   1.0000   1.0000
     1.0000   1.0000   1.0000   1.0000   1.0000   1.0000   1.0000   1.0000
     1.0000   1.0000   0.0000   0.0000   0.0000   0.0000   0.0000   0.0000
     0.0000   0.0000   0.0000   0.0000   0.0000   0.0000   0.0000   0.0000
     0.0000   0.0000   0.0000   0.0000   0.0000

          k = 0.0000 0.4330 0.0000 (  3150 PWs)   bands (ev):

    -5.7623  -5.5433  -4.1393  -4.1221  -4.0415  -3.9924  -3.9791  -3.9631
    -3.9048  -3.8548  -3.2830  -2.0586   3.3118   4.4176   5.0679   6.8178
     7.7339   8.4260  14.1330  14.7214  15.6080  17.4956  19.3651  19.6302
    20.9791  22.1845  22.5456  25.3750  26.6740  26.8926  30.5555  32.3265
    33.1434  33.9012  34.1830  34.6968  35.8787

     occupation numbers 
     1.0000   1.0000   1.0000   1.0000   1.0000   1.0000   1.0000   1.0000
     1.0000   1.0000   1.0000   1.0000   1.0000   1.0000   1.0000   1.0000
     1.0000   1.0000   0.0000   0.0000   0.0000   0.0000   0.0000   0.0000
     0.0000   0.0000   0.0000   0.0000   0.0000   0.0000   0.0000   0.0000
     0.0000   0.0000   0.0000   0.0000   0.0000

          k = 0.0000 0.4330 0.1022 (  3159 PWs)   bands (ev):

    -5.7332  -5.5444  -4.1444  -4.1118  -4.0532  -4.0057  -3.9868  -3.9413
    -3.9031  -3.8606  -3.2353  -2.1831   3.1923   4.4026   5.3147   6.9116
     7.8915   8.2997  13.7418  14.6705  16.1037  17.2562  19.2438  19.8395
    20.5231  22.1622  22.3574  25.8569  26.8900  27.2689  29.9592  32.2900
    32.5170  33.6437  34.3375  34.9659  35.6513

     occupation numbers 
     1.0000   1.0000   1.0000   1.0000   1.0000   1.0000   1.0000   1.0000
     1.0000   1.0000   1.0000   1.0000   1.0000   1.0000   1.0000   1.0000
     1.0000   1.0000   0.0000   0.0000   0.0000   0.0000   0.0000   0.0000
     0.0000   0.0000   0.0000   0.0000   0.0000   0.0000   0.0000   0.0000
     0.0000   0.0000   0.0000   0.0000   0.0000

          k = 0.0000 0.4330 0.2044 (  3157 PWs)   bands (ev):

    -5.6640  -5.5560  -4.1486  -4.0977  -4.0838  -4.0103  -3.9820  -3.9335
    -3.8973  -3.8737  -3.0840  -2.4859   3.1906   3.9410   6.2588   7.1757
     7.9070   7.9720  13.4409  14.4702  16.4670  17.1112  19.0721  19.5280
    20.3958  21.8410  22.7837  25.3422  27.5620  28.5315  29.7838  30.3303
    32.7711  33.6794  34.5448  35.0429  36.5024

     occupation numbers 
     1.0000   1.0000   1.0000   1.0000   1.0000   1.0000   1.0000   1.0000
     1.0000   1.0000   1.0000   1.0000   1.0000   1.0000   1.0000   1.0000
     1.0000   1.0000   0.0000   0.0000   0.0000   0.0000   0.0000   0.0000
     0.0000   0.0000   0.0000   0.0000   0.0000   0.0000   0.0000   0.0000
     0.0000   0.0000   0.0000   0.0000   0.0000

          k = 0.0000 0.4330-0.3067 (  3146 PWs)   bands (ev):

    -5.5952  -5.5952  -4.1345  -4.1345  -4.0461  -4.0461  -3.9509  -3.9509
    -3.8872  -3.8872  -2.8223  -2.8223   3.4656   3.4656   7.2882   7.2882
     7.5583   7.5583  13.8329  13.8329  16.8583  16.8583  19.0462  19.0462
    21.1280  21.1280  23.9756  23.9756  28.7161  28.7161  29.5908  29.5908
    33.2616  33.2616  34.8366  34.8366  36.7868

     occupation numbers 
     1.0000   1.0000   1.0000   1.0000   1.0000   1.0000   1.0000   1.0000
     1.0000   1.0000   1.0000   1.0000   1.0000   1.0000   1.0000   1.0000
     1.0000   1.0000   0.0000   0.0000   0.0000   0.0000   0.0000   0.0000
     0.0000   0.0000   0.0000   0.0000   0.0000   0.0000   0.0000   0.0000
     0.0000   0.0000   0.0000   0.0000   0.0000

          k = 0.0000-0.5774 0.0000 (  3118 PWs)   bands (ev):

    -5.6803  -5.5335  -4.1424  -4.1218  -4.0332  -3.9962  -3.9562  -3.9479
    -3.8800  -3.8493  -2.7231  -2.1876   2.9436   4.0633   5.1820   6.6170
     7.1309   8.2876  14.2399  14.6215  15.2251  17.5869  19.3995  19.4945
    21.5231  22.2444  22.9356  25.7413  26.3868  28.2781  30.2582  32.2335
    32.7275  32.9530  34.2403  35.2403  35.2679

     occupation numbers 
     1.0000   1.0000   1.0000   1.0000   1.0000   1.0000   1.0000   1.0000
     1.0000   1.0000   1.0000   1.0000   1.0000   1.0000   1.0000   1.0000
     1.0000   1.0000   0.0000   0.0000   0.0000   0.0000   0.0000   0.0000
     0.0000   0.0000   0.0000   0.0000   0.0000   0.0000   0.0000   0.0000
     0.0000   0.0000   0.0000   0.0000   0.0000

          k = 0.0000-0.5774 0.1022 (  3134 PWs)   bands (ev):

    -5.6590  -5.5321  -4.1487  -4.1100  -4.0412  -4.0157  -3.9648  -3.9215
    -3.8795  -3.8547  -2.6984  -2.2310   2.7946   3.7753   5.6203   6.7138
     7.4134   8.1552  13.8140  14.2760  16.1326  17.1938  19.3702  19.7357
    20.5696  22.4900  22.7095  26.4362  26.8835  28.4746  29.5238  32.2215
    32.8362  33.1403  33.3437  34.9079  35.9777

     occupation numbers 
     1.0000   1.0000   1.0000   1.0000   1.0000   1.0000   1.0000   1.0000
     1.0000   1.0000   1.0000   1.0000   1.0000   1.0000   1.0000   1.0000
     1.0000   1.0000   0.0000   0.0000   0.0000   0.0000   0.0000   0.0000
     0.0000   0.0000   0.0000   0.0000   0.0000   0.0000   0.0000   0.0000
     0.0000   0.0000   0.0000   0.0000   0.0000

          k = 0.0000-0.5774 0.2044 (  3168 PWs)   bands (ev):

    -5.6089  -5.5358  -4.1552  -4.1017  -4.0776  -3.9918  -3.9745  -3.9104
    -3.8776  -3.8654  -2.6220  -2.3482   2.6652   3.2369   6.5419   6.9868
     7.7346   7.8130  13.2779  14.1420  16.6533  16.9320  19.2421  19.3280
    20.3812  22.0915  23.1153  25.6359  28.7709  29.0677  29.4152  31.4444
    32.3033  33.1853  33.2701  34.2504  37.1005

     occupation numbers 
     1.0000   1.0000   1.0000   1.0000   1.0000   1.0000   1.0000   1.0000
     1.0000   1.0000   1.0000   1.0000   1.0000   1.0000   1.0000   1.0000
     1.0000   1.0000   0.0000   0.0000   0.0000   0.0000   0.0000   0.0000
     0.0000   0.0000   0.0000   0.0000   0.0000   0.0000   0.0000   0.0000
     0.0000   0.0000   0.0000   0.0000   0.0000

          k = 0.0000-0.5774-0.3067 (  3160 PWs)   bands (ev):

    -5.5605  -5.5605  -4.1426  -4.1426  -4.0336  -4.0336  -3.9320  -3.9320
    -3.8734  -3.8734  -2.4962  -2.4962   2.8148   2.8148   7.3831   7.3831
     7.4114   7.4114  13.5581  13.5581  16.8247  16.8247  19.0428  19.0428
    21.2432  21.2432  24.2288  24.2288  29.6912  29.6912  30.0667  30.0667
    32.7754  32.7754  33.6537  33.6537  36.9822

     occupation numbers 
     1.0000   1.0000   1.0000   1.0000   1.0000   1.0000   1.0000   1.0000
     1.0000   1.0000   1.0000   1.0000   1.0000   1.0000   1.0000   1.0000
     1.0000   1.0000   0.0000   0.0000   0.0000   0.0000   0.0000   0.0000
     0.0000   0.0000   0.0000   0.0000   0.0000   0.0000   0.0000   0.0000
     0.0000   0.0000   0.0000   0.0000   0.0000

          k = 0.1250 0.2165 0.0000 (  3148 PWs)   bands (ev):

    -6.1086  -5.5961  -4.1543  -4.1479  -4.0902  -4.0764  -3.9880  -3.9741
    -3.9571  -3.9206  -3.8569  -2.3388   2.9915   6.0889   6.5777   7.5607
     8.6980   8.7474  13.1226  15.2345  17.1386  17.1587  19.4547  19.5811
    19.9925  21.6666  22.7096  22.9493  27.5749  27.5990  29.1925  29.3085
    31.3699  31.6661  32.9060  34.5274  34.7554

     occupation numbers 
     1.0000   1.0000   1.0000   1.0000   1.0000   1.0000   1.0000   1.0000
     1.0000   1.0000   1.0000   1.0000   1.0000   1.0000   1.0000   1.0000
     1.0000   1.0000   0.0000   0.0000   0.0000   0.0000   0.0000   0.0000
     0.0000   0.0000   0.0000   0.0000   0.0000   0.0000   0.0000   0.0000
     0.0000   0.0000   0.0000   0.0000   0.0000

          k = 0.1250 0.2165 0.1022 (  3132 PWs)   bands (ev):

    -6.0525  -5.6075  -4.1533  -4.1429  -4.0956  -4.0829  -4.0019  -3.9563
    -3.9265  -3.9235  -3.8500  -2.5605   3.3377   6.2449   6.4020   7.5138
     8.5886   8.6699  13.2875  15.2656  16.8789  17.1904  19.1414  19.5070
    20.0527  21.3742  23.1997  23.3065  27.1743  28.2023  29.3278  29.5426
    30.4582  31.4817  32.9692  34.7200  35.1727

     occupation numbers 
     1.0000   1.0000   1.0000   1.0000   1.0000   1.0000   1.0000   1.0000
     1.0000   1.0000   1.0000   1.0000   1.0000   1.0000   1.0000   1.0000
     1.0000   1.0000   0.0000   0.0000   0.0000   0.0000   0.0000   0.0000
     0.0000   0.0000   0.0000   0.0000   0.0000   0.0000   0.0000   0.0000
     0.0000   0.0000   0.0000   0.0000   0.0000

          k = 0.1250 0.2165 0.2044 (  3131 PWs)   bands (ev):

    -5.9119  -5.6537  -4.1453  -4.1294  -4.1093  -4.0941  -4.0037  -3.9656
    -3.9208  -3.8963  -3.7452  -3.0324   4.1450   5.8427   6.7133   7.6091
     8.2487   8.3067  13.8131  15.1718  16.4874  17.0965  18.7038  19.3967
    20.1843  20.9037  23.9954  24.2576  26.5762  28.0246  29.3453  29.9459
    30.5019  31.3334  32.9401  34.3734  34.8225

     occupation numbers 
     1.0000   1.0000   1.0000   1.0000   1.0000   1.0000   1.0000   1.0000
     1.0000   1.0000   1.0000   1.0000   1.0000   1.0000   1.0000   1.0000
     1.0000   1.0000   0.0000   0.0000   0.0000   0.0000   0.0000   0.0000
     0.0000   0.0000   0.0000   0.0000   0.0000   0.0000   0.0000   0.0000
     0.0000   0.0000   0.0000   0.0000   0.0000

          k = 0.1250 0.2165-0.3067 (  3146 PWs)   bands (ev):

    -5.7579  -5.7579  -4.1291  -4.1291  -4.1095  -4.1095  -3.9880  -3.9880
    -3.9071  -3.9071  -3.4692  -3.4692   5.0461   5.0461   7.4222   7.4222
     7.9767   7.9767  14.5720  14.5720  16.6622  16.6622  18.9710  18.9710
    20.4739  20.4739  24.7822  24.7822  26.5201  26.5201  30.0900  30.0900
    31.0278  31.0278  33.1570  33.1570  36.0100

     occupation numbers 
     1.0000   1.0000   1.0000   1.0000   1.0000   1.0000   1.0000   1.0000
     1.0000   1.0000   1.0000   1.0000   1.0000   1.0000   1.0000   1.0000
     1.0000   1.0000   0.0000   0.0000   0.0000   0.0000   0.0000   0.0000
     0.0000   0.0000   0.0000   0.0000   0.0000   0.0000   0.0000   0.0000
     0.0000   0.0000   0.0000   0.0000   0.0000

          k = 0.1250 0.3608 0.0000 (  3142 PWs)   bands (ev):

    -5.8271  -5.5525  -4.1444  -4.1179  -4.0418  -4.0155  -3.9999  -3.9528
    -3.9228  -3.8748  -3.5123  -2.0772   3.4980   4.7837   5.3857   6.5904
     8.1076   8.1392  14.3347  15.6857  15.8990  17.2065  18.8299  19.7523
    19.9845  22.4321  22.6875  24.1792  27.1862  28.1434  29.7955  31.6545
    32.4251  32.9731  33.6156  34.6838  35.5100

     occupation numbers 
     1.0000   1.0000   1.0000   1.0000   1.0000   1.0000   1.0000   1.0000
     1.0000   1.0000   1.0000   1.0000   1.0000   1.0000   1.0000   1.0000
     1.0000   1.0000   0.0000   0.0000   0.0000   0.0000   0.0000   0.0000
     0.0000   0.0000   0.0000   0.0000   0.0000   0.0000   0.0000   0.0000
     0.0000   0.0000   0.0000   0.0000   0.0000

          k = 0.1250 0.3608 0.1022 (  3142 PWs)   bands (ev):

    -5.7920  -5.5553  -4.1350  -4.1219  -4.0576  -4.0250  -3.9838  -3.9622
    -3.9131  -3.8820  -3.4614  -2.2386   3.5183   4.9027   5.4674   6.6170
     7.9751   8.2238  14.1567  15.6973  16.0034  17.2013  18.7227  19.4173
    20.1992  22.0588  22.9120  24.4398  27.0714  28.4978  29.9237  30.6149
    32.2828  33.1735  34.5116  34.9712  35.4605

     occupation numbers 
     1.0000   1.0000   1.0000   1.0000   1.0000   1.0000   1.0000   1.0000
     1.0000   1.0000   1.0000   1.0000   1.0000   1.0000   1.0000   1.0000
     1.0000   1.0000   0.0000   0.0000   0.0000   0.0000   0.0000   0.0000
     0.0000   0.0000   0.0000   0.0000   0.0000   0.0000   0.0000   0.0000
     0.0000   0.0000   0.0000   0.0000   0.0000

          k = 0.1250 0.3608 0.2044 (  3150 PWs)   bands (ev):

    -5.7078  -5.5726  -4.1276  -4.1073  -4.0817  -4.0424  -3.9844  -3.9669
    -3.9026  -3.8898  -3.2980  -2.6131   3.6902   4.5427   6.2567   6.8440
     7.5993   8.1156  14.1000  15.2739  16.3716  17.1829  18.5757  18.9684
    20.4728  21.5536  23.3773  24.6870  26.8860  28.1732  29.9528  30.6876
    32.6876  33.6489  34.1555  34.9752  35.5776

     occupation numbers 
     1.0000   1.0000   1.0000   1.0000   1.0000   1.0000   1.0000   1.0000
     1.0000   1.0000   1.0000   1.0000   1.0000   1.0000   1.0000   1.0000
     1.0000   1.0000   0.0000   0.0000   0.0000   0.0000   0.0000   0.0000
     0.0000   0.0000   0.0000   0.0000   0.0000   0.0000   0.0000   0.0000
     0.0000   0.0000   0.0000   0.0000   0.0000

          k = 0.1250 0.3608-0.3067 (  3160 PWs)   bands (ev):

    -5.6229  -5.6229  -4.1143  -4.1143  -4.0682  -4.0682  -3.9805  -3.9805
    -3.8941  -3.8941  -3.0061  -3.0061   4.0574   4.0574   7.0394   7.0394
     7.4955   7.4955  14.5608  14.5608  16.8730  16.8730  18.6337  18.6337
    20.9814  20.9814  24.1550  24.1550  27.2718  27.2718  30.5324  30.5324
    33.4697  33.4697  34.3887  34.3887  36.2901

     occupation numbers 
     1.0000   1.0000   1.0000   1.0000   1.0000   1.0000   1.0000   1.0000
     1.0000   1.0000   1.0000   1.0000   1.0000   1.0000   1.0000   1.0000
     1.0000   1.0000   0.0000   0.0000   0.0000   0.0000   0.0000   0.0000
     0.0000   0.0000   0.0000   0.0000   0.0000   0.0000   0.0000   0.0000
     0.0000   0.0000   0.0000   0.0000   0.0000

          k = 0.1250 0.5052 0.0000 (  3140 PWs)   bands (ev):

    -5.6727  -5.5361  -4.1544  -4.1061  -4.0150  -3.9950  -3.9667  -3.9581
    -3.8962  -3.8647  -2.8300  -2.0566   3.1954   4.2344   5.1648   6.0531
     7.2611   7.7871  15.0041  15.1625  15.3392  17.4704  18.9232  19.4236
    21.1933  22.4042  22.6767  25.8772  26.9924  27.8560  29.8929  31.7974
    32.8480  33.6638  34.0475  34.8269  35.5633

     occupation numbers 
     1.0000   1.0000   1.0000   1.0000   1.0000   1.0000   1.0000   1.0000
     1.0000   1.0000   1.0000   1.0000   1.0000   1.0000   1.0000   1.0000
     1.0000   1.0000   0.0000   0.0000   0.0000   0.0000   0.0000   0.0000
     0.0000   0.0000   0.0000   0.0000   0.0000   0.0000   0.0000   0.0000
     0.0000   0.0000   0.0000   0.0000   0.0000

          k = 0.1250 0.5052 0.1022 (  3152 PWs)   bands (ev):

    -5.6517  -5.5339  -4.1439  -4.1113  -4.0363  -3.9973  -3.9778  -3.9345
    -3.8935  -3.8725  -2.7937  -2.1219   3.0461   3.9890   5.5095   6.2321
     7.4641   7.6831  14.3132  15.2547  16.0439  17.1825  18.8579  19.2002
    21.0478  22.2517  22.8730  25.8500  27.1900  28.3648  29.5794  31.3048
    32.8336  33.4659  34.4144  35.1000  35.7147

     occupation numbers 
     1.0000   1.0000   1.0000   1.0000   1.0000   1.0000   1.0000   1.0000
     1.0000   1.0000   1.0000   1.0000   1.0000   1.0000   1.0000   1.0000
     1.0000   1.0000   0.0000   0.0000   0.0000   0.0000   0.0000   0.0000
     0.0000   0.0000   0.0000   0.0000   0.0000   0.0000   0.0000   0.0000
     0.0000   0.0000   0.0000   0.0000   0.0000

          k = 0.1250 0.5052 0.2044 (  3156 PWs)   bands (ev):

    -5.6028  -5.5353  -4.1346  -4.0972  -4.0827  -4.0035  -3.9707  -3.9281
    -3.8905  -3.8817  -2.6834  -2.2934   2.9284   3.4912   6.0801   6.8577
     7.1568   7.8922  13.9033  14.9372  16.6051  17.1528  18.4493  18.8373
    20.9900  21.9664  23.3672  25.2033  27.6715  29.0180  29.9341  30.4462
    32.8866  33.3094  34.6407  35.0432  36.8984

     occupation numbers 
     1.0000   1.0000   1.0000   1.0000   1.0000   1.0000   1.0000   1.0000
     1.0000   1.0000   1.0000   1.0000   1.0000   1.0000   1.0000   1.0000
     1.0000   1.0000   0.0000   0.0000   0.0000   0.0000   0.0000   0.0000
     0.0000   0.0000   0.0000   0.0000   0.0000   0.0000   0.0000   0.0000
     0.0000   0.0000   0.0000   0.0000   0.0000

          k = 0.1250 0.5052-0.3067 (  3160 PWs)   bands (ev):

    -5.5570  -5.5570  -4.1233  -4.1233  -4.0456  -4.0456  -3.9454  -3.9454
    -3.8859  -3.8859  -2.5044  -2.5044   3.0839   3.0839   6.6097   6.6097
     7.6320   7.6320  14.2033  14.2033  17.0503  17.0503  18.4495  18.4495
    21.3997  21.3997  24.2135  24.2135  28.4628  28.4628  30.3025  30.3025
    33.2299  33.2299  34.8464  34.8464  36.9602

     occupation numbers 
     1.0000   1.0000   1.0000   1.0000   1.0000   1.0000   1.0000   1.0000
     1.0000   1.0000   1.0000   1.0000   1.0000   1.0000   1.0000   1.0000
     1.0000   1.0000   0.0000   0.0000   0.0000   0.0000   0.0000   0.0000
     0.0000   0.0000   0.0000   0.0000   0.0000   0.0000   0.0000   0.0000
     0.0000   0.0000   0.0000   0.0000   0.0000

          k = 0.2500 0.4330 0.0000 (  3128 PWs)   bands (ev):

    -5.6644  -5.5393  -4.1715  -4.0611  -4.0125  -4.0015  -3.9878  -3.9600
    -3.9080  -3.8839  -2.9038  -1.9589   3.6336   4.2456   5.3350   5.3992
     7.2319   7.4079  14.9990  15.6588  16.8851  16.9142  18.6602  19.4217
    20.0333  22.7077  22.7549  24.9036  28.5157  29.0279  29.6181  30.5121
    31.4075  33.6712  33.6768  35.2975  35.3055

     occupation numbers 
     1.0000   1.0000   1.0000   1.0000   1.0000   1.0000   1.0000   1.0000
     1.0000   1.0000   1.0000   1.0000   1.0000   1.0000   1.0000   1.0000
     1.0000   1.0000   0.0000   0.0000   0.0000   0.0000   0.0000   0.0000
     0.0000   0.0000   0.0000   0.0000   0.0000   0.0000   0.0000   0.0000
     0.0000   0.0000   0.0000   0.0000   0.0000

          k = 0.2500 0.4330 0.1022 (  3155 PWs)   bands (ev):

    -5.6438  -5.5363  -4.1573  -4.0770  -4.0277  -4.0103  -3.9664  -3.9658
    -3.8986  -3.8957  -2.8600  -2.0423   3.4549   4.1187   5.3681   5.8208
     7.0391   7.6619  15.1366  15.3697  16.9401  16.9666  18.6006  18.6123
    20.5384  22.7058  22.9327  24.7535  28.1415  28.3803  30.3081  30.5082
    31.9378  33.5116  34.6328  34.9592  35.5960

     occupation numbers 
     1.0000   1.0000   1.0000   1.0000   1.0000   1.0000   1.0000   1.0000
     1.0000   1.0000   1.0000   1.0000   1.0000   1.0000   1.0000   1.0000
     1.0000   1.0000   0.0000   0.0000   0.0000   0.0000   0.0000   0.0000
     0.0000   0.0000   0.0000   0.0000   0.0000   0.0000   0.0000   0.0000
     0.0000   0.0000   0.0000   0.0000   0.0000

          k = 0.2500 0.4330 0.2044 (  3155 PWs)   bands (ev):

    -5.5964  -5.5352  -4.1195  -4.0961  -4.0593  -4.0238  -3.9733  -3.9596
    -3.9040  -3.8888  -2.7271  -2.2560   3.3100   3.7672   5.5499   6.5040
     6.8422   7.9484  14.9329  15.2286  16.9909  17.1246  17.8729  18.3951
    20.9710  22.2517  23.4514  24.5161  27.5372  27.8354  30.9133  30.9615
    32.8122  33.3336  34.9065  35.0201  36.9311

     occupation numbers 
     1.0000   1.0000   1.0000   1.0000   1.0000   1.0000   1.0000   1.0000
     1.0000   1.0000   1.0000   1.0000   1.0000   1.0000   1.0000   1.0000
     1.0000   1.0000   0.0000   0.0000   0.0000   0.0000   0.0000   0.0000
     0.0000   0.0000   0.0000   0.0000   0.0000   0.0000   0.0000   0.0000
     0.0000   0.0000   0.0000   0.0000   0.0000

          k = 0.2500 0.4330-0.3067 (  3154 PWs)   bands (ev):

    -5.5534  -5.5534  -4.0964  -4.0964  -4.0575  -4.0575  -3.9732  -3.9732
    -3.8916  -3.8916  -2.5121  -2.5121   3.4316   3.4316   5.9895   5.9895
     7.6607   7.6607  14.9588  14.9588  17.0516  17.0516  18.0483  18.0483
    21.5223  21.5223  24.0282  24.0282  27.5908  27.5908  30.9625  30.9625
    33.3675  33.3675  35.1859  35.1859  37.8258

     occupation numbers 
     1.0000   1.0000   1.0000   1.0000   1.0000   1.0000   1.0000   1.0000
     1.0000   1.0000   1.0000   1.0000   1.0000   1.0000   1.0000   1.0000
     1.0000   1.0000   0.0000   0.0000   0.0000   0.0000   0.0000   0.0000
     0.0000   0.0000   0.0000   0.0000   0.0000   0.0000   0.0000   0.0000
     0.0000   0.0000   0.0000   0.0000   0.0000

          k = 0.2500 0.5774 0.0000 (  3152 PWs)   bands (ev):

    -5.5985  -5.5462  -4.1834  -4.0418  -3.9909  -3.9854  -3.9777  -3.9662
    -3.9213  -3.8858  -2.4013  -2.0936   3.5689   4.1560   4.6015   5.9800
     6.7319   6.8740  14.5594  16.3085  16.7874  17.3429  18.7556  19.1039
    21.3850  21.6571  22.3448  26.8297  27.0642  28.8017  29.8175  29.8609
    33.0291  34.0584  34.3971  34.7924  35.2072

     occupation numbers 
     1.0000   1.0000   1.0000   1.0000   1.0000   1.0000   1.0000   1.0000
     1.0000   1.0000   1.0000   1.0000   1.0000   1.0000   1.0000   1.0000
     1.0000   1.0000   0.0000   0.0000   0.0000   0.0000   0.0000   0.0000
     0.0000   0.0000   0.0000   0.0000   0.0000   0.0000   0.0000   0.0000
     0.0000   0.0000   0.0000   0.0000   0.0000

          k = 0.2500 0.5774 0.1022 (  3149 PWs)   bands (ev):

    -5.5846  -5.5394  -4.1676  -4.0594  -4.0227  -3.9881  -3.9707  -3.9381
    -3.9202  -3.8994  -2.3825  -2.1134   3.4048   3.8894   4.6670   6.4140
     6.6156   7.1249  14.7699  16.1734  16.6990  17.0851  18.5186  18.7002
    21.7242  21.8615  22.6867  26.1871  26.6944  28.2301  30.2892  30.6088
    33.0726  33.6914  35.1632  35.2765  35.9229

     occupation numbers 
     1.0000   1.0000   1.0000   1.0000   1.0000   1.0000   1.0000   1.0000
     1.0000   1.0000   1.0000   1.0000   1.0000   1.0000   1.0000   1.0000
     1.0000   1.0000   0.0000   0.0000   0.0000   0.0000   0.0000   0.0000
     0.0000   0.0000   0.0000   0.0000   0.0000   0.0000   0.0000   0.0000
     0.0000   0.0000   0.0000   0.0000   0.0000

          k = 0.2500 0.5774 0.2044 (  3151 PWs)   bands (ev):

    -5.5539  -5.5281  -4.1247  -4.0813  -4.0646  -4.0093  -3.9540  -3.9344
    -3.9151  -3.9108  -2.3286  -2.1703   3.1716   3.4415   4.9743   6.0955
     7.2295   7.6879  14.9556  15.8888  16.2943  17.0168  18.1600  18.2303
    21.8883  22.3574  23.3078  24.6987  26.7634  27.7884  30.8372  30.9353
    33.5110  33.5472  35.4867  35.9612  36.7981

     occupation numbers 
     1.0000   1.0000   1.0000   1.0000   1.0000   1.0000   1.0000   1.0000
     1.0000   1.0000   1.0000   1.0000   1.0000   1.0000   1.0000   1.0000
     1.0000   1.0000   0.0000   0.0000   0.0000   0.0000   0.0000   0.0000
     0.0000   0.0000   0.0000   0.0000   0.0000   0.0000   0.0000   0.0000
     0.0000   0.0000   0.0000   0.0000   0.0000

          k = 0.2500 0.5774-0.3067 (  3152 PWs)   bands (ev):

    -5.5303  -5.5303  -4.0897  -4.0897  -4.0596  -4.0596  -3.9460  -3.9460
    -3.9089  -3.9089  -2.2504  -2.2504   3.1649   3.1649   5.4895   5.4895
     7.7895   7.7895  15.1310  15.1310  16.8372  16.8372  17.9987  17.9987
    22.2284  22.2284  23.8171  23.8171  27.2553  27.2553  30.9572  30.9572
    33.6853  33.6853  35.7016  35.7016  37.5445

     occupation numbers 
     1.0000   1.0000   1.0000   1.0000   1.0000   1.0000   1.0000   1.0000
     1.0000   1.0000   1.0000   1.0000   1.0000   1.0000   1.0000   1.0000
     1.0000   1.0000   0.0000   0.0000   0.0000   0.0000   0.0000   0.0000
     0.0000   0.0000   0.0000   0.0000   0.0000   0.0000   0.0000   0.0000
     0.0000   0.0000   0.0000   0.0000   0.0000

     the Fermi energy is    10.1379 ev
     (compare with:     9.0283 eV, computed in scf)

     Writing all to output data dir ./tmp/GaN.save/ :
     XML data file, pseudopotentials, collected wavefunctions
 
     init_run     :      0.68s CPU      0.90s WALL (       1 calls)
     electrons    :    106.16s CPU    150.00s WALL (       1 calls)

     Called by init_run:
     wfcinit      :      0.00s CPU      0.01s WALL (       1 calls)
     wfcinit:atom :      0.00s CPU      0.00s WALL (      40 calls)
     wfcinit:wfcr :      1.27s CPU      2.15s WALL (      40 calls)
     potinit      :      0.14s CPU      0.23s WALL (       1 calls)
     hinit0       :      0.32s CPU      0.40s WALL (       1 calls)

     Called by electrons:
     c_bands      :    106.14s CPU    149.96s WALL (       1 calls)
     v_of_rho     :      0.04s CPU      0.07s WALL (       1 calls)
     v_h          :      0.00s CPU      0.00s WALL (       1 calls)
     v_xc         :      0.04s CPU      0.07s WALL (       1 calls)
     newd         :      0.07s CPU      0.10s WALL (       1 calls)
     PAW_pot      :      0.08s CPU      0.10s WALL (       1 calls)

     Called by c_bands:
     init_us_2    :      0.00s CPU      0.00s WALL (      40 calls)
     cegterg      :    104.73s CPU    147.55s WALL (     222 calls)

     Called by sum_band:

     Called by *egterg:
     cdiaghg      :     16.44s CPU     19.65s WALL (    4279 calls)
     cegterg:over :     11.28s CPU     12.97s WALL (    4239 calls)
     cegterg:upda :      0.48s CPU      0.63s WALL (    4239 calls)
     cegterg:last :      1.40s CPU      1.67s WALL (    3166 calls)
     h_psi        :     64.99s CPU    100.72s WALL (    4501 calls)
     s_psi        :      0.33s CPU      0.47s WALL (    4501 calls)
     g_psi        :      0.06s CPU      0.08s WALL (    4239 calls)

     Called by h_psi:
     h_psi:calbec :      3.84s CPU      4.35s WALL (    4501 calls)
     vloc_psi     :     60.73s CPU     95.83s WALL (    4501 calls)
     add_vuspsi   :      0.36s CPU      0.44s WALL (    4501 calls)

     General routines
     calbec       :      3.83s CPU      4.34s WALL (    4501 calls)
     fft          :      0.06s CPU      0.10s WALL (      13 calls)
     ffts         :      0.00s CPU      0.00s WALL (       1 calls)
     fftw         :     58.65s CPU     93.08s WALL (  224518 calls)
     interpolate  :      0.00s CPU      0.00s WALL (       1 calls)
     davcio       :      0.01s CPU      0.01s WALL (      80 calls)
 
     Parallel routines

     PAW routines
     PAW_pot      :      0.08s CPU      0.10s WALL (       1 calls)
 
     PWSCF        :   1m49.73s CPU   2m35.19s WALL

 
   This run was terminated on:  14:51:49  31Jul2026            

=------------------------------------------------------------------------------=
   JOB DONE.
=------------------------------------------------------------------------------=
