
     Program PWSCF v.7.3.1 starts on 30Jul2026 at 22:50:26 

     This program is part of the open-source Quantum ESPRESSO suite
     for quantum simulation of materials; please cite
         "P. Giannozzi et al., J. Phys.:Condens. Matter 21 395502 (2009);
         "P. Giannozzi et al., J. Phys.:Condens. Matter 29 465901 (2017);
         "P. Giannozzi et al., J. Chem. Phys. 152 154105 (2020);
          URL http://www.quantum-espresso.org", 
     in publications or presentations arising from this work. More details at
     http://www.quantum-espresso.org/quote

     Parallel version (MPI & OpenMP), running on      12 processor cores
     Number of MPI processes:                12
     Threads/MPI process:                     1

     MPI processes distributed on     1 nodes
     67053 MiB available memory on the printing compute node when the environment starts
 
     Waiting for input...
     Reading input from standard input

     Current dimensions of program PWSCF are:
     Max number of different atomic species (ntypx) = 10
     Max number of k-points (npk) =  40000
     Max angular momentum in pseudopotentials (lmaxx) =  4
     file Ga.pbe-dn-kjpaw_psl.1.0.0.UPF: wavefunction(s)  4S renormalized
     file N.pbe-n-kjpaw_psl.1.0.0.UPF: wavefunction(s)  2S renormalized
 
     R & G space division:  proc/nbgrp/npool/nimage =      12
     Subspace diagonalization in iterative solution of the eigenvalue problem:
     a serial algorithm will be used

 
     Parallelization info
     --------------------
     sticks:   dense  smooth     PW     G-vecs:    dense   smooth      PW
     Min         149      59     16                 8301     2091     322
     Max         150      61     17                 8308     2094     331
     Sum        1789     721    199                99623    25109    3935
 
     Using Slab Decomposition
 


     bravais-lattice index     =            4
     lattice parameter (alat)  =       6.0849  a.u.
     unit-cell volume          =     318.1254 (a.u.)^3
     number of atoms/cell      =            4
     number of atomic types    =            2
     number of electrons       =        36.00
     number of Kohn-Sham states=           22
     kinetic-energy cutoff     =      70.0000  Ry
     charge density cutoff     =     700.0000  Ry
     scf convergence threshold =      1.0E-08
     mixing beta               =       0.7000
     number of iterations used =            8  plain     mixing
     Exchange-correlation= SLA  PW   PBX  PBC
                           (   1   4   3   4   0   0   0)

     celldm(1)=   6.084918  celldm(2)=   0.000000  celldm(3)=   1.630435
     celldm(4)=   0.000000  celldm(5)=   0.000000  celldm(6)=   0.000000

     crystal axes: (cart. coord. in units of alat)
               a(1) = (   1.000000   0.000000   0.000000 )  
               a(2) = (  -0.500000   0.866025   0.000000 )  
               a(3) = (   0.000000   0.000000   1.630435 )  

     reciprocal axes: (cart. coord. in units 2 pi/alat)
               b(1) = (  1.000000  0.577350  0.000000 )  
               b(2) = (  0.000000  1.154701  0.000000 )  
               b(3) = (  0.000000  0.000000  0.613333 )  


     PseudoPot. # 1 for Ga read from file:
     /data-fast/greenano/Students/cohort2/rojassan/Project_GaN/PSEUDO/Ga.pbe-dn-kjpaw_psl.1.0.0.UPF
     MD5 check sum: 93aceff68ec27daa0acc11ebb2e245f0
     Pseudo is Projector augmented-wave + core cor, Zval = 13.0
     Generated using 'atomic' code by A. Dal Corso  v.7.3.1
     Shape of augmentation charge: PSQ
     Using radial grid of 1205 points,  6 beta functions with: 
                l(1) =   0
                l(2) =   0
                l(3) =   1
                l(4) =   1
                l(5) =   2
                l(6) =   2
     Q(r) pseudized with 0 coefficients 


     PseudoPot. # 2 for N  read from file:
     /data-fast/greenano/Students/cohort2/rojassan/Project_GaN/PSEUDO/N.pbe-n-kjpaw_psl.1.0.0.UPF
     MD5 check sum: 86f48117b7e7b472c01f85d0863ba463
     Pseudo is Projector augmented-wave + core cor, Zval =  5.0
     Generated using 'atomic' code by A. Dal Corso  v.7.3.1
     Shape of augmentation charge: PSQ
     Using radial grid of 1085 points,  4 beta functions with: 
                l(1) =   0
                l(2) =   0
                l(3) =   1
                l(4) =   1
     Q(r) pseudized with 0 coefficients 


     atomic species   valence    mass     pseudopotential
     Ga               13.00    69.72300     Ga( 1.00)
     N                 5.00    14.00700     N ( 1.00)

     12 Sym. Ops. (no inversion) found ( 6 have fractional translation)


                                    s                        frac. trans.

      isym =  1     identity                                     

 cryst.   s( 1) = (     1          0          0      )
                  (     0          1          0      )
                  (     0          0          1      )

 cart.    s( 1) = (  1.0000000  0.0000000  0.0000000 )
                  (  0.0000000  1.0000000  0.0000000 )
                  (  0.0000000  0.0000000  1.0000000 )


      isym =  2     180 deg rotation - cart. axis [0,0,1]        

 cryst.   s( 2) = (    -1          0          0      )    f =(  0.0000000 )
                  (     0         -1          0      )       (  0.0000000 )
                  (     0          0          1      )       ( -0.5000000 )

 cart.    s( 2) = ( -1.0000000  0.0000000  0.0000000 )    f =(  0.0000000 )
                  (  0.0000000 -1.0000000  0.0000000 )       (  0.0000000 )
                  (  0.0000000  0.0000000  1.0000000 )       ( -0.8152174 )


      isym =  3      60 deg rotation - cryst. axis [0,0,1]       

 cryst.   s( 3) = (     1          1          0      )    f =(  0.0000000 )
                  (    -1          0          0      )       (  0.0000000 )
                  (     0          0          1      )       ( -0.5000000 )

 cart.    s( 3) = (  0.5000000 -0.8660254  0.0000000 )    f =(  0.0000000 )
                  (  0.8660254  0.5000000  0.0000000 )       (  0.0000000 )
                  (  0.0000000  0.0000000  1.0000000 )       ( -0.8152174 )


      isym =  4      60 deg rotation - cryst. axis [0,0,-1]      

 cryst.   s( 4) = (     0         -1          0      )    f =(  0.0000000 )
                  (     1          1          0      )       (  0.0000000 )
                  (     0          0          1      )       ( -0.5000000 )

 cart.    s( 4) = (  0.5000000  0.8660254  0.0000000 )    f =( -0.0000000 )
                  ( -0.8660254  0.5000000  0.0000000 )       (  0.0000000 )
                  (  0.0000000  0.0000000  1.0000000 )       ( -0.8152174 )


      isym =  5     120 deg rotation - cryst. axis [0,0,1]       

 cryst.   s( 5) = (     0          1          0      )
                  (    -1         -1          0      )
                  (     0          0          1      )

 cart.    s( 5) = ( -0.5000000 -0.8660254  0.0000000 )
                  (  0.8660254 -0.5000000  0.0000000 )
                  (  0.0000000  0.0000000  1.0000000 )


      isym =  6     120 deg rotation - cryst. axis [0,0,-1]      

 cryst.   s( 6) = (    -1         -1          0      )
                  (     1          0          0      )
                  (     0          0          1      )

 cart.    s( 6) = ( -0.5000000  0.8660254  0.0000000 )
                  ( -0.8660254 -0.5000000  0.0000000 )
                  (  0.0000000  0.0000000  1.0000000 )


      isym =  7     inv. 180 deg rotation - cart. axis [0,1,0]   

 cryst.   s( 7) = (     1          0          0      )    f =(  0.0000000 )
                  (    -1         -1          0      )       (  0.0000000 )
                  (     0          0          1      )       ( -0.5000000 )

 cart.    s( 7) = (  1.0000000  0.0000000  0.0000000 )    f =( -0.0000000 )
                  (  0.0000000 -1.0000000  0.0000000 )       (  0.0000000 )
                  (  0.0000000  0.0000000  1.0000000 )       ( -0.8152174 )


      isym =  8     inv. 180 deg rotation - cart. axis [1,0,0]   

 cryst.   s( 8) = (    -1          0          0      )
                  (     1          1          0      )
                  (     0          0          1      )

 cart.    s( 8) = ( -1.0000000  0.0000000  0.0000000 )
                  (  0.0000000  1.0000000  0.0000000 )
                  (  0.0000000  0.0000000  1.0000000 )


      isym =  9     inv. 180 deg rotation - cryst. axis [1,-1,0] 

 cryst.   s( 9) = (     0          1          0      )    f =(  0.0000000 )
                  (     1          0          0      )       (  0.0000000 )
                  (     0          0          1      )       ( -0.5000000 )

 cart.    s( 9) = ( -0.5000000  0.8660254  0.0000000 )    f =(  0.0000000 )
                  (  0.8660254  0.5000000  0.0000000 )       (  0.0000000 )
                  (  0.0000000  0.0000000  1.0000000 )       ( -0.8152174 )


      isym = 10     inv. 180 deg rotation - cryst. axis [2,1,0]  

 cryst.   s(10) = (    -1         -1          0      )    f =(  0.0000000 )
                  (     0          1          0      )       (  0.0000000 )
                  (     0          0          1      )       ( -0.5000000 )

 cart.    s(10) = ( -0.5000000 -0.8660254  0.0000000 )    f =(  0.0000000 )
                  ( -0.8660254  0.5000000  0.0000000 )       (  0.0000000 )
                  (  0.0000000  0.0000000  1.0000000 )       ( -0.8152174 )


      isym = 11     inv. 180 deg rotation - cryst. axis [0,1,0]  

 cryst.   s(11) = (     1          1          0      )
                  (     0         -1          0      )
                  (     0          0          1      )

 cart.    s(11) = (  0.5000000  0.8660254  0.0000000 )
                  (  0.8660254 -0.5000000  0.0000000 )
                  (  0.0000000  0.0000000  1.0000000 )


      isym = 12     inv. 180 deg rotation - cryst. axis [1,1,0]  

 cryst.   s(12) = (     0         -1          0      )
                  (    -1          0          0      )
                  (     0          0          1      )

 cart.    s(12) = (  0.5000000 -0.8660254  0.0000000 )
                  ( -0.8660254 -0.5000000  0.0000000 )
                  (  0.0000000  0.0000000  1.0000000 )


     point group C_6v (6mm) 
     there are  6 classes
     the character table:

       E     2C6   2C3   C2    3s_v  3s_d 
A_1    1.00  1.00  1.00  1.00  1.00  1.00
A_2    1.00  1.00  1.00  1.00 -1.00 -1.00
B_1    1.00 -1.00  1.00 -1.00  1.00 -1.00
B_2    1.00 -1.00  1.00 -1.00 -1.00  1.00
E_1    2.00  1.00 -1.00 -2.00  0.00  0.00
E_2    2.00 -1.00 -1.00  2.00  0.00  0.00

     the symmetry operations in each class and the name of the first element:

     E        1
          identity                                               
     2C6      3    4
           60 deg rotation - cryst. axis [0,0,1]                 
     2C3      5    6
          120 deg rotation - cryst. axis [0,0,1]                 
     C2       2
          180 deg rotation - cart. axis [0,0,1]                  
     3s_v     8   12   11
          inv. 180 deg rotation - cart. axis [1,0,0]             
     3s_d     7    9   10
          inv. 180 deg rotation - cart. axis [0,1,0]             

   Cartesian axes

     site n.     atom                  positions (alat units)
         1        Ga     tau(   1) = (   0.0000000   0.5773503   0.0000000  )
         2        Ga     tau(   2) = (   0.5000000   0.2886751   0.8152174  )
         3        N      tau(   3) = (   0.0000000   0.5773503   0.6136663  )
         4        N      tau(   4) = (   0.5000000   0.2886751   1.4288837  )

   Crystallographic axes

     site n.     atom                  positions (cryst. coord.)
         1        Ga     tau(   1) = (  0.3333333  0.6666667  0.0000000  )
         2        Ga     tau(   2) = (  0.6666667  0.3333333  0.5000000  )
         3        N      tau(   3) = (  0.3333333  0.6666667  0.3763820  )
         4        N      tau(   4) = (  0.6666667  0.3333333  0.8763820  )

     number of k points=     8
                       cart. coord. in units 2pi/alat
        k(    1) = (   0.0000000   0.0000000   0.0000000), wk =   0.0416667
        k(    2) = (   0.0000000   0.0000000   0.2044444), wk =   0.0833333
        k(    3) = (   0.0000000   0.2886751   0.0000000), wk =   0.2500000
        k(    4) = (   0.0000000   0.2886751   0.2044444), wk =   0.5000000
        k(    5) = (   0.0000000  -0.5773503   0.0000000), wk =   0.1250000
        k(    6) = (   0.0000000  -0.5773503   0.2044444), wk =   0.2500000
        k(    7) = (   0.2500000   0.4330127   0.0000000), wk =   0.2500000
        k(    8) = (   0.2500000   0.4330127   0.2044444), wk =   0.5000000

                       cryst. coord.
        k(    1) = (   0.0000000   0.0000000   0.0000000), wk =   0.0416667
        k(    2) = (   0.0000000   0.0000000   0.3333333), wk =   0.0833333
        k(    3) = (   0.0000000   0.2500000   0.0000000), wk =   0.2500000
        k(    4) = (   0.0000000   0.2500000   0.3333333), wk =   0.5000000
        k(    5) = (   0.0000000  -0.5000000   0.0000000), wk =   0.1250000
        k(    6) = (   0.0000000  -0.5000000   0.3333333), wk =   0.2500000
        k(    7) = (   0.2500000   0.2500000   0.0000000), wk =   0.2500000
        k(    8) = (   0.2500000   0.2500000   0.3333333), wk =   0.5000000

     Dense  grid:    99623 G-vectors     FFT dimensions: (  54,  54,  90)

     Smooth grid:    25109 G-vectors     FFT dimensions: (  36,  36,  54)

     Dynamical RAM for                 wfc:       0.09 MB

     Dynamical RAM for     wfc (w. buffer):       0.79 MB

     Dynamical RAM for           str. fact:       0.25 MB

     Dynamical RAM for           local pot:       0.00 MB

     Dynamical RAM for          nlocal pot:       0.21 MB

     Dynamical RAM for                qrad:       4.24 MB

     Dynamical RAM for          rho,v,vnew:       0.91 MB

     Dynamical RAM for               rhoin:       0.30 MB

     Dynamical RAM for            rho*nmix:       2.03 MB

     Dynamical RAM for           G-vectors:       0.49 MB

     Dynamical RAM for          h,s,v(r/c):       0.09 MB

     Dynamical RAM for          <psi|beta>:       0.02 MB

     Dynamical RAM for                 psi:       0.18 MB

     Dynamical RAM for                hpsi:       0.18 MB

     Dynamical RAM for                spsi:       0.18 MB

     Dynamical RAM for      wfcinit/wfcrot:       0.22 MB

     Dynamical RAM for           addusdens:      23.82 MB

     Dynamical RAM for          addusforce:      24.14 MB

     Dynamical RAM for         addusstress:      25.47 MB

     Estimated static dynamical RAM per process >       8.48 MB

     Estimated max dynamical RAM per process >      35.97 MB

     Estimated total dynamical RAM >     431.63 MB

     Initial potential from superposition of free atoms

     starting charge      35.9941, renormalised to      36.0000
     Starting wfcs are   26 randomized atomic wfcs
     Checking if some PAW data can be deallocated... 
       PAW data deallocated on    6 nodes for type:  1
       PAW data deallocated on    6 nodes for type:  2

     total cpu time spent up to now is        0.6 secs

     Self-consistent Calculation

     iteration #  1     ecut=    70.00 Ry     beta= 0.70
     Davidson diagonalization with overlap

---- Real-time Memory Report at c_bands before calling an iterative solver
           151 MiB given to the printing process from OS
             0 MiB allocation reported by mallinfo(arena+hblkhd)
         66609 MiB available memory on the node where the printing process lives
------------------
     ethr =  1.00E-02,  avg # of iterations =  3.0

     total cpu time spent up to now is        0.8 secs

     total energy              =    -611.66286535 Ry
     estimated scf accuracy    <       1.12876200 Ry

     iteration #  2     ecut=    70.00 Ry     beta= 0.70
     Davidson diagonalization with overlap

---- Real-time Memory Report at c_bands before calling an iterative solver
           166 MiB given to the printing process from OS
             0 MiB allocation reported by mallinfo(arena+hblkhd)
         66521 MiB available memory on the node where the printing process lives
------------------
     ethr =  3.14E-03,  avg # of iterations =  5.6

     total cpu time spent up to now is        1.1 secs

     total energy              =    -612.13178147 Ry
     estimated scf accuracy    <       1.39248571 Ry

     iteration #  3     ecut=    70.00 Ry     beta= 0.70
     Davidson diagonalization with overlap

---- Real-time Memory Report at c_bands before calling an iterative solver
           169 MiB given to the printing process from OS
             0 MiB allocation reported by mallinfo(arena+hblkhd)
         66515 MiB available memory on the node where the printing process lives
------------------
     ethr =  3.14E-03,  avg # of iterations =  2.0

     total cpu time spent up to now is        1.4 secs

     total energy              =    -612.38795473 Ry
     estimated scf accuracy    <       0.02962166 Ry

     iteration #  4     ecut=    70.00 Ry     beta= 0.70
     Davidson diagonalization with overlap

---- Real-time Memory Report at c_bands before calling an iterative solver
           170 MiB given to the printing process from OS
             0 MiB allocation reported by mallinfo(arena+hblkhd)
         66515 MiB available memory on the node where the printing process lives
------------------
     ethr =  8.23E-05,  avg # of iterations =  9.2

     total cpu time spent up to now is        1.7 secs

     total energy              =    -612.42615857 Ry
     estimated scf accuracy    <       0.01480310 Ry

     iteration #  5     ecut=    70.00 Ry     beta= 0.70
     Davidson diagonalization with overlap

---- Real-time Memory Report at c_bands before calling an iterative solver
           172 MiB given to the printing process from OS
             0 MiB allocation reported by mallinfo(arena+hblkhd)
         66512 MiB available memory on the node where the printing process lives
------------------
     ethr =  4.11E-05,  avg # of iterations =  3.6

     total cpu time spent up to now is        1.9 secs

     total energy              =    -612.42483230 Ry
     estimated scf accuracy    <       0.01369214 Ry

     iteration #  6     ecut=    70.00 Ry     beta= 0.70
     Davidson diagonalization with overlap

---- Real-time Memory Report at c_bands before calling an iterative solver
           174 MiB given to the printing process from OS
             0 MiB allocation reported by mallinfo(arena+hblkhd)
         66508 MiB available memory on the node where the printing process lives
------------------
     ethr =  3.80E-05,  avg # of iterations =  2.0

     total cpu time spent up to now is        2.2 secs

     total energy              =    -612.42426566 Ry
     estimated scf accuracy    <       0.00308633 Ry

     iteration #  7     ecut=    70.00 Ry     beta= 0.70
     Davidson diagonalization with overlap

---- Real-time Memory Report at c_bands before calling an iterative solver
           174 MiB given to the printing process from OS
             0 MiB allocation reported by mallinfo(arena+hblkhd)
         66505 MiB available memory on the node where the printing process lives
------------------
     ethr =  8.57E-06,  avg # of iterations =  4.1

     total cpu time spent up to now is        2.4 secs

     total energy              =    -612.42497970 Ry
     estimated scf accuracy    <       0.00031813 Ry

     iteration #  8     ecut=    70.00 Ry     beta= 0.70
     Davidson diagonalization with overlap

---- Real-time Memory Report at c_bands before calling an iterative solver
           176 MiB given to the printing process from OS
             0 MiB allocation reported by mallinfo(arena+hblkhd)
         66505 MiB available memory on the node where the printing process lives
------------------
     ethr =  8.84E-07,  avg # of iterations =  5.9

     total cpu time spent up to now is        2.7 secs

     total energy              =    -612.42525320 Ry
     estimated scf accuracy    <       0.00018356 Ry

     iteration #  9     ecut=    70.00 Ry     beta= 0.70
     Davidson diagonalization with overlap

---- Real-time Memory Report at c_bands before calling an iterative solver
           176 MiB given to the printing process from OS
             0 MiB allocation reported by mallinfo(arena+hblkhd)
         66504 MiB available memory on the node where the printing process lives
------------------
     ethr =  5.10E-07,  avg # of iterations =  1.8

     total cpu time spent up to now is        2.9 secs

     total energy              =    -612.42525678 Ry
     estimated scf accuracy    <       0.00013647 Ry

     iteration # 10     ecut=    70.00 Ry     beta= 0.70
     Davidson diagonalization with overlap

---- Real-time Memory Report at c_bands before calling an iterative solver
           177 MiB given to the printing process from OS
             0 MiB allocation reported by mallinfo(arena+hblkhd)
         66503 MiB available memory on the node where the printing process lives
------------------
     ethr =  3.79E-07,  avg # of iterations =  1.9

     total cpu time spent up to now is        3.1 secs

     total energy              =    -612.42526358 Ry
     estimated scf accuracy    <       0.00001296 Ry

     iteration # 11     ecut=    70.00 Ry     beta= 0.70
     Davidson diagonalization with overlap

---- Real-time Memory Report at c_bands before calling an iterative solver
           177 MiB given to the printing process from OS
             0 MiB allocation reported by mallinfo(arena+hblkhd)
         66516 MiB available memory on the node where the printing process lives
------------------
     ethr =  3.60E-08,  avg # of iterations =  7.4

     total cpu time spent up to now is        3.4 secs

     total energy              =    -612.42527796 Ry
     estimated scf accuracy    <       0.00000408 Ry

     iteration # 12     ecut=    70.00 Ry     beta= 0.70
     Davidson diagonalization with overlap

---- Real-time Memory Report at c_bands before calling an iterative solver
           179 MiB given to the printing process from OS
             0 MiB allocation reported by mallinfo(arena+hblkhd)
         66516 MiB available memory on the node where the printing process lives
------------------
     ethr =  1.13E-08,  avg # of iterations =  1.9

     total cpu time spent up to now is        3.6 secs

     total energy              =    -612.42527761 Ry
     estimated scf accuracy    <       0.00000101 Ry

     iteration # 13     ecut=    70.00 Ry     beta= 0.70
     Davidson diagonalization with overlap

---- Real-time Memory Report at c_bands before calling an iterative solver
           180 MiB given to the printing process from OS
             0 MiB allocation reported by mallinfo(arena+hblkhd)
         66516 MiB available memory on the node where the printing process lives
------------------
     ethr =  2.80E-09,  avg # of iterations =  6.8

     total cpu time spent up to now is        3.9 secs

     total energy              =    -612.42527866 Ry
     estimated scf accuracy    <       0.00000005 Ry

     iteration # 14     ecut=    70.00 Ry     beta= 0.70
     Davidson diagonalization with overlap

---- Real-time Memory Report at c_bands before calling an iterative solver
           181 MiB given to the printing process from OS
             0 MiB allocation reported by mallinfo(arena+hblkhd)
         66514 MiB available memory on the node where the printing process lives
------------------
     ethr =  1.51E-10,  avg # of iterations =  7.9

     total cpu time spent up to now is        4.3 secs

     total energy              =    -612.42527871 Ry
     estimated scf accuracy    <       0.00000009 Ry

     iteration # 15     ecut=    70.00 Ry     beta= 0.70
     Davidson diagonalization with overlap

---- Real-time Memory Report at c_bands before calling an iterative solver
           182 MiB given to the printing process from OS
             0 MiB allocation reported by mallinfo(arena+hblkhd)
         66502 MiB available memory on the node where the printing process lives
------------------
     ethr =  1.51E-10,  avg # of iterations =  3.8

     total cpu time spent up to now is        4.5 secs

     End of self-consistent calculation

          k = 0.0000 0.0000 0.0000 (  3141 PWs)   bands (ev):

    -6.4493  -5.6547  -4.2034  -4.1873  -4.1873  -4.1324  -4.1324  -3.9629
    -3.9629  -3.8740  -3.8740  -2.6163   2.4032   8.2868   8.2868   9.2358
     9.2826   9.2826  10.9834  13.3361  18.2904  18.9927

     occupation numbers 
     1.0000   1.0000   1.0000   1.0000   1.0000   1.0000   1.0000   1.0000
     1.0000   1.0000   1.0000   1.0000   1.0000   1.0000   1.0000   1.0000
     1.0000   1.0000   0.0000   0.0000   0.0000   0.0000

          k = 0.0000 0.0000 0.2044 (  3146 PWs)   bands (ev):

    -6.1776  -5.7658  -4.1805  -4.1805  -4.1527  -4.1527  -4.0780  -3.9343
    -3.9343  -3.8902  -3.8902  -3.3949   4.0214   6.9867   8.5259   8.5259
     9.0239   9.0239  12.6860  13.4784  17.7069  18.1284

     occupation numbers 
     1.0000   1.0000   1.0000   1.0000   1.0000   1.0000   1.0000   1.0000
     1.0000   1.0000   1.0000   1.0000   1.0000   1.0000   1.0000   1.0000
     1.0000   1.0000   0.0000   0.0000   0.0000   0.0000

          k = 0.0000 0.2887 0.0000 (  3164 PWs)   bands (ev):

    -5.9958  -5.5636  -4.1523  -4.1343  -4.0740  -4.0401  -3.9967  -3.9650
    -3.9478  -3.8645  -3.8483  -2.2477   3.1752   5.3945   6.4194   7.3736
     8.5913   8.8026  13.3801  15.0282  16.5281  17.6470

     occupation numbers 
     1.0000   1.0000   1.0000   1.0000   1.0000   1.0000   1.0000   1.0000
     1.0000   1.0000   1.0000   1.0000   1.0000   1.0000   1.0000   1.0000
     1.0000   1.0000   0.0000   0.0000   0.0000   0.0000

          k = 0.0000 0.2887 0.2044 (  3138 PWs)   bands (ev):

    -5.8229  -5.6073  -4.1462  -4.1122  -4.1066  -4.0648  -3.9908  -3.9722
    -3.9271  -3.8854  -3.6474  -2.9120   4.0712   5.4100   6.3821   7.6972
     8.1157   8.4070  13.7073  15.0040  16.3916  17.1629

     occupation numbers 
     1.0000   1.0000   1.0000   1.0000   1.0000   1.0000   1.0000   1.0000
     1.0000   1.0000   1.0000   1.0000   1.0000   1.0000   1.0000   1.0000
     1.0000   1.0000   0.0000   0.0000   0.0000   0.0000

          k = 0.0000-0.5774 0.0000 (  3118 PWs)   bands (ev):

    -5.6608  -5.5168  -4.1426  -4.1219  -4.0342  -3.9967  -3.9558  -3.9486
    -3.8801  -3.8502  -2.7111  -2.1705   2.9608   4.0827   5.2025   6.6442
     7.1553   8.3204  14.2473  14.6382  15.2414  17.6166

     occupation numbers 
     1.0000   1.0000   1.0000   1.0000   1.0000   1.0000   1.0000   1.0000
     1.0000   1.0000   1.0000   1.0000   1.0000   1.0000   1.0000   1.0000
     1.0000   1.0000   0.0000   0.0000   0.0000   0.0000

          k = 0.0000-0.5774 0.2044 (  3168 PWs)   bands (ev):

    -5.5901  -5.5185  -4.1554  -4.1020  -4.0776  -3.9916  -3.9754  -3.9112
    -3.8777  -3.8659  -2.6087  -2.3321   2.6812   3.2542   6.5665   7.0150
     7.7632   7.8438  13.2887  14.1530  16.6679  16.9506

     occupation numbers 
     1.0000   1.0000   1.0000   1.0000   1.0000   1.0000   1.0000   1.0000
     1.0000   1.0000   1.0000   1.0000   1.0000   1.0000   1.0000   1.0000
     1.0000   1.0000   0.0000   0.0000   0.0000   0.0000

          k = 0.2500 0.4330 0.0000 (  3128 PWs)   bands (ev):

    -5.6445  -5.5225  -4.1716  -4.0614  -4.0125  -4.0019  -3.9879  -3.9611
    -3.9080  -3.8848  -2.8927  -1.9411   3.6508   4.2668   5.3557   5.4212
     7.2600   7.4341  15.0091  15.6851  16.9072  16.9359

     occupation numbers 
     1.0000   1.0000   1.0000   1.0000   1.0000   1.0000   1.0000   1.0000
     1.0000   1.0000   1.0000   1.0000   1.0000   1.0000   1.0000   1.0000
     1.0000   1.0000   0.0000   0.0000   0.0000   0.0000

          k = 0.2500 0.4330 0.2044 (  3155 PWs)   bands (ev):

    -5.5773  -5.5176  -4.1196  -4.0965  -4.0595  -4.0235  -3.9738  -3.9604
    -3.9046  -3.8893  -2.7145  -2.2400   3.3269   3.7863   5.5725   6.5292
     6.8674   7.9778  14.9489  15.2450  17.0117  17.1437

     occupation numbers 
     1.0000   1.0000   1.0000   1.0000   1.0000   1.0000   1.0000   1.0000
     1.0000   1.0000   1.0000   1.0000   1.0000   1.0000   1.0000   1.0000
     1.0000   1.0000   0.0000   0.0000   0.0000   0.0000

     highest occupied, lowest unoccupied level (ev):     9.2826   10.9834

!    total energy              =    -612.42527872 Ry
     total all-electron energy =     -7995.352197 Ry
     estimated scf accuracy    <          3.2E-09 Ry

     The total energy is the sum of the following terms:
     one-electron contribution =    -184.76150089 Ry
     hartree contribution      =     131.30850048 Ry
     xc contribution           =     -88.37582781 Ry
     ewald contribution        =    -230.82466193 Ry
     one-center paw contrib.   =    -239.77178857 Ry
      -> PAW hartree energy AE =     145.65585224 Ry
      -> PAW hartree energy PS =    -144.61680029 Ry
      -> PAW xc energy AE      =    -151.16807383 Ry
      -> PAW xc energy PS      =      38.21918323 Ry
      -> total E_H with PAW    =     132.34755243 Ry
      -> total E_XC with PAW   =    -201.32471841 Ry

     convergence has been achieved in  15 iterations

     Forces acting on atoms (cartesian axes, Ry/au):

     atom    1 type  1   force =     0.00000000    0.00000000   -0.00032352
     atom    2 type  1   force =     0.00000000    0.00000000   -0.00032352
     atom    3 type  2   force =     0.00000000    0.00000000    0.00032352
     atom    4 type  2   force =     0.00000000    0.00000000    0.00032352
     The non-local contrib.  to forces
     atom    1 type  1   force =    -0.00000000   -0.00000000   -0.00761397
     atom    2 type  1   force =     0.00000000   -0.00000000   -0.00761397
     atom    3 type  2   force =     0.00000000    0.00000000    0.01965565
     atom    4 type  2   force =     0.00000000    0.00000000    0.01965565
     The ionic contribution  to forces
     atom    1 type  1   force =    -0.00000002    0.00000001    0.15748047
     atom    2 type  1   force =     0.00000002   -0.00000001    0.15748047
     atom    3 type  2   force =    -0.00000001    0.00000001   -0.15748047
     atom    4 type  2   force =     0.00000001   -0.00000001   -0.15748047
     The local contribution  to forces
     atom    1 type  1   force =    -0.00000000    0.00000032   -0.15066658
     atom    2 type  1   force =     0.00000056    0.00000000   -0.15066653
     atom    3 type  2   force =     0.00000000    0.00000003    0.13845140
     atom    4 type  2   force =     0.00000004    0.00000000    0.13845132
     The core correction contribution to forces
     atom    1 type  1   force =     0.00000000    0.00000002    0.00049136
     atom    2 type  1   force =     0.00000004    0.00000000    0.00049136
     atom    3 type  2   force =     0.00000000   -0.00000000   -0.00032661
     atom    4 type  2   force =    -0.00000000    0.00000000   -0.00032661
     The Hubbard contrib.    to forces
     atom    1 type  1   force =     0.00000000    0.00000000    0.00000000
     atom    2 type  1   force =     0.00000000    0.00000000    0.00000000
     atom    3 type  2   force =     0.00000000    0.00000000    0.00000000
     atom    4 type  2   force =     0.00000000    0.00000000    0.00000000
     The SCF correction term to forces
     atom    1 type  1   force =     0.00000000    0.00000000    0.00000000
     atom    2 type  1   force =     0.00000000    0.00000000    0.00000000
     atom    3 type  2   force =     0.00000000    0.00000000    0.00000579
     atom    4 type  2   force =     0.00000000    0.00000000    0.00000579

     Total force =     0.000458     Total SCF correction =     0.000008


     Computing stress (Cartesian axis) and pressure

          total   stress  (Ry/bohr**3)                   (kbar)     P=       -6.95
  -0.00003314   0.00000000   0.00000000           -4.87        0.00        0.00
   0.00000000  -0.00003314  -0.00000000            0.00       -4.87       -0.00
   0.00000000   0.00000000  -0.00007537            0.00        0.00      -11.09

     kinetic stress (kbar)  19853.71      0.00      0.00
                                0.00  19853.71      0.00
                                0.00      0.00  19812.91

     local   stress (kbar)   6182.86      0.00     -0.00
                                0.00   6182.86     -0.00
                               -0.00     -0.00   4440.34

     nonloc. stress (kbar)  -1248.62      0.00      0.00
                                0.00  -1248.62      0.00
                                0.00      0.00  -1228.02

     hartree stress (kbar)  19974.16      0.00      0.00
                                0.00  19974.16      0.00
                                0.00      0.00  20770.34

     exc-cor stress (kbar)   5144.09     -0.00      0.00
                               -0.00   5144.09      0.00
                                0.00      0.00   5144.48

     corecor stress (kbar) -14012.72      0.00     -0.00
                                0.00 -14012.72     -0.00
                               -0.00     -0.00 -14011.69

     ewald   stress (kbar) -35898.35     -0.00     -0.00
                               -0.00 -35898.35     -0.00
                               -0.00     -0.00 -34939.46

     hubbard stress (kbar)      0.00      0.00      0.00
                                0.00      0.00      0.00
                                0.00      0.00      0.00

     DFT-D   stress (kbar)      0.00      0.00      0.00
                                0.00      0.00      0.00
                                0.00      0.00      0.00

     XDM     stress (kbar)      0.00      0.00      0.00
                                0.00      0.00      0.00
                                0.00      0.00      0.00

     dft-nl  stress (kbar)      0.00      0.00      0.00
                                0.00      0.00      0.00
                                0.00      0.00      0.00

     TS-vdW  stress (kbar)      0.00      0.00      0.00
                                0.00      0.00      0.00
                                0.00      0.00      0.00

     MDB     stress (kbar)      0.00      0.00      0.00
                                0.00      0.00      0.00
                                0.00      0.00      0.00

     3D-RISM stress (kbar)      0.00      0.00      0.00
                                0.00      0.00      0.00
                                0.00      0.00      0.00


     Writing all to output data dir ./tmp/GaN.save/ :
     XML data file, charge density, pseudopotentials, collected wavefunctions
 
     init_run     :      0.21s CPU      0.27s WALL (       1 calls)
     electrons    :      3.25s CPU      3.96s WALL (       1 calls)
     forces       :      0.04s CPU      0.06s WALL (       1 calls)
     stress       :      0.18s CPU      0.22s WALL (       1 calls)

     Called by init_run:
     wfcinit      :      0.05s CPU      0.06s WALL (       1 calls)
     wfcinit:atom :      0.00s CPU      0.00s WALL (       8 calls)
     wfcinit:wfcr :      0.05s CPU      0.06s WALL (       8 calls)
     potinit      :      0.06s CPU      0.07s WALL (       1 calls)
     hinit0       :      0.03s CPU      0.04s WALL (       1 calls)

     Called by electrons:
     c_bands      :      1.52s CPU      1.70s WALL (      15 calls)
     sum_band     :      0.57s CPU      0.81s WALL (      15 calls)
     v_of_rho     :      0.10s CPU      0.11s WALL (      16 calls)
     v_h          :      0.01s CPU      0.01s WALL (      16 calls)
     v_xc         :      0.11s CPU      0.11s WALL (      18 calls)
     newd         :      0.36s CPU      0.61s WALL (      16 calls)
     PAW_pot      :      0.74s CPU      0.76s WALL (      16 calls)
     mix_rho      :      0.01s CPU      0.02s WALL (      15 calls)

     Called by c_bands:
     init_us_2    :      0.02s CPU      0.02s WALL (     264 calls)
     cegterg      :      1.48s CPU      1.65s WALL (     120 calls)

     Called by sum_band:
     sum_band:wei :      0.00s CPU      0.00s WALL (      15 calls)
     sum_band:loo :      0.19s CPU      0.20s WALL (      15 calls)
     sum_band:buf :      0.00s CPU      0.00s WALL (     120 calls)
     sum_band:ini :      0.01s CPU      0.01s WALL (     120 calls)
     sum_band:cal :      0.01s CPU      0.01s WALL (     120 calls)
     sum_band:bec :      0.00s CPU      0.00s WALL (     120 calls)
     addusdens    :      0.34s CPU      0.56s WALL (      15 calls)
                                        0.00s GPU  (      15 calls)
     addusd:skk   :      0.00s CPU      0.00s WALL (      30 calls)
                                        0.00s GPU  (      30 calls)

     Called by *egterg:
     cdiaghg      :      0.24s CPU      0.28s WALL (     654 calls)
     cegterg:over :      0.08s CPU      0.08s WALL (     534 calls)
     cegterg:upda :      0.02s CPU      0.02s WALL (     534 calls)
     cegterg:last :      0.04s CPU      0.04s WALL (     344 calls)
     h_psi        :      1.08s CPU      1.19s WALL (     662 calls)
     s_psi        :      0.03s CPU      0.03s WALL (     662 calls)
     g_psi        :      0.00s CPU      0.00s WALL (     534 calls)

     Called by h_psi:
     h_psi:calbec :      0.05s CPU      0.05s WALL (     662 calls)
     vloc_psi     :      1.00s CPU      1.11s WALL (     662 calls)
     add_vuspsi   :      0.03s CPU      0.03s WALL (     662 calls)

     General routines
     calbec       :      0.06s CPU      0.06s WALL (     822 calls)
     fft          :      0.05s CPU      0.06s WALL (     231 calls)
     ffts         :      0.00s CPU      0.00s WALL (      31 calls)
     fftw         :      0.97s CPU      1.07s WALL (   19392 calls)
     interpolate  :      0.01s CPU      0.01s WALL (      16 calls)
 
     Parallel routines

     PAW routines
     PAW_pot      :      0.74s CPU      0.76s WALL (      16 calls)
     PAW_symme    :      0.00s CPU      0.00s WALL (      31 calls)
 
     PWSCF        :      3.82s CPU      5.07s WALL

 
   This run was terminated on:  22:50:32  30Jul2026            

=------------------------------------------------------------------------------=
   JOB DONE.
=------------------------------------------------------------------------------=
