
     Program PWSCF v.7.3.1 starts on 31Jul2026 at  1:38:14 

     This program is part of the open-source Quantum ESPRESSO suite
     for quantum simulation of materials; please cite
         "P. Giannozzi et al., J. Phys.:Condens. Matter 21 395502 (2009);
         "P. Giannozzi et al., J. Phys.:Condens. Matter 29 465901 (2017);
         "P. Giannozzi et al., J. Chem. Phys. 152 154105 (2020);
          URL http://www.quantum-espresso.org", 
     in publications or presentations arising from this work. More details at
     http://www.quantum-espresso.org/quote

     Parallel version (MPI & OpenMP), running on      12 processor cores
     Number of MPI processes:                12
     Threads/MPI process:                     1

     MPI processes distributed on     1 nodes
     67804 MiB available memory on the printing compute node when the environment starts
 
     Waiting for input...
     Reading input from standard input

     Current dimensions of program PWSCF are:
     Max number of different atomic species (ntypx) = 10
     Max number of k-points (npk) =  40000
     Max angular momentum in pseudopotentials (lmaxx) =  4
     file Ga.pbe-dn-kjpaw_psl.1.0.0.UPF: wavefunction(s)  4S renormalized
     file N.pbe-n-kjpaw_psl.1.0.0.UPF: wavefunction(s)  2S renormalized

     Atomic positions and unit cell read from directory:
     ./tmp/GaN.save/
 
 
     K-points division:     npool     =      12
     Subspace diagonalization in iterative solution of the eigenvalue problem:
     a serial algorithm will be used

 
     G-vector sticks info
     --------------------
     sticks:   dense  smooth     PW     G-vecs:    dense   smooth      PW
     Sum        1789     721    211                99623    25109    4043
 
     Using Slab Decomposition
 


     bravais-lattice index     =            4
     lattice parameter (alat)  =       6.0849  a.u.
     unit-cell volume          =     318.1254 (a.u.)^3
     number of atoms/cell      =            4
     number of atomic types    =            2
     number of electrons       =        36.00
     number of Kohn-Sham states=           37
     kinetic-energy cutoff     =      70.0000  Ry
     charge density cutoff     =     700.0000  Ry
     Exchange-correlation= SLA  PW   PBX  PBC
                           (   1   4   3   4   0   0   0)

     celldm(1)=   6.084918  celldm(2)=   0.000000  celldm(3)=   1.630435
     celldm(4)=   0.000000  celldm(5)=   0.000000  celldm(6)=   0.000000

     crystal axes: (cart. coord. in units of alat)
               a(1) = (   1.000000   0.000000   0.000000 )  
               a(2) = (  -0.500000   0.866025   0.000000 )  
               a(3) = (   0.000000   0.000000   1.630435 )  

     reciprocal axes: (cart. coord. in units 2 pi/alat)
               b(1) = (  1.000000  0.577350  0.000000 )  
               b(2) = (  0.000000  1.154701  0.000000 )  
               b(3) = (  0.000000  0.000000  0.613333 )  


     PseudoPot. # 1 for Ga read from file:
     /data-fast/greenano/Students/cohort2/rojassan/Project_GaN/PSEUDO/Ga.pbe-dn-kjpaw_psl.1.0.0.UPF
     MD5 check sum: 93aceff68ec27daa0acc11ebb2e245f0
     Pseudo is Projector augmented-wave + core cor, Zval = 13.0
     Generated using 'atomic' code by A. Dal Corso  v.7.3.1
     Shape of augmentation charge: PSQ
     Using radial grid of 1205 points,  6 beta functions with: 
                l(1) =   0
                l(2) =   0
                l(3) =   1
                l(4) =   1
                l(5) =   2
                l(6) =   2
     Q(r) pseudized with 0 coefficients 


     PseudoPot. # 2 for N  read from file:
     /data-fast/greenano/Students/cohort2/rojassan/Project_GaN/PSEUDO/N.pbe-n-kjpaw_psl.1.0.0.UPF
     MD5 check sum: 86f48117b7e7b472c01f85d0863ba463
     Pseudo is Projector augmented-wave + core cor, Zval =  5.0
     Generated using 'atomic' code by A. Dal Corso  v.7.3.1
     Shape of augmentation charge: PSQ
     Using radial grid of 1085 points,  4 beta functions with: 
                l(1) =   0
                l(2) =   0
                l(3) =   1
                l(4) =   1
     Q(r) pseudized with 0 coefficients 


     atomic species   valence    mass     pseudopotential
     Ga               13.00    69.72300     Ga( 1.00)
     N                 5.00    14.00700     N ( 1.00)

     12 Sym. Ops. (no inversion) found ( 6 have fractional translation)


                                    s                        frac. trans.

      isym =  1     identity                                     

 cryst.   s( 1) = (     1          0          0      )
                  (     0          1          0      )
                  (     0          0          1      )

 cart.    s( 1) = (  1.0000000  0.0000000  0.0000000 )
                  (  0.0000000  1.0000000  0.0000000 )
                  (  0.0000000  0.0000000  1.0000000 )


      isym =  2     180 deg rotation - cart. axis [0,0,1]        

 cryst.   s( 2) = (    -1          0          0      )    f =(  0.0000000 )
                  (     0         -1          0      )       (  0.0000000 )
                  (     0          0          1      )       ( -0.5000000 )

 cart.    s( 2) = ( -1.0000000  0.0000000  0.0000000 )    f =(  0.0000000 )
                  (  0.0000000 -1.0000000  0.0000000 )       (  0.0000000 )
                  (  0.0000000  0.0000000  1.0000000 )       ( -0.8152174 )


      isym =  3      60 deg rotation - cryst. axis [0,0,1]       

 cryst.   s( 3) = (     1          1          0      )    f =( -0.0000000 )
                  (    -1          0          0      )       ( -0.0000000 )
                  (     0          0          1      )       ( -0.5000000 )

 cart.    s( 3) = (  0.5000000 -0.8660254  0.0000000 )    f =( -0.0000000 )
                  (  0.8660254  0.5000000  0.0000000 )       ( -0.0000000 )
                  (  0.0000000  0.0000000  1.0000000 )       ( -0.8152174 )


      isym =  4      60 deg rotation - cryst. axis [0,0,-1]      

 cryst.   s( 4) = (     0         -1          0      )    f =(  0.0000000 )
                  (     1          1          0      )       (  0.0000000 )
                  (     0          0          1      )       ( -0.5000000 )

 cart.    s( 4) = (  0.5000000  0.8660254  0.0000000 )    f =( -0.0000000 )
                  ( -0.8660254  0.5000000  0.0000000 )       (  0.0000000 )
                  (  0.0000000  0.0000000  1.0000000 )       ( -0.8152174 )


      isym =  5     120 deg rotation - cryst. axis [0,0,1]       

 cryst.   s( 5) = (     0          1          0      )
                  (    -1         -1          0      )
                  (     0          0          1      )

 cart.    s( 5) = ( -0.5000000 -0.8660254  0.0000000 )
                  (  0.8660254 -0.5000000  0.0000000 )
                  (  0.0000000  0.0000000  1.0000000 )


      isym =  6     120 deg rotation - cryst. axis [0,0,-1]      

 cryst.   s( 6) = (    -1         -1          0      )
                  (     1          0          0      )
                  (     0          0          1      )

 cart.    s( 6) = ( -0.5000000  0.8660254  0.0000000 )
                  ( -0.8660254 -0.5000000  0.0000000 )
                  (  0.0000000  0.0000000  1.0000000 )


      isym =  7     inv. 180 deg rotation - cart. axis [0,1,0]   

 cryst.   s( 7) = (     1          0          0      )    f =( -0.0000000 )
                  (    -1         -1          0      )       (  0.0000000 )
                  (     0          0          1      )       ( -0.5000000 )

 cart.    s( 7) = (  1.0000000  0.0000000  0.0000000 )    f =( -0.0000000 )
                  (  0.0000000 -1.0000000  0.0000000 )       (  0.0000000 )
                  (  0.0000000  0.0000000  1.0000000 )       ( -0.8152174 )


      isym =  8     inv. 180 deg rotation - cart. axis [1,0,0]   

 cryst.   s( 8) = (    -1          0          0      )
                  (     1          1          0      )
                  (     0          0          1      )

 cart.    s( 8) = ( -1.0000000  0.0000000  0.0000000 )
                  (  0.0000000  1.0000000  0.0000000 )
                  (  0.0000000  0.0000000  1.0000000 )


      isym =  9     inv. 180 deg rotation - cryst. axis [1,-1,0] 

 cryst.   s( 9) = (     0          1          0      )    f =(  0.0000000 )
                  (     1          0          0      )       ( -0.0000000 )
                  (     0          0          1      )       ( -0.5000000 )

 cart.    s( 9) = ( -0.5000000  0.8660254  0.0000000 )    f =(  0.0000000 )
                  (  0.8660254  0.5000000  0.0000000 )       ( -0.0000000 )
                  (  0.0000000  0.0000000  1.0000000 )       ( -0.8152174 )


      isym = 10     inv. 180 deg rotation - cryst. axis [2,1,0]  

 cryst.   s(10) = (    -1         -1          0      )    f =(  0.0000000 )
                  (     0          1          0      )       (  0.0000000 )
                  (     0          0          1      )       ( -0.5000000 )

 cart.    s(10) = ( -0.5000000 -0.8660254  0.0000000 )    f =(  0.0000000 )
                  ( -0.8660254  0.5000000  0.0000000 )       (  0.0000000 )
                  (  0.0000000  0.0000000  1.0000000 )       ( -0.8152174 )


      isym = 11     inv. 180 deg rotation - cryst. axis [0,1,0]  

 cryst.   s(11) = (     1          1          0      )
                  (     0         -1          0      )
                  (     0          0          1      )

 cart.    s(11) = (  0.5000000  0.8660254  0.0000000 )
                  (  0.8660254 -0.5000000  0.0000000 )
                  (  0.0000000  0.0000000  1.0000000 )


      isym = 12     inv. 180 deg rotation - cryst. axis [1,1,0]  

 cryst.   s(12) = (     0         -1          0      )
                  (    -1          0          0      )
                  (     0          0          1      )

 cart.    s(12) = (  0.5000000 -0.8660254  0.0000000 )
                  ( -0.8660254 -0.5000000  0.0000000 )
                  (  0.0000000  0.0000000  1.0000000 )


     point group C_6v (6mm) 
     there are  6 classes
     the character table:

       E     2C6   2C3   C2    3s_v  3s_d 
A_1    1.00  1.00  1.00  1.00  1.00  1.00
A_2    1.00  1.00  1.00  1.00 -1.00 -1.00
B_1    1.00 -1.00  1.00 -1.00  1.00 -1.00
B_2    1.00 -1.00  1.00 -1.00 -1.00  1.00
E_1    2.00  1.00 -1.00 -2.00  0.00  0.00
E_2    2.00 -1.00 -1.00  2.00  0.00  0.00

     the symmetry operations in each class and the name of the first element:

     E        1
          identity                                               
     2C6      3    4
           60 deg rotation - cryst. axis [0,0,1]                 
     2C3      5    6
          120 deg rotation - cryst. axis [0,0,1]                 
     C2       2
          180 deg rotation - cart. axis [0,0,1]                  
     3s_v     8   12   11
          inv. 180 deg rotation - cart. axis [1,0,0]             
     3s_d     7    9   10
          inv. 180 deg rotation - cart. axis [0,1,0]             

   Cartesian axes

     site n.     atom                  positions (alat units)
         1        Ga     tau(   1) = (   0.0000000   0.5773503   0.0000000  )
         2        Ga     tau(   2) = (   0.5000000   0.2886751   0.8152174  )
         3        N      tau(   3) = (   0.0000000   0.5773503   0.6136663  )
         4        N      tau(   4) = (   0.5000000   0.2886751   1.4288837  )

   Crystallographic axes

     site n.     atom                  positions (cryst. coord.)
         1        Ga     tau(   1) = (  0.3333333  0.6666667  0.0000000  )
         2        Ga     tau(   2) = (  0.6666667  0.3333333  0.5000000  )
         3        N      tau(   3) = (  0.3333333  0.6666667  0.3763820  )
         4        N      tau(   4) = (  0.6666667  0.3333333  0.8763820  )

     number of k points=  1122 (tetrahedron method)
                       cart. coord. in units 2pi/alat
        k(    1) = (   0.0000000   0.0000000   0.0000000), wk =   0.0000977
        k(    2) = (   0.0000000   0.0000000   0.0306667), wk =   0.0001953
        k(    3) = (   0.0000000   0.0000000   0.0613333), wk =   0.0001953
        k(    4) = (   0.0000000   0.0000000   0.0920000), wk =   0.0001953
        k(    5) = (   0.0000000   0.0000000   0.1226667), wk =   0.0001953
        k(    6) = (   0.0000000   0.0000000   0.1533333), wk =   0.0001953
        k(    7) = (   0.0000000   0.0000000   0.1840000), wk =   0.0001953
        k(    8) = (   0.0000000   0.0000000   0.2146667), wk =   0.0001953
        k(    9) = (   0.0000000   0.0000000   0.2453333), wk =   0.0001953
        k(   10) = (   0.0000000   0.0000000   0.2760000), wk =   0.0001953
        k(   11) = (   0.0000000   0.0000000  -0.3066667), wk =   0.0000977
        k(   12) = (   0.0000000   0.0360844   0.0000000), wk =   0.0005859
        k(   13) = (   0.0000000   0.0360844   0.0306667), wk =   0.0011719
        k(   14) = (   0.0000000   0.0360844   0.0613333), wk =   0.0011719
        k(   15) = (   0.0000000   0.0360844   0.0920000), wk =   0.0011719
        k(   16) = (   0.0000000   0.0360844   0.1226667), wk =   0.0011719
        k(   17) = (   0.0000000   0.0360844   0.1533333), wk =   0.0011719
        k(   18) = (   0.0000000   0.0360844   0.1840000), wk =   0.0011719
        k(   19) = (   0.0000000   0.0360844   0.2146667), wk =   0.0011719
        k(   20) = (   0.0000000   0.0360844   0.2453333), wk =   0.0011719
        k(   21) = (   0.0000000   0.0360844   0.2760000), wk =   0.0011719
        k(   22) = (   0.0000000   0.0360844  -0.3066667), wk =   0.0005859
        k(   23) = (   0.0000000   0.0721688   0.0000000), wk =   0.0005859
        k(   24) = (   0.0000000   0.0721688   0.0306667), wk =   0.0011719
        k(   25) = (   0.0000000   0.0721688   0.0613333), wk =   0.0011719
        k(   26) = (   0.0000000   0.0721688   0.0920000), wk =   0.0011719
        k(   27) = (   0.0000000   0.0721688   0.1226667), wk =   0.0011719
        k(   28) = (   0.0000000   0.0721688   0.1533333), wk =   0.0011719
        k(   29) = (   0.0000000   0.0721688   0.1840000), wk =   0.0011719
        k(   30) = (   0.0000000   0.0721688   0.2146667), wk =   0.0011719
        k(   31) = (   0.0000000   0.0721688   0.2453333), wk =   0.0011719
        k(   32) = (   0.0000000   0.0721688   0.2760000), wk =   0.0011719
        k(   33) = (   0.0000000   0.0721688  -0.3066667), wk =   0.0005859
        k(   34) = (   0.0000000   0.1082532   0.0000000), wk =   0.0005859
        k(   35) = (   0.0000000   0.1082532   0.0306667), wk =   0.0011719
        k(   36) = (   0.0000000   0.1082532   0.0613333), wk =   0.0011719
        k(   37) = (   0.0000000   0.1082532   0.0920000), wk =   0.0011719
        k(   38) = (   0.0000000   0.1082532   0.1226667), wk =   0.0011719
        k(   39) = (   0.0000000   0.1082532   0.1533333), wk =   0.0011719
        k(   40) = (   0.0000000   0.1082532   0.1840000), wk =   0.0011719
        k(   41) = (   0.0000000   0.1082532   0.2146667), wk =   0.0011719
        k(   42) = (   0.0000000   0.1082532   0.2453333), wk =   0.0011719
        k(   43) = (   0.0000000   0.1082532   0.2760000), wk =   0.0011719
        k(   44) = (   0.0000000   0.1082532  -0.3066667), wk =   0.0005859
        k(   45) = (   0.0000000   0.1443376   0.0000000), wk =   0.0005859
        k(   46) = (   0.0000000   0.1443376   0.0306667), wk =   0.0011719
        k(   47) = (   0.0000000   0.1443376   0.0613333), wk =   0.0011719
        k(   48) = (   0.0000000   0.1443376   0.0920000), wk =   0.0011719
        k(   49) = (   0.0000000   0.1443376   0.1226667), wk =   0.0011719
        k(   50) = (   0.0000000   0.1443376   0.1533333), wk =   0.0011719
        k(   51) = (   0.0000000   0.1443376   0.1840000), wk =   0.0011719
        k(   52) = (   0.0000000   0.1443376   0.2146667), wk =   0.0011719
        k(   53) = (   0.0000000   0.1443376   0.2453333), wk =   0.0011719
        k(   54) = (   0.0000000   0.1443376   0.2760000), wk =   0.0011719
        k(   55) = (   0.0000000   0.1443376  -0.3066667), wk =   0.0005859
        k(   56) = (   0.0000000   0.1804220   0.0000000), wk =   0.0005859
        k(   57) = (   0.0000000   0.1804220   0.0306667), wk =   0.0011719
        k(   58) = (   0.0000000   0.1804220   0.0613333), wk =   0.0011719
        k(   59) = (   0.0000000   0.1804220   0.0920000), wk =   0.0011719
        k(   60) = (   0.0000000   0.1804220   0.1226667), wk =   0.0011719
        k(   61) = (   0.0000000   0.1804220   0.1533333), wk =   0.0011719
        k(   62) = (   0.0000000   0.1804220   0.1840000), wk =   0.0011719
        k(   63) = (   0.0000000   0.1804220   0.2146667), wk =   0.0011719
        k(   64) = (   0.0000000   0.1804220   0.2453333), wk =   0.0011719
        k(   65) = (   0.0000000   0.1804220   0.2760000), wk =   0.0011719
        k(   66) = (   0.0000000   0.1804220  -0.3066667), wk =   0.0005859
        k(   67) = (   0.0000000   0.2165064   0.0000000), wk =   0.0005859
        k(   68) = (   0.0000000   0.2165064   0.0306667), wk =   0.0011719
        k(   69) = (   0.0000000   0.2165064   0.0613333), wk =   0.0011719
        k(   70) = (   0.0000000   0.2165064   0.0920000), wk =   0.0011719
        k(   71) = (   0.0000000   0.2165064   0.1226667), wk =   0.0011719
        k(   72) = (   0.0000000   0.2165064   0.1533333), wk =   0.0011719
        k(   73) = (   0.0000000   0.2165064   0.1840000), wk =   0.0011719
        k(   74) = (   0.0000000   0.2165064   0.2146667), wk =   0.0011719
        k(   75) = (   0.0000000   0.2165064   0.2453333), wk =   0.0011719
        k(   76) = (   0.0000000   0.2165064   0.2760000), wk =   0.0011719
        k(   77) = (   0.0000000   0.2165064  -0.3066667), wk =   0.0005859
        k(   78) = (   0.0000000   0.2525907   0.0000000), wk =   0.0005859
        k(   79) = (   0.0000000   0.2525907   0.0306667), wk =   0.0011719
        k(   80) = (   0.0000000   0.2525907   0.0613333), wk =   0.0011719
        k(   81) = (   0.0000000   0.2525907   0.0920000), wk =   0.0011719
        k(   82) = (   0.0000000   0.2525907   0.1226667), wk =   0.0011719
        k(   83) = (   0.0000000   0.2525907   0.1533333), wk =   0.0011719
        k(   84) = (   0.0000000   0.2525907   0.1840000), wk =   0.0011719
        k(   85) = (   0.0000000   0.2525907   0.2146667), wk =   0.0011719
        k(   86) = (   0.0000000   0.2525907   0.2453333), wk =   0.0011719
        k(   87) = (   0.0000000   0.2525907   0.2760000), wk =   0.0011719
        k(   88) = (   0.0000000   0.2525907  -0.3066667), wk =   0.0005859
        k(   89) = (   0.0000000   0.2886751   0.0000000), wk =   0.0005859
        k(   90) = (   0.0000000   0.2886751   0.0306667), wk =   0.0011719
        k(   91) = (   0.0000000   0.2886751   0.0613333), wk =   0.0011719
        k(   92) = (   0.0000000   0.2886751   0.0920000), wk =   0.0011719
        k(   93) = (   0.0000000   0.2886751   0.1226667), wk =   0.0011719
        k(   94) = (   0.0000000   0.2886751   0.1533333), wk =   0.0011719
        k(   95) = (   0.0000000   0.2886751   0.1840000), wk =   0.0011719
        k(   96) = (   0.0000000   0.2886751   0.2146667), wk =   0.0011719
        k(   97) = (   0.0000000   0.2886751   0.2453333), wk =   0.0011719
        k(   98) = (   0.0000000   0.2886751   0.2760000), wk =   0.0011719
        k(   99) = (   0.0000000   0.2886751  -0.3066667), wk =   0.0005859
        k(  100) = (   0.0000000   0.3247595   0.0000000), wk =   0.0005859
        k(  101) = (   0.0000000   0.3247595   0.0306667), wk =   0.0011719
        k(  102) = (   0.0000000   0.3247595   0.0613333), wk =   0.0011719
        k(  103) = (   0.0000000   0.3247595   0.0920000), wk =   0.0011719
        k(  104) = (   0.0000000   0.3247595   0.1226667), wk =   0.0011719
        k(  105) = (   0.0000000   0.3247595   0.1533333), wk =   0.0011719
        k(  106) = (   0.0000000   0.3247595   0.1840000), wk =   0.0011719
        k(  107) = (   0.0000000   0.3247595   0.2146667), wk =   0.0011719
        k(  108) = (   0.0000000   0.3247595   0.2453333), wk =   0.0011719
        k(  109) = (   0.0000000   0.3247595   0.2760000), wk =   0.0011719
        k(  110) = (   0.0000000   0.3247595  -0.3066667), wk =   0.0005859
        k(  111) = (   0.0000000   0.3608439   0.0000000), wk =   0.0005859
        k(  112) = (   0.0000000   0.3608439   0.0306667), wk =   0.0011719
        k(  113) = (   0.0000000   0.3608439   0.0613333), wk =   0.0011719
        k(  114) = (   0.0000000   0.3608439   0.0920000), wk =   0.0011719
        k(  115) = (   0.0000000   0.3608439   0.1226667), wk =   0.0011719
        k(  116) = (   0.0000000   0.3608439   0.1533333), wk =   0.0011719
        k(  117) = (   0.0000000   0.3608439   0.1840000), wk =   0.0011719
        k(  118) = (   0.0000000   0.3608439   0.2146667), wk =   0.0011719
        k(  119) = (   0.0000000   0.3608439   0.2453333), wk =   0.0011719
        k(  120) = (   0.0000000   0.3608439   0.2760000), wk =   0.0011719
        k(  121) = (   0.0000000   0.3608439  -0.3066667), wk =   0.0005859
        k(  122) = (   0.0000000   0.3969283   0.0000000), wk =   0.0005859
        k(  123) = (   0.0000000   0.3969283   0.0306667), wk =   0.0011719
        k(  124) = (   0.0000000   0.3969283   0.0613333), wk =   0.0011719
        k(  125) = (   0.0000000   0.3969283   0.0920000), wk =   0.0011719
        k(  126) = (   0.0000000   0.3969283   0.1226667), wk =   0.0011719
        k(  127) = (   0.0000000   0.3969283   0.1533333), wk =   0.0011719
        k(  128) = (   0.0000000   0.3969283   0.1840000), wk =   0.0011719
        k(  129) = (   0.0000000   0.3969283   0.2146667), wk =   0.0011719
        k(  130) = (   0.0000000   0.3969283   0.2453333), wk =   0.0011719
        k(  131) = (   0.0000000   0.3969283   0.2760000), wk =   0.0011719
        k(  132) = (   0.0000000   0.3969283  -0.3066667), wk =   0.0005859
        k(  133) = (   0.0000000   0.4330127   0.0000000), wk =   0.0005859
        k(  134) = (   0.0000000   0.4330127   0.0306667), wk =   0.0011719
        k(  135) = (   0.0000000   0.4330127   0.0613333), wk =   0.0011719
        k(  136) = (   0.0000000   0.4330127   0.0920000), wk =   0.0011719
        k(  137) = (   0.0000000   0.4330127   0.1226667), wk =   0.0011719
        k(  138) = (   0.0000000   0.4330127   0.1533333), wk =   0.0011719
        k(  139) = (   0.0000000   0.4330127   0.1840000), wk =   0.0011719
        k(  140) = (   0.0000000   0.4330127   0.2146667), wk =   0.0011719
        k(  141) = (   0.0000000   0.4330127   0.2453333), wk =   0.0011719
        k(  142) = (   0.0000000   0.4330127   0.2760000), wk =   0.0011719
        k(  143) = (   0.0000000   0.4330127  -0.3066667), wk =   0.0005859
        k(  144) = (   0.0000000   0.4690971   0.0000000), wk =   0.0005859
        k(  145) = (   0.0000000   0.4690971   0.0306667), wk =   0.0011719
        k(  146) = (   0.0000000   0.4690971   0.0613333), wk =   0.0011719
        k(  147) = (   0.0000000   0.4690971   0.0920000), wk =   0.0011719
        k(  148) = (   0.0000000   0.4690971   0.1226667), wk =   0.0011719
        k(  149) = (   0.0000000   0.4690971   0.1533333), wk =   0.0011719
        k(  150) = (   0.0000000   0.4690971   0.1840000), wk =   0.0011719
        k(  151) = (   0.0000000   0.4690971   0.2146667), wk =   0.0011719
        k(  152) = (   0.0000000   0.4690971   0.2453333), wk =   0.0011719
        k(  153) = (   0.0000000   0.4690971   0.2760000), wk =   0.0011719
        k(  154) = (   0.0000000   0.4690971  -0.3066667), wk =   0.0005859
        k(  155) = (   0.0000000   0.5051815   0.0000000), wk =   0.0005859
        k(  156) = (   0.0000000   0.5051815   0.0306667), wk =   0.0011719
        k(  157) = (   0.0000000   0.5051815   0.0613333), wk =   0.0011719
        k(  158) = (   0.0000000   0.5051815   0.0920000), wk =   0.0011719
        k(  159) = (   0.0000000   0.5051815   0.1226667), wk =   0.0011719
        k(  160) = (   0.0000000   0.5051815   0.1533333), wk =   0.0011719
        k(  161) = (   0.0000000   0.5051815   0.1840000), wk =   0.0011719
        k(  162) = (   0.0000000   0.5051815   0.2146667), wk =   0.0011719
        k(  163) = (   0.0000000   0.5051815   0.2453333), wk =   0.0011719
        k(  164) = (   0.0000000   0.5051815   0.2760000), wk =   0.0011719
        k(  165) = (   0.0000000   0.5051815  -0.3066667), wk =   0.0005859
        k(  166) = (   0.0000000   0.5412659   0.0000000), wk =   0.0005859
        k(  167) = (   0.0000000   0.5412659   0.0306667), wk =   0.0011719
        k(  168) = (   0.0000000   0.5412659   0.0613333), wk =   0.0011719
        k(  169) = (   0.0000000   0.5412659   0.0920000), wk =   0.0011719
        k(  170) = (   0.0000000   0.5412659   0.1226667), wk =   0.0011719
        k(  171) = (   0.0000000   0.5412659   0.1533333), wk =   0.0011719
        k(  172) = (   0.0000000   0.5412659   0.1840000), wk =   0.0011719
        k(  173) = (   0.0000000   0.5412659   0.2146667), wk =   0.0011719
        k(  174) = (   0.0000000   0.5412659   0.2453333), wk =   0.0011719
        k(  175) = (   0.0000000   0.5412659   0.2760000), wk =   0.0011719
        k(  176) = (   0.0000000   0.5412659  -0.3066667), wk =   0.0005859
        k(  177) = (   0.0000000  -0.5773503   0.0000000), wk =   0.0002930
        k(  178) = (   0.0000000  -0.5773503   0.0306667), wk =   0.0005859
        k(  179) = (   0.0000000  -0.5773503   0.0613333), wk =   0.0005859
        k(  180) = (   0.0000000  -0.5773503   0.0920000), wk =   0.0005859
        k(  181) = (   0.0000000  -0.5773503   0.1226667), wk =   0.0005859
        k(  182) = (   0.0000000  -0.5773503   0.1533333), wk =   0.0005859
        k(  183) = (   0.0000000  -0.5773503   0.1840000), wk =   0.0005859
        k(  184) = (   0.0000000  -0.5773503   0.2146667), wk =   0.0005859
        k(  185) = (   0.0000000  -0.5773503   0.2453333), wk =   0.0005859
        k(  186) = (   0.0000000  -0.5773503   0.2760000), wk =   0.0005859
        k(  187) = (   0.0000000  -0.5773503  -0.3066667), wk =   0.0002930
        k(  188) = (   0.0312500   0.0541266   0.0000000), wk =   0.0005859
        k(  189) = (   0.0312500   0.0541266   0.0306667), wk =   0.0011719
        k(  190) = (   0.0312500   0.0541266   0.0613333), wk =   0.0011719
        k(  191) = (   0.0312500   0.0541266   0.0920000), wk =   0.0011719
        k(  192) = (   0.0312500   0.0541266   0.1226667), wk =   0.0011719
        k(  193) = (   0.0312500   0.0541266   0.1533333), wk =   0.0011719
        k(  194) = (   0.0312500   0.0541266   0.1840000), wk =   0.0011719
        k(  195) = (   0.0312500   0.0541266   0.2146667), wk =   0.0011719
        k(  196) = (   0.0312500   0.0541266   0.2453333), wk =   0.0011719
        k(  197) = (   0.0312500   0.0541266   0.2760000), wk =   0.0011719
        k(  198) = (   0.0312500   0.0541266  -0.3066667), wk =   0.0005859
        k(  199) = (   0.0312500   0.0902110   0.0000000), wk =   0.0011719
        k(  200) = (   0.0312500   0.0902110   0.0306667), wk =   0.0023437
        k(  201) = (   0.0312500   0.0902110   0.0613333), wk =   0.0023437
        k(  202) = (   0.0312500   0.0902110   0.0920000), wk =   0.0023437
        k(  203) = (   0.0312500   0.0902110   0.1226667), wk =   0.0023437
        k(  204) = (   0.0312500   0.0902110   0.1533333), wk =   0.0023437
        k(  205) = (   0.0312500   0.0902110   0.1840000), wk =   0.0023437
        k(  206) = (   0.0312500   0.0902110   0.2146667), wk =   0.0023437
        k(  207) = (   0.0312500   0.0902110   0.2453333), wk =   0.0023437
        k(  208) = (   0.0312500   0.0902110   0.2760000), wk =   0.0023437
        k(  209) = (   0.0312500   0.0902110  -0.3066667), wk =   0.0011719
        k(  210) = (   0.0312500   0.1262954   0.0000000), wk =   0.0011719
        k(  211) = (   0.0312500   0.1262954   0.0306667), wk =   0.0023437
        k(  212) = (   0.0312500   0.1262954   0.0613333), wk =   0.0023437
        k(  213) = (   0.0312500   0.1262954   0.0920000), wk =   0.0023437
        k(  214) = (   0.0312500   0.1262954   0.1226667), wk =   0.0023437
        k(  215) = (   0.0312500   0.1262954   0.1533333), wk =   0.0023437
        k(  216) = (   0.0312500   0.1262954   0.1840000), wk =   0.0023437
        k(  217) = (   0.0312500   0.1262954   0.2146667), wk =   0.0023437
        k(  218) = (   0.0312500   0.1262954   0.2453333), wk =   0.0023437
        k(  219) = (   0.0312500   0.1262954   0.2760000), wk =   0.0023437
        k(  220) = (   0.0312500   0.1262954  -0.3066667), wk =   0.0011719
        k(  221) = (   0.0312500   0.1623798   0.0000000), wk =   0.0011719
        k(  222) = (   0.0312500   0.1623798   0.0306667), wk =   0.0023437
        k(  223) = (   0.0312500   0.1623798   0.0613333), wk =   0.0023437
        k(  224) = (   0.0312500   0.1623798   0.0920000), wk =   0.0023437
        k(  225) = (   0.0312500   0.1623798   0.1226667), wk =   0.0023437
        k(  226) = (   0.0312500   0.1623798   0.1533333), wk =   0.0023437
        k(  227) = (   0.0312500   0.1623798   0.1840000), wk =   0.0023437
        k(  228) = (   0.0312500   0.1623798   0.2146667), wk =   0.0023437
        k(  229) = (   0.0312500   0.1623798   0.2453333), wk =   0.0023437
        k(  230) = (   0.0312500   0.1623798   0.2760000), wk =   0.0023437
        k(  231) = (   0.0312500   0.1623798  -0.3066667), wk =   0.0011719
        k(  232) = (   0.0312500   0.1984642   0.0000000), wk =   0.0011719
        k(  233) = (   0.0312500   0.1984642   0.0306667), wk =   0.0023437
        k(  234) = (   0.0312500   0.1984642   0.0613333), wk =   0.0023437
        k(  235) = (   0.0312500   0.1984642   0.0920000), wk =   0.0023437
        k(  236) = (   0.0312500   0.1984642   0.1226667), wk =   0.0023437
        k(  237) = (   0.0312500   0.1984642   0.1533333), wk =   0.0023437
        k(  238) = (   0.0312500   0.1984642   0.1840000), wk =   0.0023437
        k(  239) = (   0.0312500   0.1984642   0.2146667), wk =   0.0023437
        k(  240) = (   0.0312500   0.1984642   0.2453333), wk =   0.0023437
        k(  241) = (   0.0312500   0.1984642   0.2760000), wk =   0.0023437
        k(  242) = (   0.0312500   0.1984642  -0.3066667), wk =   0.0011719
        k(  243) = (   0.0312500   0.2345485   0.0000000), wk =   0.0011719
        k(  244) = (   0.0312500   0.2345485   0.0306667), wk =   0.0023437
        k(  245) = (   0.0312500   0.2345485   0.0613333), wk =   0.0023437
        k(  246) = (   0.0312500   0.2345485   0.0920000), wk =   0.0023437
        k(  247) = (   0.0312500   0.2345485   0.1226667), wk =   0.0023437
        k(  248) = (   0.0312500   0.2345485   0.1533333), wk =   0.0023437
        k(  249) = (   0.0312500   0.2345485   0.1840000), wk =   0.0023437
        k(  250) = (   0.0312500   0.2345485   0.2146667), wk =   0.0023437
        k(  251) = (   0.0312500   0.2345485   0.2453333), wk =   0.0023437
        k(  252) = (   0.0312500   0.2345485   0.2760000), wk =   0.0023437
        k(  253) = (   0.0312500   0.2345485  -0.3066667), wk =   0.0011719
        k(  254) = (   0.0312500   0.2706329   0.0000000), wk =   0.0011719
        k(  255) = (   0.0312500   0.2706329   0.0306667), wk =   0.0023437
        k(  256) = (   0.0312500   0.2706329   0.0613333), wk =   0.0023437
        k(  257) = (   0.0312500   0.2706329   0.0920000), wk =   0.0023437
        k(  258) = (   0.0312500   0.2706329   0.1226667), wk =   0.0023437
        k(  259) = (   0.0312500   0.2706329   0.1533333), wk =   0.0023437
        k(  260) = (   0.0312500   0.2706329   0.1840000), wk =   0.0023437
        k(  261) = (   0.0312500   0.2706329   0.2146667), wk =   0.0023437
        k(  262) = (   0.0312500   0.2706329   0.2453333), wk =   0.0023437
        k(  263) = (   0.0312500   0.2706329   0.2760000), wk =   0.0023437
        k(  264) = (   0.0312500   0.2706329  -0.3066667), wk =   0.0011719
        k(  265) = (   0.0312500   0.3067173   0.0000000), wk =   0.0011719
        k(  266) = (   0.0312500   0.3067173   0.0306667), wk =   0.0023437
        k(  267) = (   0.0312500   0.3067173   0.0613333), wk =   0.0023437
        k(  268) = (   0.0312500   0.3067173   0.0920000), wk =   0.0023437
        k(  269) = (   0.0312500   0.3067173   0.1226667), wk =   0.0023437
        k(  270) = (   0.0312500   0.3067173   0.1533333), wk =   0.0023437
        k(  271) = (   0.0312500   0.3067173   0.1840000), wk =   0.0023437
        k(  272) = (   0.0312500   0.3067173   0.2146667), wk =   0.0023437
        k(  273) = (   0.0312500   0.3067173   0.2453333), wk =   0.0023437
        k(  274) = (   0.0312500   0.3067173   0.2760000), wk =   0.0023437
        k(  275) = (   0.0312500   0.3067173  -0.3066667), wk =   0.0011719
        k(  276) = (   0.0312500   0.3428017   0.0000000), wk =   0.0011719
        k(  277) = (   0.0312500   0.3428017   0.0306667), wk =   0.0023437
        k(  278) = (   0.0312500   0.3428017   0.0613333), wk =   0.0023437
        k(  279) = (   0.0312500   0.3428017   0.0920000), wk =   0.0023437
        k(  280) = (   0.0312500   0.3428017   0.1226667), wk =   0.0023437
        k(  281) = (   0.0312500   0.3428017   0.1533333), wk =   0.0023437
        k(  282) = (   0.0312500   0.3428017   0.1840000), wk =   0.0023437
        k(  283) = (   0.0312500   0.3428017   0.2146667), wk =   0.0023437
        k(  284) = (   0.0312500   0.3428017   0.2453333), wk =   0.0023437
        k(  285) = (   0.0312500   0.3428017   0.2760000), wk =   0.0023437
        k(  286) = (   0.0312500   0.3428017  -0.3066667), wk =   0.0011719
        k(  287) = (   0.0312500   0.3788861   0.0000000), wk =   0.0011719
        k(  288) = (   0.0312500   0.3788861   0.0306667), wk =   0.0023437
        k(  289) = (   0.0312500   0.3788861   0.0613333), wk =   0.0023437
        k(  290) = (   0.0312500   0.3788861   0.0920000), wk =   0.0023437
        k(  291) = (   0.0312500   0.3788861   0.1226667), wk =   0.0023437
        k(  292) = (   0.0312500   0.3788861   0.1533333), wk =   0.0023437
        k(  293) = (   0.0312500   0.3788861   0.1840000), wk =   0.0023437
        k(  294) = (   0.0312500   0.3788861   0.2146667), wk =   0.0023437
        k(  295) = (   0.0312500   0.3788861   0.2453333), wk =   0.0023437
        k(  296) = (   0.0312500   0.3788861   0.2760000), wk =   0.0023437
        k(  297) = (   0.0312500   0.3788861  -0.3066667), wk =   0.0011719
        k(  298) = (   0.0312500   0.4149705   0.0000000), wk =   0.0011719
        k(  299) = (   0.0312500   0.4149705   0.0306667), wk =   0.0023437
        k(  300) = (   0.0312500   0.4149705   0.0613333), wk =   0.0023437
        k(  301) = (   0.0312500   0.4149705   0.0920000), wk =   0.0023437
        k(  302) = (   0.0312500   0.4149705   0.1226667), wk =   0.0023437
        k(  303) = (   0.0312500   0.4149705   0.1533333), wk =   0.0023437
        k(  304) = (   0.0312500   0.4149705   0.1840000), wk =   0.0023437
        k(  305) = (   0.0312500   0.4149705   0.2146667), wk =   0.0023437
        k(  306) = (   0.0312500   0.4149705   0.2453333), wk =   0.0023437
        k(  307) = (   0.0312500   0.4149705   0.2760000), wk =   0.0023437
        k(  308) = (   0.0312500   0.4149705  -0.3066667), wk =   0.0011719
        k(  309) = (   0.0312500   0.4510549   0.0000000), wk =   0.0011719
        k(  310) = (   0.0312500   0.4510549   0.0306667), wk =   0.0023437
        k(  311) = (   0.0312500   0.4510549   0.0613333), wk =   0.0023437
        k(  312) = (   0.0312500   0.4510549   0.0920000), wk =   0.0023437
        k(  313) = (   0.0312500   0.4510549   0.1226667), wk =   0.0023437
        k(  314) = (   0.0312500   0.4510549   0.1533333), wk =   0.0023437
        k(  315) = (   0.0312500   0.4510549   0.1840000), wk =   0.0023437
        k(  316) = (   0.0312500   0.4510549   0.2146667), wk =   0.0023437
        k(  317) = (   0.0312500   0.4510549   0.2453333), wk =   0.0023437
        k(  318) = (   0.0312500   0.4510549   0.2760000), wk =   0.0023437
        k(  319) = (   0.0312500   0.4510549  -0.3066667), wk =   0.0011719
        k(  320) = (   0.0312500   0.4871393   0.0000000), wk =   0.0011719
        k(  321) = (   0.0312500   0.4871393   0.0306667), wk =   0.0023437
        k(  322) = (   0.0312500   0.4871393   0.0613333), wk =   0.0023437
        k(  323) = (   0.0312500   0.4871393   0.0920000), wk =   0.0023437
        k(  324) = (   0.0312500   0.4871393   0.1226667), wk =   0.0023437
        k(  325) = (   0.0312500   0.4871393   0.1533333), wk =   0.0023437
        k(  326) = (   0.0312500   0.4871393   0.1840000), wk =   0.0023437
        k(  327) = (   0.0312500   0.4871393   0.2146667), wk =   0.0023437
        k(  328) = (   0.0312500   0.4871393   0.2453333), wk =   0.0023437
        k(  329) = (   0.0312500   0.4871393   0.2760000), wk =   0.0023437
        k(  330) = (   0.0312500   0.4871393  -0.3066667), wk =   0.0011719
        k(  331) = (   0.0312500   0.5232237   0.0000000), wk =   0.0011719
        k(  332) = (   0.0312500   0.5232237   0.0306667), wk =   0.0023437
        k(  333) = (   0.0312500   0.5232237   0.0613333), wk =   0.0023437
        k(  334) = (   0.0312500   0.5232237   0.0920000), wk =   0.0023437
        k(  335) = (   0.0312500   0.5232237   0.1226667), wk =   0.0023437
        k(  336) = (   0.0312500   0.5232237   0.1533333), wk =   0.0023437
        k(  337) = (   0.0312500   0.5232237   0.1840000), wk =   0.0023437
        k(  338) = (   0.0312500   0.5232237   0.2146667), wk =   0.0023437
        k(  339) = (   0.0312500   0.5232237   0.2453333), wk =   0.0023437
        k(  340) = (   0.0312500   0.5232237   0.2760000), wk =   0.0023437
        k(  341) = (   0.0312500   0.5232237  -0.3066667), wk =   0.0011719
        k(  342) = (   0.0312500   0.5593081   0.0000000), wk =   0.0011719
        k(  343) = (   0.0312500   0.5593081   0.0306667), wk =   0.0023437
        k(  344) = (   0.0312500   0.5593081   0.0613333), wk =   0.0023437
        k(  345) = (   0.0312500   0.5593081   0.0920000), wk =   0.0023437
        k(  346) = (   0.0312500   0.5593081   0.1226667), wk =   0.0023437
        k(  347) = (   0.0312500   0.5593081   0.1533333), wk =   0.0023437
        k(  348) = (   0.0312500   0.5593081   0.1840000), wk =   0.0023437
        k(  349) = (   0.0312500   0.5593081   0.2146667), wk =   0.0023437
        k(  350) = (   0.0312500   0.5593081   0.2453333), wk =   0.0023437
        k(  351) = (   0.0312500   0.5593081   0.2760000), wk =   0.0023437
        k(  352) = (   0.0312500   0.5593081  -0.3066667), wk =   0.0011719
        k(  353) = (   0.0625000   0.1082532   0.0000000), wk =   0.0005859
        k(  354) = (   0.0625000   0.1082532   0.0306667), wk =   0.0011719
        k(  355) = (   0.0625000   0.1082532   0.0613333), wk =   0.0011719
        k(  356) = (   0.0625000   0.1082532   0.0920000), wk =   0.0011719
        k(  357) = (   0.0625000   0.1082532   0.1226667), wk =   0.0011719
        k(  358) = (   0.0625000   0.1082532   0.1533333), wk =   0.0011719
        k(  359) = (   0.0625000   0.1082532   0.1840000), wk =   0.0011719
        k(  360) = (   0.0625000   0.1082532   0.2146667), wk =   0.0011719
        k(  361) = (   0.0625000   0.1082532   0.2453333), wk =   0.0011719
        k(  362) = (   0.0625000   0.1082532   0.2760000), wk =   0.0011719
        k(  363) = (   0.0625000   0.1082532  -0.3066667), wk =   0.0005859
        k(  364) = (   0.0625000   0.1443376   0.0000000), wk =   0.0011719
        k(  365) = (   0.0625000   0.1443376   0.0306667), wk =   0.0023437
        k(  366) = (   0.0625000   0.1443376   0.0613333), wk =   0.0023437
        k(  367) = (   0.0625000   0.1443376   0.0920000), wk =   0.0023437
        k(  368) = (   0.0625000   0.1443376   0.1226667), wk =   0.0023437
        k(  369) = (   0.0625000   0.1443376   0.1533333), wk =   0.0023437
        k(  370) = (   0.0625000   0.1443376   0.1840000), wk =   0.0023437
        k(  371) = (   0.0625000   0.1443376   0.2146667), wk =   0.0023437
        k(  372) = (   0.0625000   0.1443376   0.2453333), wk =   0.0023437
        k(  373) = (   0.0625000   0.1443376   0.2760000), wk =   0.0023437
        k(  374) = (   0.0625000   0.1443376  -0.3066667), wk =   0.0011719
        k(  375) = (   0.0625000   0.1804220   0.0000000), wk =   0.0011719
        k(  376) = (   0.0625000   0.1804220   0.0306667), wk =   0.0023437
        k(  377) = (   0.0625000   0.1804220   0.0613333), wk =   0.0023437
        k(  378) = (   0.0625000   0.1804220   0.0920000), wk =   0.0023437
        k(  379) = (   0.0625000   0.1804220   0.1226667), wk =   0.0023437
        k(  380) = (   0.0625000   0.1804220   0.1533333), wk =   0.0023437
        k(  381) = (   0.0625000   0.1804220   0.1840000), wk =   0.0023437
        k(  382) = (   0.0625000   0.1804220   0.2146667), wk =   0.0023437
        k(  383) = (   0.0625000   0.1804220   0.2453333), wk =   0.0023437
        k(  384) = (   0.0625000   0.1804220   0.2760000), wk =   0.0023437
        k(  385) = (   0.0625000   0.1804220  -0.3066667), wk =   0.0011719
        k(  386) = (   0.0625000   0.2165064   0.0000000), wk =   0.0011719
        k(  387) = (   0.0625000   0.2165064   0.0306667), wk =   0.0023437
        k(  388) = (   0.0625000   0.2165064   0.0613333), wk =   0.0023437
        k(  389) = (   0.0625000   0.2165064   0.0920000), wk =   0.0023437
        k(  390) = (   0.0625000   0.2165064   0.1226667), wk =   0.0023437
        k(  391) = (   0.0625000   0.2165064   0.1533333), wk =   0.0023437
        k(  392) = (   0.0625000   0.2165064   0.1840000), wk =   0.0023437
        k(  393) = (   0.0625000   0.2165064   0.2146667), wk =   0.0023437
        k(  394) = (   0.0625000   0.2165064   0.2453333), wk =   0.0023437
        k(  395) = (   0.0625000   0.2165064   0.2760000), wk =   0.0023437
        k(  396) = (   0.0625000   0.2165064  -0.3066667), wk =   0.0011719
        k(  397) = (   0.0625000   0.2525907   0.0000000), wk =   0.0011719
        k(  398) = (   0.0625000   0.2525907   0.0306667), wk =   0.0023437
        k(  399) = (   0.0625000   0.2525907   0.0613333), wk =   0.0023437
        k(  400) = (   0.0625000   0.2525907   0.0920000), wk =   0.0023437
        k(  401) = (   0.0625000   0.2525907   0.1226667), wk =   0.0023437
        k(  402) = (   0.0625000   0.2525907   0.1533333), wk =   0.0023437
        k(  403) = (   0.0625000   0.2525907   0.1840000), wk =   0.0023437
        k(  404) = (   0.0625000   0.2525907   0.2146667), wk =   0.0023437
        k(  405) = (   0.0625000   0.2525907   0.2453333), wk =   0.0023437
        k(  406) = (   0.0625000   0.2525907   0.2760000), wk =   0.0023437
        k(  407) = (   0.0625000   0.2525907  -0.3066667), wk =   0.0011719
        k(  408) = (   0.0625000   0.2886751   0.0000000), wk =   0.0011719
        k(  409) = (   0.0625000   0.2886751   0.0306667), wk =   0.0023437
        k(  410) = (   0.0625000   0.2886751   0.0613333), wk =   0.0023437
        k(  411) = (   0.0625000   0.2886751   0.0920000), wk =   0.0023437
        k(  412) = (   0.0625000   0.2886751   0.1226667), wk =   0.0023437
        k(  413) = (   0.0625000   0.2886751   0.1533333), wk =   0.0023437
        k(  414) = (   0.0625000   0.2886751   0.1840000), wk =   0.0023437
        k(  415) = (   0.0625000   0.2886751   0.2146667), wk =   0.0023437
        k(  416) = (   0.0625000   0.2886751   0.2453333), wk =   0.0023437
        k(  417) = (   0.0625000   0.2886751   0.2760000), wk =   0.0023437
        k(  418) = (   0.0625000   0.2886751  -0.3066667), wk =   0.0011719
        k(  419) = (   0.0625000   0.3247595   0.0000000), wk =   0.0011719
        k(  420) = (   0.0625000   0.3247595   0.0306667), wk =   0.0023437
        k(  421) = (   0.0625000   0.3247595   0.0613333), wk =   0.0023437
        k(  422) = (   0.0625000   0.3247595   0.0920000), wk =   0.0023437
        k(  423) = (   0.0625000   0.3247595   0.1226667), wk =   0.0023437
        k(  424) = (   0.0625000   0.3247595   0.1533333), wk =   0.0023437
        k(  425) = (   0.0625000   0.3247595   0.1840000), wk =   0.0023437
        k(  426) = (   0.0625000   0.3247595   0.2146667), wk =   0.0023437
        k(  427) = (   0.0625000   0.3247595   0.2453333), wk =   0.0023437
        k(  428) = (   0.0625000   0.3247595   0.2760000), wk =   0.0023437
        k(  429) = (   0.0625000   0.3247595  -0.3066667), wk =   0.0011719
        k(  430) = (   0.0625000   0.3608439   0.0000000), wk =   0.0011719
        k(  431) = (   0.0625000   0.3608439   0.0306667), wk =   0.0023437
        k(  432) = (   0.0625000   0.3608439   0.0613333), wk =   0.0023437
        k(  433) = (   0.0625000   0.3608439   0.0920000), wk =   0.0023437
        k(  434) = (   0.0625000   0.3608439   0.1226667), wk =   0.0023437
        k(  435) = (   0.0625000   0.3608439   0.1533333), wk =   0.0023437
        k(  436) = (   0.0625000   0.3608439   0.1840000), wk =   0.0023437
        k(  437) = (   0.0625000   0.3608439   0.2146667), wk =   0.0023437
        k(  438) = (   0.0625000   0.3608439   0.2453333), wk =   0.0023437
        k(  439) = (   0.0625000   0.3608439   0.2760000), wk =   0.0023437
        k(  440) = (   0.0625000   0.3608439  -0.3066667), wk =   0.0011719
        k(  441) = (   0.0625000   0.3969283   0.0000000), wk =   0.0011719
        k(  442) = (   0.0625000   0.3969283   0.0306667), wk =   0.0023437
        k(  443) = (   0.0625000   0.3969283   0.0613333), wk =   0.0023437
        k(  444) = (   0.0625000   0.3969283   0.0920000), wk =   0.0023437
        k(  445) = (   0.0625000   0.3969283   0.1226667), wk =   0.0023437
        k(  446) = (   0.0625000   0.3969283   0.1533333), wk =   0.0023437
        k(  447) = (   0.0625000   0.3969283   0.1840000), wk =   0.0023437
        k(  448) = (   0.0625000   0.3969283   0.2146667), wk =   0.0023437
        k(  449) = (   0.0625000   0.3969283   0.2453333), wk =   0.0023437
        k(  450) = (   0.0625000   0.3969283   0.2760000), wk =   0.0023437
        k(  451) = (   0.0625000   0.3969283  -0.3066667), wk =   0.0011719
        k(  452) = (   0.0625000   0.4330127   0.0000000), wk =   0.0011719
        k(  453) = (   0.0625000   0.4330127   0.0306667), wk =   0.0023437
        k(  454) = (   0.0625000   0.4330127   0.0613333), wk =   0.0023437
        k(  455) = (   0.0625000   0.4330127   0.0920000), wk =   0.0023437
        k(  456) = (   0.0625000   0.4330127   0.1226667), wk =   0.0023437
        k(  457) = (   0.0625000   0.4330127   0.1533333), wk =   0.0023437
        k(  458) = (   0.0625000   0.4330127   0.1840000), wk =   0.0023437
        k(  459) = (   0.0625000   0.4330127   0.2146667), wk =   0.0023437
        k(  460) = (   0.0625000   0.4330127   0.2453333), wk =   0.0023437
        k(  461) = (   0.0625000   0.4330127   0.2760000), wk =   0.0023437
        k(  462) = (   0.0625000   0.4330127  -0.3066667), wk =   0.0011719
        k(  463) = (   0.0625000   0.4690971   0.0000000), wk =   0.0011719
        k(  464) = (   0.0625000   0.4690971   0.0306667), wk =   0.0023437
        k(  465) = (   0.0625000   0.4690971   0.0613333), wk =   0.0023437
        k(  466) = (   0.0625000   0.4690971   0.0920000), wk =   0.0023437
        k(  467) = (   0.0625000   0.4690971   0.1226667), wk =   0.0023437
        k(  468) = (   0.0625000   0.4690971   0.1533333), wk =   0.0023437
        k(  469) = (   0.0625000   0.4690971   0.1840000), wk =   0.0023437
        k(  470) = (   0.0625000   0.4690971   0.2146667), wk =   0.0023437
        k(  471) = (   0.0625000   0.4690971   0.2453333), wk =   0.0023437
        k(  472) = (   0.0625000   0.4690971   0.2760000), wk =   0.0023437
        k(  473) = (   0.0625000   0.4690971  -0.3066667), wk =   0.0011719
        k(  474) = (   0.0625000   0.5051815   0.0000000), wk =   0.0011719
        k(  475) = (   0.0625000   0.5051815   0.0306667), wk =   0.0023437
        k(  476) = (   0.0625000   0.5051815   0.0613333), wk =   0.0023437
        k(  477) = (   0.0625000   0.5051815   0.0920000), wk =   0.0023437
        k(  478) = (   0.0625000   0.5051815   0.1226667), wk =   0.0023437
        k(  479) = (   0.0625000   0.5051815   0.1533333), wk =   0.0023437
        k(  480) = (   0.0625000   0.5051815   0.1840000), wk =   0.0023437
        k(  481) = (   0.0625000   0.5051815   0.2146667), wk =   0.0023437
        k(  482) = (   0.0625000   0.5051815   0.2453333), wk =   0.0023437
        k(  483) = (   0.0625000   0.5051815   0.2760000), wk =   0.0023437
        k(  484) = (   0.0625000   0.5051815  -0.3066667), wk =   0.0011719
        k(  485) = (   0.0625000   0.5412659   0.0000000), wk =   0.0011719
        k(  486) = (   0.0625000   0.5412659   0.0306667), wk =   0.0023437
        k(  487) = (   0.0625000   0.5412659   0.0613333), wk =   0.0023437
        k(  488) = (   0.0625000   0.5412659   0.0920000), wk =   0.0023437
        k(  489) = (   0.0625000   0.5412659   0.1226667), wk =   0.0023437
        k(  490) = (   0.0625000   0.5412659   0.1533333), wk =   0.0023437
        k(  491) = (   0.0625000   0.5412659   0.1840000), wk =   0.0023437
        k(  492) = (   0.0625000   0.5412659   0.2146667), wk =   0.0023437
        k(  493) = (   0.0625000   0.5412659   0.2453333), wk =   0.0023437
        k(  494) = (   0.0625000   0.5412659   0.2760000), wk =   0.0023437
        k(  495) = (   0.0625000   0.5412659  -0.3066667), wk =   0.0011719
        k(  496) = (   0.0625000   0.5773503   0.0000000), wk =   0.0005859
        k(  497) = (   0.0625000   0.5773503   0.0306667), wk =   0.0011719
        k(  498) = (   0.0625000   0.5773503   0.0613333), wk =   0.0011719
        k(  499) = (   0.0625000   0.5773503   0.0920000), wk =   0.0011719
        k(  500) = (   0.0625000   0.5773503   0.1226667), wk =   0.0011719
        k(  501) = (   0.0625000   0.5773503   0.1533333), wk =   0.0011719
        k(  502) = (   0.0625000   0.5773503   0.1840000), wk =   0.0011719
        k(  503) = (   0.0625000   0.5773503   0.2146667), wk =   0.0011719
        k(  504) = (   0.0625000   0.5773503   0.2453333), wk =   0.0011719
        k(  505) = (   0.0625000   0.5773503   0.2760000), wk =   0.0011719
        k(  506) = (   0.0625000   0.5773503  -0.3066667), wk =   0.0005859
        k(  507) = (   0.0937500   0.1623798   0.0000000), wk =   0.0005859
        k(  508) = (   0.0937500   0.1623798   0.0306667), wk =   0.0011719
        k(  509) = (   0.0937500   0.1623798   0.0613333), wk =   0.0011719
        k(  510) = (   0.0937500   0.1623798   0.0920000), wk =   0.0011719
        k(  511) = (   0.0937500   0.1623798   0.1226667), wk =   0.0011719
        k(  512) = (   0.0937500   0.1623798   0.1533333), wk =   0.0011719
        k(  513) = (   0.0937500   0.1623798   0.1840000), wk =   0.0011719
        k(  514) = (   0.0937500   0.1623798   0.2146667), wk =   0.0011719
        k(  515) = (   0.0937500   0.1623798   0.2453333), wk =   0.0011719
        k(  516) = (   0.0937500   0.1623798   0.2760000), wk =   0.0011719
        k(  517) = (   0.0937500   0.1623798  -0.3066667), wk =   0.0005859
        k(  518) = (   0.0937500   0.1984642   0.0000000), wk =   0.0011719
        k(  519) = (   0.0937500   0.1984642   0.0306667), wk =   0.0023437
        k(  520) = (   0.0937500   0.1984642   0.0613333), wk =   0.0023437
        k(  521) = (   0.0937500   0.1984642   0.0920000), wk =   0.0023437
        k(  522) = (   0.0937500   0.1984642   0.1226667), wk =   0.0023437
        k(  523) = (   0.0937500   0.1984642   0.1533333), wk =   0.0023437
        k(  524) = (   0.0937500   0.1984642   0.1840000), wk =   0.0023437
        k(  525) = (   0.0937500   0.1984642   0.2146667), wk =   0.0023437
        k(  526) = (   0.0937500   0.1984642   0.2453333), wk =   0.0023437
        k(  527) = (   0.0937500   0.1984642   0.2760000), wk =   0.0023437
        k(  528) = (   0.0937500   0.1984642  -0.3066667), wk =   0.0011719
        k(  529) = (   0.0937500   0.2345485   0.0000000), wk =   0.0011719
        k(  530) = (   0.0937500   0.2345485   0.0306667), wk =   0.0023437
        k(  531) = (   0.0937500   0.2345485   0.0613333), wk =   0.0023437
        k(  532) = (   0.0937500   0.2345485   0.0920000), wk =   0.0023437
        k(  533) = (   0.0937500   0.2345485   0.1226667), wk =   0.0023437
        k(  534) = (   0.0937500   0.2345485   0.1533333), wk =   0.0023437
        k(  535) = (   0.0937500   0.2345485   0.1840000), wk =   0.0023437
        k(  536) = (   0.0937500   0.2345485   0.2146667), wk =   0.0023437
        k(  537) = (   0.0937500   0.2345485   0.2453333), wk =   0.0023437
        k(  538) = (   0.0937500   0.2345485   0.2760000), wk =   0.0023437
        k(  539) = (   0.0937500   0.2345485  -0.3066667), wk =   0.0011719
        k(  540) = (   0.0937500   0.2706329   0.0000000), wk =   0.0011719
        k(  541) = (   0.0937500   0.2706329   0.0306667), wk =   0.0023437
        k(  542) = (   0.0937500   0.2706329   0.0613333), wk =   0.0023437
        k(  543) = (   0.0937500   0.2706329   0.0920000), wk =   0.0023437
        k(  544) = (   0.0937500   0.2706329   0.1226667), wk =   0.0023437
        k(  545) = (   0.0937500   0.2706329   0.1533333), wk =   0.0023437
        k(  546) = (   0.0937500   0.2706329   0.1840000), wk =   0.0023437
        k(  547) = (   0.0937500   0.2706329   0.2146667), wk =   0.0023437
        k(  548) = (   0.0937500   0.2706329   0.2453333), wk =   0.0023437
        k(  549) = (   0.0937500   0.2706329   0.2760000), wk =   0.0023437
        k(  550) = (   0.0937500   0.2706329  -0.3066667), wk =   0.0011719
        k(  551) = (   0.0937500   0.3067173   0.0000000), wk =   0.0011719
        k(  552) = (   0.0937500   0.3067173   0.0306667), wk =   0.0023437
        k(  553) = (   0.0937500   0.3067173   0.0613333), wk =   0.0023437
        k(  554) = (   0.0937500   0.3067173   0.0920000), wk =   0.0023437
        k(  555) = (   0.0937500   0.3067173   0.1226667), wk =   0.0023437
        k(  556) = (   0.0937500   0.3067173   0.1533333), wk =   0.0023437
        k(  557) = (   0.0937500   0.3067173   0.1840000), wk =   0.0023437
        k(  558) = (   0.0937500   0.3067173   0.2146667), wk =   0.0023437
        k(  559) = (   0.0937500   0.3067173   0.2453333), wk =   0.0023437
        k(  560) = (   0.0937500   0.3067173   0.2760000), wk =   0.0023437
        k(  561) = (   0.0937500   0.3067173  -0.3066667), wk =   0.0011719
        k(  562) = (   0.0937500   0.3428017   0.0000000), wk =   0.0011719
        k(  563) = (   0.0937500   0.3428017   0.0306667), wk =   0.0023437
        k(  564) = (   0.0937500   0.3428017   0.0613333), wk =   0.0023437
        k(  565) = (   0.0937500   0.3428017   0.0920000), wk =   0.0023437
        k(  566) = (   0.0937500   0.3428017   0.1226667), wk =   0.0023437
        k(  567) = (   0.0937500   0.3428017   0.1533333), wk =   0.0023437
        k(  568) = (   0.0937500   0.3428017   0.1840000), wk =   0.0023437
        k(  569) = (   0.0937500   0.3428017   0.2146667), wk =   0.0023437
        k(  570) = (   0.0937500   0.3428017   0.2453333), wk =   0.0023437
        k(  571) = (   0.0937500   0.3428017   0.2760000), wk =   0.0023437
        k(  572) = (   0.0937500   0.3428017  -0.3066667), wk =   0.0011719
        k(  573) = (   0.0937500   0.3788861   0.0000000), wk =   0.0011719
        k(  574) = (   0.0937500   0.3788861   0.0306667), wk =   0.0023437
        k(  575) = (   0.0937500   0.3788861   0.0613333), wk =   0.0023437
        k(  576) = (   0.0937500   0.3788861   0.0920000), wk =   0.0023437
        k(  577) = (   0.0937500   0.3788861   0.1226667), wk =   0.0023437
        k(  578) = (   0.0937500   0.3788861   0.1533333), wk =   0.0023437
        k(  579) = (   0.0937500   0.3788861   0.1840000), wk =   0.0023437
        k(  580) = (   0.0937500   0.3788861   0.2146667), wk =   0.0023437
        k(  581) = (   0.0937500   0.3788861   0.2453333), wk =   0.0023437
        k(  582) = (   0.0937500   0.3788861   0.2760000), wk =   0.0023437
        k(  583) = (   0.0937500   0.3788861  -0.3066667), wk =   0.0011719
        k(  584) = (   0.0937500   0.4149705   0.0000000), wk =   0.0011719
        k(  585) = (   0.0937500   0.4149705   0.0306667), wk =   0.0023437
        k(  586) = (   0.0937500   0.4149705   0.0613333), wk =   0.0023437
        k(  587) = (   0.0937500   0.4149705   0.0920000), wk =   0.0023437
        k(  588) = (   0.0937500   0.4149705   0.1226667), wk =   0.0023437
        k(  589) = (   0.0937500   0.4149705   0.1533333), wk =   0.0023437
        k(  590) = (   0.0937500   0.4149705   0.1840000), wk =   0.0023437
        k(  591) = (   0.0937500   0.4149705   0.2146667), wk =   0.0023437
        k(  592) = (   0.0937500   0.4149705   0.2453333), wk =   0.0023437
        k(  593) = (   0.0937500   0.4149705   0.2760000), wk =   0.0023437
        k(  594) = (   0.0937500   0.4149705  -0.3066667), wk =   0.0011719
        k(  595) = (   0.0937500   0.4510549   0.0000000), wk =   0.0011719
        k(  596) = (   0.0937500   0.4510549   0.0306667), wk =   0.0023437
        k(  597) = (   0.0937500   0.4510549   0.0613333), wk =   0.0023437
        k(  598) = (   0.0937500   0.4510549   0.0920000), wk =   0.0023437
        k(  599) = (   0.0937500   0.4510549   0.1226667), wk =   0.0023437
        k(  600) = (   0.0937500   0.4510549   0.1533333), wk =   0.0023437
        k(  601) = (   0.0937500   0.4510549   0.1840000), wk =   0.0023437
        k(  602) = (   0.0937500   0.4510549   0.2146667), wk =   0.0023437
        k(  603) = (   0.0937500   0.4510549   0.2453333), wk =   0.0023437
        k(  604) = (   0.0937500   0.4510549   0.2760000), wk =   0.0023437
        k(  605) = (   0.0937500   0.4510549  -0.3066667), wk =   0.0011719
        k(  606) = (   0.0937500   0.4871393   0.0000000), wk =   0.0011719
        k(  607) = (   0.0937500   0.4871393   0.0306667), wk =   0.0023437
        k(  608) = (   0.0937500   0.4871393   0.0613333), wk =   0.0023437
        k(  609) = (   0.0937500   0.4871393   0.0920000), wk =   0.0023437
        k(  610) = (   0.0937500   0.4871393   0.1226667), wk =   0.0023437
        k(  611) = (   0.0937500   0.4871393   0.1533333), wk =   0.0023437
        k(  612) = (   0.0937500   0.4871393   0.1840000), wk =   0.0023437
        k(  613) = (   0.0937500   0.4871393   0.2146667), wk =   0.0023437
        k(  614) = (   0.0937500   0.4871393   0.2453333), wk =   0.0023437
        k(  615) = (   0.0937500   0.4871393   0.2760000), wk =   0.0023437
        k(  616) = (   0.0937500   0.4871393  -0.3066667), wk =   0.0011719
        k(  617) = (   0.0937500   0.5232237   0.0000000), wk =   0.0011719
        k(  618) = (   0.0937500   0.5232237   0.0306667), wk =   0.0023437
        k(  619) = (   0.0937500   0.5232237   0.0613333), wk =   0.0023437
        k(  620) = (   0.0937500   0.5232237   0.0920000), wk =   0.0023437
        k(  621) = (   0.0937500   0.5232237   0.1226667), wk =   0.0023437
        k(  622) = (   0.0937500   0.5232237   0.1533333), wk =   0.0023437
        k(  623) = (   0.0937500   0.5232237   0.1840000), wk =   0.0023437
        k(  624) = (   0.0937500   0.5232237   0.2146667), wk =   0.0023437
        k(  625) = (   0.0937500   0.5232237   0.2453333), wk =   0.0023437
        k(  626) = (   0.0937500   0.5232237   0.2760000), wk =   0.0023437
        k(  627) = (   0.0937500   0.5232237  -0.3066667), wk =   0.0011719
        k(  628) = (   0.0937500   0.5593081   0.0000000), wk =   0.0011719
        k(  629) = (   0.0937500   0.5593081   0.0306667), wk =   0.0023437
        k(  630) = (   0.0937500   0.5593081   0.0613333), wk =   0.0023437
        k(  631) = (   0.0937500   0.5593081   0.0920000), wk =   0.0023437
        k(  632) = (   0.0937500   0.5593081   0.1226667), wk =   0.0023437
        k(  633) = (   0.0937500   0.5593081   0.1533333), wk =   0.0023437
        k(  634) = (   0.0937500   0.5593081   0.1840000), wk =   0.0023437
        k(  635) = (   0.0937500   0.5593081   0.2146667), wk =   0.0023437
        k(  636) = (   0.0937500   0.5593081   0.2453333), wk =   0.0023437
        k(  637) = (   0.0937500   0.5593081   0.2760000), wk =   0.0023437
        k(  638) = (   0.0937500   0.5593081  -0.3066667), wk =   0.0011719
        k(  639) = (   0.1250000   0.2165064   0.0000000), wk =   0.0005859
        k(  640) = (   0.1250000   0.2165064   0.0306667), wk =   0.0011719
        k(  641) = (   0.1250000   0.2165064   0.0613333), wk =   0.0011719
        k(  642) = (   0.1250000   0.2165064   0.0920000), wk =   0.0011719
        k(  643) = (   0.1250000   0.2165064   0.1226667), wk =   0.0011719
        k(  644) = (   0.1250000   0.2165064   0.1533333), wk =   0.0011719
        k(  645) = (   0.1250000   0.2165064   0.1840000), wk =   0.0011719
        k(  646) = (   0.1250000   0.2165064   0.2146667), wk =   0.0011719
        k(  647) = (   0.1250000   0.2165064   0.2453333), wk =   0.0011719
        k(  648) = (   0.1250000   0.2165064   0.2760000), wk =   0.0011719
        k(  649) = (   0.1250000   0.2165064  -0.3066667), wk =   0.0005859
        k(  650) = (   0.1250000   0.2525907   0.0000000), wk =   0.0011719
        k(  651) = (   0.1250000   0.2525907   0.0306667), wk =   0.0023437
        k(  652) = (   0.1250000   0.2525907   0.0613333), wk =   0.0023437
        k(  653) = (   0.1250000   0.2525907   0.0920000), wk =   0.0023437
        k(  654) = (   0.1250000   0.2525907   0.1226667), wk =   0.0023437
        k(  655) = (   0.1250000   0.2525907   0.1533333), wk =   0.0023437
        k(  656) = (   0.1250000   0.2525907   0.1840000), wk =   0.0023437
        k(  657) = (   0.1250000   0.2525907   0.2146667), wk =   0.0023437
        k(  658) = (   0.1250000   0.2525907   0.2453333), wk =   0.0023437
        k(  659) = (   0.1250000   0.2525907   0.2760000), wk =   0.0023437
        k(  660) = (   0.1250000   0.2525907  -0.3066667), wk =   0.0011719
        k(  661) = (   0.1250000   0.2886751   0.0000000), wk =   0.0011719
        k(  662) = (   0.1250000   0.2886751   0.0306667), wk =   0.0023437
        k(  663) = (   0.1250000   0.2886751   0.0613333), wk =   0.0023437
        k(  664) = (   0.1250000   0.2886751   0.0920000), wk =   0.0023437
        k(  665) = (   0.1250000   0.2886751   0.1226667), wk =   0.0023437
        k(  666) = (   0.1250000   0.2886751   0.1533333), wk =   0.0023437
        k(  667) = (   0.1250000   0.2886751   0.1840000), wk =   0.0023437
        k(  668) = (   0.1250000   0.2886751   0.2146667), wk =   0.0023437
        k(  669) = (   0.1250000   0.2886751   0.2453333), wk =   0.0023437
        k(  670) = (   0.1250000   0.2886751   0.2760000), wk =   0.0023437
        k(  671) = (   0.1250000   0.2886751  -0.3066667), wk =   0.0011719
        k(  672) = (   0.1250000   0.3247595   0.0000000), wk =   0.0011719
        k(  673) = (   0.1250000   0.3247595   0.0306667), wk =   0.0023437
        k(  674) = (   0.1250000   0.3247595   0.0613333), wk =   0.0023437
        k(  675) = (   0.1250000   0.3247595   0.0920000), wk =   0.0023437
        k(  676) = (   0.1250000   0.3247595   0.1226667), wk =   0.0023437
        k(  677) = (   0.1250000   0.3247595   0.1533333), wk =   0.0023437
        k(  678) = (   0.1250000   0.3247595   0.1840000), wk =   0.0023437
        k(  679) = (   0.1250000   0.3247595   0.2146667), wk =   0.0023437
        k(  680) = (   0.1250000   0.3247595   0.2453333), wk =   0.0023437
        k(  681) = (   0.1250000   0.3247595   0.2760000), wk =   0.0023437
        k(  682) = (   0.1250000   0.3247595  -0.3066667), wk =   0.0011719
        k(  683) = (   0.1250000   0.3608439   0.0000000), wk =   0.0011719
        k(  684) = (   0.1250000   0.3608439   0.0306667), wk =   0.0023437
        k(  685) = (   0.1250000   0.3608439   0.0613333), wk =   0.0023437
        k(  686) = (   0.1250000   0.3608439   0.0920000), wk =   0.0023437
        k(  687) = (   0.1250000   0.3608439   0.1226667), wk =   0.0023437
        k(  688) = (   0.1250000   0.3608439   0.1533333), wk =   0.0023437
        k(  689) = (   0.1250000   0.3608439   0.1840000), wk =   0.0023437
        k(  690) = (   0.1250000   0.3608439   0.2146667), wk =   0.0023437
        k(  691) = (   0.1250000   0.3608439   0.2453333), wk =   0.0023437
        k(  692) = (   0.1250000   0.3608439   0.2760000), wk =   0.0023437
        k(  693) = (   0.1250000   0.3608439  -0.3066667), wk =   0.0011719
        k(  694) = (   0.1250000   0.3969283   0.0000000), wk =   0.0011719
        k(  695) = (   0.1250000   0.3969283   0.0306667), wk =   0.0023437
        k(  696) = (   0.1250000   0.3969283   0.0613333), wk =   0.0023437
        k(  697) = (   0.1250000   0.3969283   0.0920000), wk =   0.0023437
        k(  698) = (   0.1250000   0.3969283   0.1226667), wk =   0.0023437
        k(  699) = (   0.1250000   0.3969283   0.1533333), wk =   0.0023437
        k(  700) = (   0.1250000   0.3969283   0.1840000), wk =   0.0023437
        k(  701) = (   0.1250000   0.3969283   0.2146667), wk =   0.0023437
        k(  702) = (   0.1250000   0.3969283   0.2453333), wk =   0.0023437
        k(  703) = (   0.1250000   0.3969283   0.2760000), wk =   0.0023437
        k(  704) = (   0.1250000   0.3969283  -0.3066667), wk =   0.0011719
        k(  705) = (   0.1250000   0.4330127   0.0000000), wk =   0.0011719
        k(  706) = (   0.1250000   0.4330127   0.0306667), wk =   0.0023437
        k(  707) = (   0.1250000   0.4330127   0.0613333), wk =   0.0023437
        k(  708) = (   0.1250000   0.4330127   0.0920000), wk =   0.0023437
        k(  709) = (   0.1250000   0.4330127   0.1226667), wk =   0.0023437
        k(  710) = (   0.1250000   0.4330127   0.1533333), wk =   0.0023437
        k(  711) = (   0.1250000   0.4330127   0.1840000), wk =   0.0023437
        k(  712) = (   0.1250000   0.4330127   0.2146667), wk =   0.0023437
        k(  713) = (   0.1250000   0.4330127   0.2453333), wk =   0.0023437
        k(  714) = (   0.1250000   0.4330127   0.2760000), wk =   0.0023437
        k(  715) = (   0.1250000   0.4330127  -0.3066667), wk =   0.0011719
        k(  716) = (   0.1250000   0.4690971   0.0000000), wk =   0.0011719
        k(  717) = (   0.1250000   0.4690971   0.0306667), wk =   0.0023437
        k(  718) = (   0.1250000   0.4690971   0.0613333), wk =   0.0023437
        k(  719) = (   0.1250000   0.4690971   0.0920000), wk =   0.0023437
        k(  720) = (   0.1250000   0.4690971   0.1226667), wk =   0.0023437
        k(  721) = (   0.1250000   0.4690971   0.1533333), wk =   0.0023437
        k(  722) = (   0.1250000   0.4690971   0.1840000), wk =   0.0023437
        k(  723) = (   0.1250000   0.4690971   0.2146667), wk =   0.0023437
        k(  724) = (   0.1250000   0.4690971   0.2453333), wk =   0.0023437
        k(  725) = (   0.1250000   0.4690971   0.2760000), wk =   0.0023437
        k(  726) = (   0.1250000   0.4690971  -0.3066667), wk =   0.0011719
        k(  727) = (   0.1250000   0.5051815   0.0000000), wk =   0.0011719
        k(  728) = (   0.1250000   0.5051815   0.0306667), wk =   0.0023437
        k(  729) = (   0.1250000   0.5051815   0.0613333), wk =   0.0023437
        k(  730) = (   0.1250000   0.5051815   0.0920000), wk =   0.0023437
        k(  731) = (   0.1250000   0.5051815   0.1226667), wk =   0.0023437
        k(  732) = (   0.1250000   0.5051815   0.1533333), wk =   0.0023437
        k(  733) = (   0.1250000   0.5051815   0.1840000), wk =   0.0023437
        k(  734) = (   0.1250000   0.5051815   0.2146667), wk =   0.0023437
        k(  735) = (   0.1250000   0.5051815   0.2453333), wk =   0.0023437
        k(  736) = (   0.1250000   0.5051815   0.2760000), wk =   0.0023437
        k(  737) = (   0.1250000   0.5051815  -0.3066667), wk =   0.0011719
        k(  738) = (   0.1250000   0.5412659   0.0000000), wk =   0.0011719
        k(  739) = (   0.1250000   0.5412659   0.0306667), wk =   0.0023437
        k(  740) = (   0.1250000   0.5412659   0.0613333), wk =   0.0023437
        k(  741) = (   0.1250000   0.5412659   0.0920000), wk =   0.0023437
        k(  742) = (   0.1250000   0.5412659   0.1226667), wk =   0.0023437
        k(  743) = (   0.1250000   0.5412659   0.1533333), wk =   0.0023437
        k(  744) = (   0.1250000   0.5412659   0.1840000), wk =   0.0023437
        k(  745) = (   0.1250000   0.5412659   0.2146667), wk =   0.0023437
        k(  746) = (   0.1250000   0.5412659   0.2453333), wk =   0.0023437
        k(  747) = (   0.1250000   0.5412659   0.2760000), wk =   0.0023437
        k(  748) = (   0.1250000   0.5412659  -0.3066667), wk =   0.0011719
        k(  749) = (   0.1250000   0.5773503   0.0000000), wk =   0.0005859
        k(  750) = (   0.1250000   0.5773503   0.0306667), wk =   0.0011719
        k(  751) = (   0.1250000   0.5773503   0.0613333), wk =   0.0011719
        k(  752) = (   0.1250000   0.5773503   0.0920000), wk =   0.0011719
        k(  753) = (   0.1250000   0.5773503   0.1226667), wk =   0.0011719
        k(  754) = (   0.1250000   0.5773503   0.1533333), wk =   0.0011719
        k(  755) = (   0.1250000   0.5773503   0.1840000), wk =   0.0011719
        k(  756) = (   0.1250000   0.5773503   0.2146667), wk =   0.0011719
        k(  757) = (   0.1250000   0.5773503   0.2453333), wk =   0.0011719
        k(  758) = (   0.1250000   0.5773503   0.2760000), wk =   0.0011719
        k(  759) = (   0.1250000   0.5773503  -0.3066667), wk =   0.0005859
        k(  760) = (   0.1562500   0.2706329   0.0000000), wk =   0.0005859
        k(  761) = (   0.1562500   0.2706329   0.0306667), wk =   0.0011719
        k(  762) = (   0.1562500   0.2706329   0.0613333), wk =   0.0011719
        k(  763) = (   0.1562500   0.2706329   0.0920000), wk =   0.0011719
        k(  764) = (   0.1562500   0.2706329   0.1226667), wk =   0.0011719
        k(  765) = (   0.1562500   0.2706329   0.1533333), wk =   0.0011719
        k(  766) = (   0.1562500   0.2706329   0.1840000), wk =   0.0011719
        k(  767) = (   0.1562500   0.2706329   0.2146667), wk =   0.0011719
        k(  768) = (   0.1562500   0.2706329   0.2453333), wk =   0.0011719
        k(  769) = (   0.1562500   0.2706329   0.2760000), wk =   0.0011719
        k(  770) = (   0.1562500   0.2706329  -0.3066667), wk =   0.0005859
        k(  771) = (   0.1562500   0.3067173   0.0000000), wk =   0.0011719
        k(  772) = (   0.1562500   0.3067173   0.0306667), wk =   0.0023437
        k(  773) = (   0.1562500   0.3067173   0.0613333), wk =   0.0023437
        k(  774) = (   0.1562500   0.3067173   0.0920000), wk =   0.0023437
        k(  775) = (   0.1562500   0.3067173   0.1226667), wk =   0.0023437
        k(  776) = (   0.1562500   0.3067173   0.1533333), wk =   0.0023437
        k(  777) = (   0.1562500   0.3067173   0.1840000), wk =   0.0023437
        k(  778) = (   0.1562500   0.3067173   0.2146667), wk =   0.0023437
        k(  779) = (   0.1562500   0.3067173   0.2453333), wk =   0.0023437
        k(  780) = (   0.1562500   0.3067173   0.2760000), wk =   0.0023437
        k(  781) = (   0.1562500   0.3067173  -0.3066667), wk =   0.0011719
        k(  782) = (   0.1562500   0.3428017   0.0000000), wk =   0.0011719
        k(  783) = (   0.1562500   0.3428017   0.0306667), wk =   0.0023437
        k(  784) = (   0.1562500   0.3428017   0.0613333), wk =   0.0023437
        k(  785) = (   0.1562500   0.3428017   0.0920000), wk =   0.0023437
        k(  786) = (   0.1562500   0.3428017   0.1226667), wk =   0.0023437
        k(  787) = (   0.1562500   0.3428017   0.1533333), wk =   0.0023437
        k(  788) = (   0.1562500   0.3428017   0.1840000), wk =   0.0023437
        k(  789) = (   0.1562500   0.3428017   0.2146667), wk =   0.0023437
        k(  790) = (   0.1562500   0.3428017   0.2453333), wk =   0.0023437
        k(  791) = (   0.1562500   0.3428017   0.2760000), wk =   0.0023437
        k(  792) = (   0.1562500   0.3428017  -0.3066667), wk =   0.0011719
        k(  793) = (   0.1562500   0.3788861   0.0000000), wk =   0.0011719
        k(  794) = (   0.1562500   0.3788861   0.0306667), wk =   0.0023437
        k(  795) = (   0.1562500   0.3788861   0.0613333), wk =   0.0023437
        k(  796) = (   0.1562500   0.3788861   0.0920000), wk =   0.0023437
        k(  797) = (   0.1562500   0.3788861   0.1226667), wk =   0.0023437
        k(  798) = (   0.1562500   0.3788861   0.1533333), wk =   0.0023437
        k(  799) = (   0.1562500   0.3788861   0.1840000), wk =   0.0023437
        k(  800) = (   0.1562500   0.3788861   0.2146667), wk =   0.0023437
        k(  801) = (   0.1562500   0.3788861   0.2453333), wk =   0.0023437
        k(  802) = (   0.1562500   0.3788861   0.2760000), wk =   0.0023437
        k(  803) = (   0.1562500   0.3788861  -0.3066667), wk =   0.0011719
        k(  804) = (   0.1562500   0.4149705   0.0000000), wk =   0.0011719
        k(  805) = (   0.1562500   0.4149705   0.0306667), wk =   0.0023437
        k(  806) = (   0.1562500   0.4149705   0.0613333), wk =   0.0023437
        k(  807) = (   0.1562500   0.4149705   0.0920000), wk =   0.0023437
        k(  808) = (   0.1562500   0.4149705   0.1226667), wk =   0.0023437
        k(  809) = (   0.1562500   0.4149705   0.1533333), wk =   0.0023437
        k(  810) = (   0.1562500   0.4149705   0.1840000), wk =   0.0023437
        k(  811) = (   0.1562500   0.4149705   0.2146667), wk =   0.0023437
        k(  812) = (   0.1562500   0.4149705   0.2453333), wk =   0.0023437
        k(  813) = (   0.1562500   0.4149705   0.2760000), wk =   0.0023437
        k(  814) = (   0.1562500   0.4149705  -0.3066667), wk =   0.0011719
        k(  815) = (   0.1562500   0.4510549   0.0000000), wk =   0.0011719
        k(  816) = (   0.1562500   0.4510549   0.0306667), wk =   0.0023437
        k(  817) = (   0.1562500   0.4510549   0.0613333), wk =   0.0023437
        k(  818) = (   0.1562500   0.4510549   0.0920000), wk =   0.0023437
        k(  819) = (   0.1562500   0.4510549   0.1226667), wk =   0.0023437
        k(  820) = (   0.1562500   0.4510549   0.1533333), wk =   0.0023437
        k(  821) = (   0.1562500   0.4510549   0.1840000), wk =   0.0023437
        k(  822) = (   0.1562500   0.4510549   0.2146667), wk =   0.0023437
        k(  823) = (   0.1562500   0.4510549   0.2453333), wk =   0.0023437
        k(  824) = (   0.1562500   0.4510549   0.2760000), wk =   0.0023437
        k(  825) = (   0.1562500   0.4510549  -0.3066667), wk =   0.0011719
        k(  826) = (   0.1562500   0.4871393   0.0000000), wk =   0.0011719
        k(  827) = (   0.1562500   0.4871393   0.0306667), wk =   0.0023437
        k(  828) = (   0.1562500   0.4871393   0.0613333), wk =   0.0023437
        k(  829) = (   0.1562500   0.4871393   0.0920000), wk =   0.0023437
        k(  830) = (   0.1562500   0.4871393   0.1226667), wk =   0.0023437
        k(  831) = (   0.1562500   0.4871393   0.1533333), wk =   0.0023437
        k(  832) = (   0.1562500   0.4871393   0.1840000), wk =   0.0023437
        k(  833) = (   0.1562500   0.4871393   0.2146667), wk =   0.0023437
        k(  834) = (   0.1562500   0.4871393   0.2453333), wk =   0.0023437
        k(  835) = (   0.1562500   0.4871393   0.2760000), wk =   0.0023437
        k(  836) = (   0.1562500   0.4871393  -0.3066667), wk =   0.0011719
        k(  837) = (   0.1562500   0.5232237   0.0000000), wk =   0.0011719
        k(  838) = (   0.1562500   0.5232237   0.0306667), wk =   0.0023437
        k(  839) = (   0.1562500   0.5232237   0.0613333), wk =   0.0023437
        k(  840) = (   0.1562500   0.5232237   0.0920000), wk =   0.0023437
        k(  841) = (   0.1562500   0.5232237   0.1226667), wk =   0.0023437
        k(  842) = (   0.1562500   0.5232237   0.1533333), wk =   0.0023437
        k(  843) = (   0.1562500   0.5232237   0.1840000), wk =   0.0023437
        k(  844) = (   0.1562500   0.5232237   0.2146667), wk =   0.0023437
        k(  845) = (   0.1562500   0.5232237   0.2453333), wk =   0.0023437
        k(  846) = (   0.1562500   0.5232237   0.2760000), wk =   0.0023437
        k(  847) = (   0.1562500   0.5232237  -0.3066667), wk =   0.0011719
        k(  848) = (   0.1562500   0.5593081   0.0000000), wk =   0.0011719
        k(  849) = (   0.1562500   0.5593081   0.0306667), wk =   0.0023437
        k(  850) = (   0.1562500   0.5593081   0.0613333), wk =   0.0023437
        k(  851) = (   0.1562500   0.5593081   0.0920000), wk =   0.0023437
        k(  852) = (   0.1562500   0.5593081   0.1226667), wk =   0.0023437
        k(  853) = (   0.1562500   0.5593081   0.1533333), wk =   0.0023437
        k(  854) = (   0.1562500   0.5593081   0.1840000), wk =   0.0023437
        k(  855) = (   0.1562500   0.5593081   0.2146667), wk =   0.0023437
        k(  856) = (   0.1562500   0.5593081   0.2453333), wk =   0.0023437
        k(  857) = (   0.1562500   0.5593081   0.2760000), wk =   0.0023437
        k(  858) = (   0.1562500   0.5593081  -0.3066667), wk =   0.0011719
        k(  859) = (   0.1875000   0.3247595   0.0000000), wk =   0.0005859
        k(  860) = (   0.1875000   0.3247595   0.0306667), wk =   0.0011719
        k(  861) = (   0.1875000   0.3247595   0.0613333), wk =   0.0011719
        k(  862) = (   0.1875000   0.3247595   0.0920000), wk =   0.0011719
        k(  863) = (   0.1875000   0.3247595   0.1226667), wk =   0.0011719
        k(  864) = (   0.1875000   0.3247595   0.1533333), wk =   0.0011719
        k(  865) = (   0.1875000   0.3247595   0.1840000), wk =   0.0011719
        k(  866) = (   0.1875000   0.3247595   0.2146667), wk =   0.0011719
        k(  867) = (   0.1875000   0.3247595   0.2453333), wk =   0.0011719
        k(  868) = (   0.1875000   0.3247595   0.2760000), wk =   0.0011719
        k(  869) = (   0.1875000   0.3247595  -0.3066667), wk =   0.0005859
        k(  870) = (   0.1875000   0.3608439   0.0000000), wk =   0.0011719
        k(  871) = (   0.1875000   0.3608439   0.0306667), wk =   0.0023437
        k(  872) = (   0.1875000   0.3608439   0.0613333), wk =   0.0023437
        k(  873) = (   0.1875000   0.3608439   0.0920000), wk =   0.0023437
        k(  874) = (   0.1875000   0.3608439   0.1226667), wk =   0.0023437
        k(  875) = (   0.1875000   0.3608439   0.1533333), wk =   0.0023437
        k(  876) = (   0.1875000   0.3608439   0.1840000), wk =   0.0023437
        k(  877) = (   0.1875000   0.3608439   0.2146667), wk =   0.0023437
        k(  878) = (   0.1875000   0.3608439   0.2453333), wk =   0.0023437
        k(  879) = (   0.1875000   0.3608439   0.2760000), wk =   0.0023437
        k(  880) = (   0.1875000   0.3608439  -0.3066667), wk =   0.0011719
        k(  881) = (   0.1875000   0.3969283   0.0000000), wk =   0.0011719
        k(  882) = (   0.1875000   0.3969283   0.0306667), wk =   0.0023437
        k(  883) = (   0.1875000   0.3969283   0.0613333), wk =   0.0023437
        k(  884) = (   0.1875000   0.3969283   0.0920000), wk =   0.0023437
        k(  885) = (   0.1875000   0.3969283   0.1226667), wk =   0.0023437
        k(  886) = (   0.1875000   0.3969283   0.1533333), wk =   0.0023437
        k(  887) = (   0.1875000   0.3969283   0.1840000), wk =   0.0023437
        k(  888) = (   0.1875000   0.3969283   0.2146667), wk =   0.0023437
        k(  889) = (   0.1875000   0.3969283   0.2453333), wk =   0.0023437
        k(  890) = (   0.1875000   0.3969283   0.2760000), wk =   0.0023437
        k(  891) = (   0.1875000   0.3969283  -0.3066667), wk =   0.0011719
        k(  892) = (   0.1875000   0.4330127   0.0000000), wk =   0.0011719
        k(  893) = (   0.1875000   0.4330127   0.0306667), wk =   0.0023437
        k(  894) = (   0.1875000   0.4330127   0.0613333), wk =   0.0023437
        k(  895) = (   0.1875000   0.4330127   0.0920000), wk =   0.0023437
        k(  896) = (   0.1875000   0.4330127   0.1226667), wk =   0.0023437
        k(  897) = (   0.1875000   0.4330127   0.1533333), wk =   0.0023437
        k(  898) = (   0.1875000   0.4330127   0.1840000), wk =   0.0023437
        k(  899) = (   0.1875000   0.4330127   0.2146667), wk =   0.0023437
        k(  900) = (   0.1875000   0.4330127   0.2453333), wk =   0.0023437
        k(  901) = (   0.1875000   0.4330127   0.2760000), wk =   0.0023437
        k(  902) = (   0.1875000   0.4330127  -0.3066667), wk =   0.0011719
        k(  903) = (   0.1875000   0.4690971   0.0000000), wk =   0.0011719
        k(  904) = (   0.1875000   0.4690971   0.0306667), wk =   0.0023437
        k(  905) = (   0.1875000   0.4690971   0.0613333), wk =   0.0023437
        k(  906) = (   0.1875000   0.4690971   0.0920000), wk =   0.0023437
        k(  907) = (   0.1875000   0.4690971   0.1226667), wk =   0.0023437
        k(  908) = (   0.1875000   0.4690971   0.1533333), wk =   0.0023437
        k(  909) = (   0.1875000   0.4690971   0.1840000), wk =   0.0023437
        k(  910) = (   0.1875000   0.4690971   0.2146667), wk =   0.0023437
        k(  911) = (   0.1875000   0.4690971   0.2453333), wk =   0.0023437
        k(  912) = (   0.1875000   0.4690971   0.2760000), wk =   0.0023437
        k(  913) = (   0.1875000   0.4690971  -0.3066667), wk =   0.0011719
        k(  914) = (   0.1875000   0.5051815   0.0000000), wk =   0.0011719
        k(  915) = (   0.1875000   0.5051815   0.0306667), wk =   0.0023437
        k(  916) = (   0.1875000   0.5051815   0.0613333), wk =   0.0023437
        k(  917) = (   0.1875000   0.5051815   0.0920000), wk =   0.0023437
        k(  918) = (   0.1875000   0.5051815   0.1226667), wk =   0.0023437
        k(  919) = (   0.1875000   0.5051815   0.1533333), wk =   0.0023437
        k(  920) = (   0.1875000   0.5051815   0.1840000), wk =   0.0023437
        k(  921) = (   0.1875000   0.5051815   0.2146667), wk =   0.0023437
        k(  922) = (   0.1875000   0.5051815   0.2453333), wk =   0.0023437
        k(  923) = (   0.1875000   0.5051815   0.2760000), wk =   0.0023437
        k(  924) = (   0.1875000   0.5051815  -0.3066667), wk =   0.0011719
        k(  925) = (   0.1875000   0.5412659   0.0000000), wk =   0.0011719
        k(  926) = (   0.1875000   0.5412659   0.0306667), wk =   0.0023437
        k(  927) = (   0.1875000   0.5412659   0.0613333), wk =   0.0023437
        k(  928) = (   0.1875000   0.5412659   0.0920000), wk =   0.0023437
        k(  929) = (   0.1875000   0.5412659   0.1226667), wk =   0.0023437
        k(  930) = (   0.1875000   0.5412659   0.1533333), wk =   0.0023437
        k(  931) = (   0.1875000   0.5412659   0.1840000), wk =   0.0023437
        k(  932) = (   0.1875000   0.5412659   0.2146667), wk =   0.0023437
        k(  933) = (   0.1875000   0.5412659   0.2453333), wk =   0.0023437
        k(  934) = (   0.1875000   0.5412659   0.2760000), wk =   0.0023437
        k(  935) = (   0.1875000   0.5412659  -0.3066667), wk =   0.0011719
        k(  936) = (   0.1875000   0.5773503   0.0000000), wk =   0.0005859
        k(  937) = (   0.1875000   0.5773503   0.0306667), wk =   0.0011719
        k(  938) = (   0.1875000   0.5773503   0.0613333), wk =   0.0011719
        k(  939) = (   0.1875000   0.5773503   0.0920000), wk =   0.0011719
        k(  940) = (   0.1875000   0.5773503   0.1226667), wk =   0.0011719
        k(  941) = (   0.1875000   0.5773503   0.1533333), wk =   0.0011719
        k(  942) = (   0.1875000   0.5773503   0.1840000), wk =   0.0011719
        k(  943) = (   0.1875000   0.5773503   0.2146667), wk =   0.0011719
        k(  944) = (   0.1875000   0.5773503   0.2453333), wk =   0.0011719
        k(  945) = (   0.1875000   0.5773503   0.2760000), wk =   0.0011719
        k(  946) = (   0.1875000   0.5773503  -0.3066667), wk =   0.0005859
        k(  947) = (   0.2187500   0.3788861   0.0000000), wk =   0.0005859
        k(  948) = (   0.2187500   0.3788861   0.0306667), wk =   0.0011719
        k(  949) = (   0.2187500   0.3788861   0.0613333), wk =   0.0011719
        k(  950) = (   0.2187500   0.3788861   0.0920000), wk =   0.0011719
        k(  951) = (   0.2187500   0.3788861   0.1226667), wk =   0.0011719
        k(  952) = (   0.2187500   0.3788861   0.1533333), wk =   0.0011719
        k(  953) = (   0.2187500   0.3788861   0.1840000), wk =   0.0011719
        k(  954) = (   0.2187500   0.3788861   0.2146667), wk =   0.0011719
        k(  955) = (   0.2187500   0.3788861   0.2453333), wk =   0.0011719
        k(  956) = (   0.2187500   0.3788861   0.2760000), wk =   0.0011719
        k(  957) = (   0.2187500   0.3788861  -0.3066667), wk =   0.0005859
        k(  958) = (   0.2187500   0.4149705   0.0000000), wk =   0.0011719
        k(  959) = (   0.2187500   0.4149705   0.0306667), wk =   0.0023437
        k(  960) = (   0.2187500   0.4149705   0.0613333), wk =   0.0023437
        k(  961) = (   0.2187500   0.4149705   0.0920000), wk =   0.0023437
        k(  962) = (   0.2187500   0.4149705   0.1226667), wk =   0.0023437
        k(  963) = (   0.2187500   0.4149705   0.1533333), wk =   0.0023437
        k(  964) = (   0.2187500   0.4149705   0.1840000), wk =   0.0023437
        k(  965) = (   0.2187500   0.4149705   0.2146667), wk =   0.0023437
        k(  966) = (   0.2187500   0.4149705   0.2453333), wk =   0.0023437
        k(  967) = (   0.2187500   0.4149705   0.2760000), wk =   0.0023437
        k(  968) = (   0.2187500   0.4149705  -0.3066667), wk =   0.0011719
        k(  969) = (   0.2187500   0.4510549   0.0000000), wk =   0.0011719
        k(  970) = (   0.2187500   0.4510549   0.0306667), wk =   0.0023437
        k(  971) = (   0.2187500   0.4510549   0.0613333), wk =   0.0023437
        k(  972) = (   0.2187500   0.4510549   0.0920000), wk =   0.0023437
        k(  973) = (   0.2187500   0.4510549   0.1226667), wk =   0.0023437
        k(  974) = (   0.2187500   0.4510549   0.1533333), wk =   0.0023437
        k(  975) = (   0.2187500   0.4510549   0.1840000), wk =   0.0023437
        k(  976) = (   0.2187500   0.4510549   0.2146667), wk =   0.0023437
        k(  977) = (   0.2187500   0.4510549   0.2453333), wk =   0.0023437
        k(  978) = (   0.2187500   0.4510549   0.2760000), wk =   0.0023437
        k(  979) = (   0.2187500   0.4510549  -0.3066667), wk =   0.0011719
        k(  980) = (   0.2187500   0.4871393   0.0000000), wk =   0.0011719
        k(  981) = (   0.2187500   0.4871393   0.0306667), wk =   0.0023437
        k(  982) = (   0.2187500   0.4871393   0.0613333), wk =   0.0023437
        k(  983) = (   0.2187500   0.4871393   0.0920000), wk =   0.0023437
        k(  984) = (   0.2187500   0.4871393   0.1226667), wk =   0.0023437
        k(  985) = (   0.2187500   0.4871393   0.1533333), wk =   0.0023437
        k(  986) = (   0.2187500   0.4871393   0.1840000), wk =   0.0023437
        k(  987) = (   0.2187500   0.4871393   0.2146667), wk =   0.0023437
        k(  988) = (   0.2187500   0.4871393   0.2453333), wk =   0.0023437
        k(  989) = (   0.2187500   0.4871393   0.2760000), wk =   0.0023437
        k(  990) = (   0.2187500   0.4871393  -0.3066667), wk =   0.0011719
        k(  991) = (   0.2187500   0.5232237   0.0000000), wk =   0.0011719
        k(  992) = (   0.2187500   0.5232237   0.0306667), wk =   0.0023437
        k(  993) = (   0.2187500   0.5232237   0.0613333), wk =   0.0023437
        k(  994) = (   0.2187500   0.5232237   0.0920000), wk =   0.0023437
        k(  995) = (   0.2187500   0.5232237   0.1226667), wk =   0.0023437
        k(  996) = (   0.2187500   0.5232237   0.1533333), wk =   0.0023437
        k(  997) = (   0.2187500   0.5232237   0.1840000), wk =   0.0023437
        k(  998) = (   0.2187500   0.5232237   0.2146667), wk =   0.0023437
        k(  999) = (   0.2187500   0.5232237   0.2453333), wk =   0.0023437
        k( 1000) = (   0.2187500   0.5232237   0.2760000), wk =   0.0023437
        k( 1001) = (   0.2187500   0.5232237  -0.3066667), wk =   0.0011719
        k( 1002) = (   0.2187500   0.5593081   0.0000000), wk =   0.0011719
        k( 1003) = (   0.2187500   0.5593081   0.0306667), wk =   0.0023437
        k( 1004) = (   0.2187500   0.5593081   0.0613333), wk =   0.0023437
        k( 1005) = (   0.2187500   0.5593081   0.0920000), wk =   0.0023437
        k( 1006) = (   0.2187500   0.5593081   0.1226667), wk =   0.0023437
        k( 1007) = (   0.2187500   0.5593081   0.1533333), wk =   0.0023437
        k( 1008) = (   0.2187500   0.5593081   0.1840000), wk =   0.0023437
        k( 1009) = (   0.2187500   0.5593081   0.2146667), wk =   0.0023437
        k( 1010) = (   0.2187500   0.5593081   0.2453333), wk =   0.0023437
        k( 1011) = (   0.2187500   0.5593081   0.2760000), wk =   0.0023437
        k( 1012) = (   0.2187500   0.5593081  -0.3066667), wk =   0.0011719
        k( 1013) = (   0.2500000   0.4330127   0.0000000), wk =   0.0005859
        k( 1014) = (   0.2500000   0.4330127   0.0306667), wk =   0.0011719
        k( 1015) = (   0.2500000   0.4330127   0.0613333), wk =   0.0011719
        k( 1016) = (   0.2500000   0.4330127   0.0920000), wk =   0.0011719
        k( 1017) = (   0.2500000   0.4330127   0.1226667), wk =   0.0011719
        k( 1018) = (   0.2500000   0.4330127   0.1533333), wk =   0.0011719
        k( 1019) = (   0.2500000   0.4330127   0.1840000), wk =   0.0011719
        k( 1020) = (   0.2500000   0.4330127   0.2146667), wk =   0.0011719
        k( 1021) = (   0.2500000   0.4330127   0.2453333), wk =   0.0011719
        k( 1022) = (   0.2500000   0.4330127   0.2760000), wk =   0.0011719
        k( 1023) = (   0.2500000   0.4330127  -0.3066667), wk =   0.0005859
        k( 1024) = (   0.2500000   0.4690971   0.0000000), wk =   0.0011719
        k( 1025) = (   0.2500000   0.4690971   0.0306667), wk =   0.0023437
        k( 1026) = (   0.2500000   0.4690971   0.0613333), wk =   0.0023437
        k( 1027) = (   0.2500000   0.4690971   0.0920000), wk =   0.0023437
        k( 1028) = (   0.2500000   0.4690971   0.1226667), wk =   0.0023437
        k( 1029) = (   0.2500000   0.4690971   0.1533333), wk =   0.0023437
        k( 1030) = (   0.2500000   0.4690971   0.1840000), wk =   0.0023437
        k( 1031) = (   0.2500000   0.4690971   0.2146667), wk =   0.0023437
        k( 1032) = (   0.2500000   0.4690971   0.2453333), wk =   0.0023437
        k( 1033) = (   0.2500000   0.4690971   0.2760000), wk =   0.0023437
        k( 1034) = (   0.2500000   0.4690971  -0.3066667), wk =   0.0011719
        k( 1035) = (   0.2500000   0.5051815   0.0000000), wk =   0.0011719
        k( 1036) = (   0.2500000   0.5051815   0.0306667), wk =   0.0023437
        k( 1037) = (   0.2500000   0.5051815   0.0613333), wk =   0.0023437
        k( 1038) = (   0.2500000   0.5051815   0.0920000), wk =   0.0023437
        k( 1039) = (   0.2500000   0.5051815   0.1226667), wk =   0.0023437
        k( 1040) = (   0.2500000   0.5051815   0.1533333), wk =   0.0023437
        k( 1041) = (   0.2500000   0.5051815   0.1840000), wk =   0.0023437
        k( 1042) = (   0.2500000   0.5051815   0.2146667), wk =   0.0023437
        k( 1043) = (   0.2500000   0.5051815   0.2453333), wk =   0.0023437
        k( 1044) = (   0.2500000   0.5051815   0.2760000), wk =   0.0023437
        k( 1045) = (   0.2500000   0.5051815  -0.3066667), wk =   0.0011719
        k( 1046) = (   0.2500000   0.5412659   0.0000000), wk =   0.0011719
        k( 1047) = (   0.2500000   0.5412659   0.0306667), wk =   0.0023437
        k( 1048) = (   0.2500000   0.5412659   0.0613333), wk =   0.0023437
        k( 1049) = (   0.2500000   0.5412659   0.0920000), wk =   0.0023437
        k( 1050) = (   0.2500000   0.5412659   0.1226667), wk =   0.0023437
        k( 1051) = (   0.2500000   0.5412659   0.1533333), wk =   0.0023437
        k( 1052) = (   0.2500000   0.5412659   0.1840000), wk =   0.0023437
        k( 1053) = (   0.2500000   0.5412659   0.2146667), wk =   0.0023437
        k( 1054) = (   0.2500000   0.5412659   0.2453333), wk =   0.0023437
        k( 1055) = (   0.2500000   0.5412659   0.2760000), wk =   0.0023437
        k( 1056) = (   0.2500000   0.5412659  -0.3066667), wk =   0.0011719
        k( 1057) = (   0.2500000   0.5773503   0.0000000), wk =   0.0005859
        k( 1058) = (   0.2500000   0.5773503   0.0306667), wk =   0.0011719
        k( 1059) = (   0.2500000   0.5773503   0.0613333), wk =   0.0011719
        k( 1060) = (   0.2500000   0.5773503   0.0920000), wk =   0.0011719
        k( 1061) = (   0.2500000   0.5773503   0.1226667), wk =   0.0011719
        k( 1062) = (   0.2500000   0.5773503   0.1533333), wk =   0.0011719
        k( 1063) = (   0.2500000   0.5773503   0.1840000), wk =   0.0011719
        k( 1064) = (   0.2500000   0.5773503   0.2146667), wk =   0.0011719
        k( 1065) = (   0.2500000   0.5773503   0.2453333), wk =   0.0011719
        k( 1066) = (   0.2500000   0.5773503   0.2760000), wk =   0.0011719
        k( 1067) = (   0.2500000   0.5773503  -0.3066667), wk =   0.0005859
        k( 1068) = (   0.2812500   0.4871393   0.0000000), wk =   0.0005859
        k( 1069) = (   0.2812500   0.4871393   0.0306667), wk =   0.0011719
        k( 1070) = (   0.2812500   0.4871393   0.0613333), wk =   0.0011719
        k( 1071) = (   0.2812500   0.4871393   0.0920000), wk =   0.0011719
        k( 1072) = (   0.2812500   0.4871393   0.1226667), wk =   0.0011719
        k( 1073) = (   0.2812500   0.4871393   0.1533333), wk =   0.0011719
        k( 1074) = (   0.2812500   0.4871393   0.1840000), wk =   0.0011719
        k( 1075) = (   0.2812500   0.4871393   0.2146667), wk =   0.0011719
        k( 1076) = (   0.2812500   0.4871393   0.2453333), wk =   0.0011719
        k( 1077) = (   0.2812500   0.4871393   0.2760000), wk =   0.0011719
        k( 1078) = (   0.2812500   0.4871393  -0.3066667), wk =   0.0005859
        k( 1079) = (   0.2812500   0.5232237   0.0000000), wk =   0.0011719
        k( 1080) = (   0.2812500   0.5232237   0.0306667), wk =   0.0023437
        k( 1081) = (   0.2812500   0.5232237   0.0613333), wk =   0.0023437
        k( 1082) = (   0.2812500   0.5232237   0.0920000), wk =   0.0023437
        k( 1083) = (   0.2812500   0.5232237   0.1226667), wk =   0.0023437
        k( 1084) = (   0.2812500   0.5232237   0.1533333), wk =   0.0023437
        k( 1085) = (   0.2812500   0.5232237   0.1840000), wk =   0.0023437
        k( 1086) = (   0.2812500   0.5232237   0.2146667), wk =   0.0023437
        k( 1087) = (   0.2812500   0.5232237   0.2453333), wk =   0.0023437
        k( 1088) = (   0.2812500   0.5232237   0.2760000), wk =   0.0023437
        k( 1089) = (   0.2812500   0.5232237  -0.3066667), wk =   0.0011719
        k( 1090) = (   0.2812500   0.5593081   0.0000000), wk =   0.0011719
        k( 1091) = (   0.2812500   0.5593081   0.0306667), wk =   0.0023437
        k( 1092) = (   0.2812500   0.5593081   0.0613333), wk =   0.0023437
        k( 1093) = (   0.2812500   0.5593081   0.0920000), wk =   0.0023437
        k( 1094) = (   0.2812500   0.5593081   0.1226667), wk =   0.0023437
        k( 1095) = (   0.2812500   0.5593081   0.1533333), wk =   0.0023437
        k( 1096) = (   0.2812500   0.5593081   0.1840000), wk =   0.0023437
        k( 1097) = (   0.2812500   0.5593081   0.2146667), wk =   0.0023437
        k( 1098) = (   0.2812500   0.5593081   0.2453333), wk =   0.0023437
        k( 1099) = (   0.2812500   0.5593081   0.2760000), wk =   0.0023437
        k( 1100) = (   0.2812500   0.5593081  -0.3066667), wk =   0.0011719
        k( 1101) = (   0.3125000   0.5412659   0.0000000), wk =   0.0005859
        k( 1102) = (   0.3125000   0.5412659   0.0306667), wk =   0.0011719
        k( 1103) = (   0.3125000   0.5412659   0.0613333), wk =   0.0011719
        k( 1104) = (   0.3125000   0.5412659   0.0920000), wk =   0.0011719
        k( 1105) = (   0.3125000   0.5412659   0.1226667), wk =   0.0011719
        k( 1106) = (   0.3125000   0.5412659   0.1533333), wk =   0.0011719
        k( 1107) = (   0.3125000   0.5412659   0.1840000), wk =   0.0011719
        k( 1108) = (   0.3125000   0.5412659   0.2146667), wk =   0.0011719
        k( 1109) = (   0.3125000   0.5412659   0.2453333), wk =   0.0011719
        k( 1110) = (   0.3125000   0.5412659   0.2760000), wk =   0.0011719
        k( 1111) = (   0.3125000   0.5412659  -0.3066667), wk =   0.0005859
        k( 1112) = (   0.3125000   0.5773503   0.0000000), wk =   0.0005859
        k( 1113) = (   0.3125000   0.5773503   0.0306667), wk =   0.0011719
        k( 1114) = (   0.3125000   0.5773503   0.0613333), wk =   0.0011719
        k( 1115) = (   0.3125000   0.5773503   0.0920000), wk =   0.0011719
        k( 1116) = (   0.3125000   0.5773503   0.1226667), wk =   0.0011719
        k( 1117) = (   0.3125000   0.5773503   0.1533333), wk =   0.0011719
        k( 1118) = (   0.3125000   0.5773503   0.1840000), wk =   0.0011719
        k( 1119) = (   0.3125000   0.5773503   0.2146667), wk =   0.0011719
        k( 1120) = (   0.3125000   0.5773503   0.2453333), wk =   0.0011719
        k( 1121) = (   0.3125000   0.5773503   0.2760000), wk =   0.0011719
        k( 1122) = (   0.3125000   0.5773503  -0.3066667), wk =   0.0005859

                       cryst. coord.
        k(    1) = (   0.0000000   0.0000000   0.0000000), wk =   0.0000977
        k(    2) = (   0.0000000   0.0000000   0.0500000), wk =   0.0001953
        k(    3) = (   0.0000000   0.0000000   0.1000000), wk =   0.0001953
        k(    4) = (   0.0000000   0.0000000   0.1500000), wk =   0.0001953
        k(    5) = (   0.0000000   0.0000000   0.2000000), wk =   0.0001953
        k(    6) = (   0.0000000   0.0000000   0.2500000), wk =   0.0001953
        k(    7) = (   0.0000000   0.0000000   0.3000000), wk =   0.0001953
        k(    8) = (   0.0000000   0.0000000   0.3500000), wk =   0.0001953
        k(    9) = (   0.0000000   0.0000000   0.4000000), wk =   0.0001953
        k(   10) = (   0.0000000   0.0000000   0.4500000), wk =   0.0001953
        k(   11) = (   0.0000000   0.0000000  -0.5000000), wk =   0.0000977
        k(   12) = (   0.0000000   0.0312500   0.0000000), wk =   0.0005859
        k(   13) = (   0.0000000   0.0312500   0.0500000), wk =   0.0011719
        k(   14) = (   0.0000000   0.0312500   0.1000000), wk =   0.0011719
        k(   15) = (   0.0000000   0.0312500   0.1500000), wk =   0.0011719
        k(   16) = (   0.0000000   0.0312500   0.2000000), wk =   0.0011719
        k(   17) = (   0.0000000   0.0312500   0.2500000), wk =   0.0011719
        k(   18) = (   0.0000000   0.0312500   0.3000000), wk =   0.0011719
        k(   19) = (   0.0000000   0.0312500   0.3500000), wk =   0.0011719
        k(   20) = (   0.0000000   0.0312500   0.4000000), wk =   0.0011719
        k(   21) = (   0.0000000   0.0312500   0.4500000), wk =   0.0011719
        k(   22) = (   0.0000000   0.0312500  -0.5000000), wk =   0.0005859
        k(   23) = (   0.0000000   0.0625000   0.0000000), wk =   0.0005859
        k(   24) = (   0.0000000   0.0625000   0.0500000), wk =   0.0011719
        k(   25) = (   0.0000000   0.0625000   0.1000000), wk =   0.0011719
        k(   26) = (   0.0000000   0.0625000   0.1500000), wk =   0.0011719
        k(   27) = (   0.0000000   0.0625000   0.2000000), wk =   0.0011719
        k(   28) = (   0.0000000   0.0625000   0.2500000), wk =   0.0011719
        k(   29) = (   0.0000000   0.0625000   0.3000000), wk =   0.0011719
        k(   30) = (   0.0000000   0.0625000   0.3500000), wk =   0.0011719
        k(   31) = (   0.0000000   0.0625000   0.4000000), wk =   0.0011719
        k(   32) = (   0.0000000   0.0625000   0.4500000), wk =   0.0011719
        k(   33) = (   0.0000000   0.0625000  -0.5000000), wk =   0.0005859
        k(   34) = (   0.0000000   0.0937500   0.0000000), wk =   0.0005859
        k(   35) = (   0.0000000   0.0937500   0.0500000), wk =   0.0011719
        k(   36) = (   0.0000000   0.0937500   0.1000000), wk =   0.0011719
        k(   37) = (   0.0000000   0.0937500   0.1500000), wk =   0.0011719
        k(   38) = (   0.0000000   0.0937500   0.2000000), wk =   0.0011719
        k(   39) = (   0.0000000   0.0937500   0.2500000), wk =   0.0011719
        k(   40) = (   0.0000000   0.0937500   0.3000000), wk =   0.0011719
        k(   41) = (   0.0000000   0.0937500   0.3500000), wk =   0.0011719
        k(   42) = (   0.0000000   0.0937500   0.4000000), wk =   0.0011719
        k(   43) = (   0.0000000   0.0937500   0.4500000), wk =   0.0011719
        k(   44) = (   0.0000000   0.0937500  -0.5000000), wk =   0.0005859
        k(   45) = (   0.0000000   0.1250000   0.0000000), wk =   0.0005859
        k(   46) = (   0.0000000   0.1250000   0.0500000), wk =   0.0011719
        k(   47) = (   0.0000000   0.1250000   0.1000000), wk =   0.0011719
        k(   48) = (   0.0000000   0.1250000   0.1500000), wk =   0.0011719
        k(   49) = (   0.0000000   0.1250000   0.2000000), wk =   0.0011719
        k(   50) = (   0.0000000   0.1250000   0.2500000), wk =   0.0011719
        k(   51) = (   0.0000000   0.1250000   0.3000000), wk =   0.0011719
        k(   52) = (   0.0000000   0.1250000   0.3500000), wk =   0.0011719
        k(   53) = (   0.0000000   0.1250000   0.4000000), wk =   0.0011719
        k(   54) = (   0.0000000   0.1250000   0.4500000), wk =   0.0011719
        k(   55) = (   0.0000000   0.1250000  -0.5000000), wk =   0.0005859
        k(   56) = (   0.0000000   0.1562500   0.0000000), wk =   0.0005859
        k(   57) = (   0.0000000   0.1562500   0.0500000), wk =   0.0011719
        k(   58) = (   0.0000000   0.1562500   0.1000000), wk =   0.0011719
        k(   59) = (   0.0000000   0.1562500   0.1500000), wk =   0.0011719
        k(   60) = (   0.0000000   0.1562500   0.2000000), wk =   0.0011719
        k(   61) = (   0.0000000   0.1562500   0.2500000), wk =   0.0011719
        k(   62) = (   0.0000000   0.1562500   0.3000000), wk =   0.0011719
        k(   63) = (   0.0000000   0.1562500   0.3500000), wk =   0.0011719
        k(   64) = (   0.0000000   0.1562500   0.4000000), wk =   0.0011719
        k(   65) = (   0.0000000   0.1562500   0.4500000), wk =   0.0011719
        k(   66) = (   0.0000000   0.1562500  -0.5000000), wk =   0.0005859
        k(   67) = (   0.0000000   0.1875000   0.0000000), wk =   0.0005859
        k(   68) = (   0.0000000   0.1875000   0.0500000), wk =   0.0011719
        k(   69) = (   0.0000000   0.1875000   0.1000000), wk =   0.0011719
        k(   70) = (   0.0000000   0.1875000   0.1500000), wk =   0.0011719
        k(   71) = (   0.0000000   0.1875000   0.2000000), wk =   0.0011719
        k(   72) = (   0.0000000   0.1875000   0.2500000), wk =   0.0011719
        k(   73) = (   0.0000000   0.1875000   0.3000000), wk =   0.0011719
        k(   74) = (   0.0000000   0.1875000   0.3500000), wk =   0.0011719
        k(   75) = (   0.0000000   0.1875000   0.4000000), wk =   0.0011719
        k(   76) = (   0.0000000   0.1875000   0.4500000), wk =   0.0011719
        k(   77) = (   0.0000000   0.1875000  -0.5000000), wk =   0.0005859
        k(   78) = (   0.0000000   0.2187500   0.0000000), wk =   0.0005859
        k(   79) = (   0.0000000   0.2187500   0.0500000), wk =   0.0011719
        k(   80) = (   0.0000000   0.2187500   0.1000000), wk =   0.0011719
        k(   81) = (   0.0000000   0.2187500   0.1500000), wk =   0.0011719
        k(   82) = (   0.0000000   0.2187500   0.2000000), wk =   0.0011719
        k(   83) = (   0.0000000   0.2187500   0.2500000), wk =   0.0011719
        k(   84) = (   0.0000000   0.2187500   0.3000000), wk =   0.0011719
        k(   85) = (   0.0000000   0.2187500   0.3500000), wk =   0.0011719
        k(   86) = (   0.0000000   0.2187500   0.4000000), wk =   0.0011719
        k(   87) = (   0.0000000   0.2187500   0.4500000), wk =   0.0011719
        k(   88) = (   0.0000000   0.2187500  -0.5000000), wk =   0.0005859
        k(   89) = (   0.0000000   0.2500000   0.0000000), wk =   0.0005859
        k(   90) = (   0.0000000   0.2500000   0.0500000), wk =   0.0011719
        k(   91) = (   0.0000000   0.2500000   0.1000000), wk =   0.0011719
        k(   92) = (   0.0000000   0.2500000   0.1500000), wk =   0.0011719
        k(   93) = (   0.0000000   0.2500000   0.2000000), wk =   0.0011719
        k(   94) = (   0.0000000   0.2500000   0.2500000), wk =   0.0011719
        k(   95) = (   0.0000000   0.2500000   0.3000000), wk =   0.0011719
        k(   96) = (   0.0000000   0.2500000   0.3500000), wk =   0.0011719
        k(   97) = (   0.0000000   0.2500000   0.4000000), wk =   0.0011719
        k(   98) = (   0.0000000   0.2500000   0.4500000), wk =   0.0011719
        k(   99) = (   0.0000000   0.2500000  -0.5000000), wk =   0.0005859
        k(  100) = (   0.0000000   0.2812500   0.0000000), wk =   0.0005859
        k(  101) = (   0.0000000   0.2812500   0.0500000), wk =   0.0011719
        k(  102) = (   0.0000000   0.2812500   0.1000000), wk =   0.0011719
        k(  103) = (   0.0000000   0.2812500   0.1500000), wk =   0.0011719
        k(  104) = (   0.0000000   0.2812500   0.2000000), wk =   0.0011719
        k(  105) = (   0.0000000   0.2812500   0.2500000), wk =   0.0011719
        k(  106) = (   0.0000000   0.2812500   0.3000000), wk =   0.0011719
        k(  107) = (   0.0000000   0.2812500   0.3500000), wk =   0.0011719
        k(  108) = (   0.0000000   0.2812500   0.4000000), wk =   0.0011719
        k(  109) = (   0.0000000   0.2812500   0.4500000), wk =   0.0011719
        k(  110) = (   0.0000000   0.2812500  -0.5000000), wk =   0.0005859
        k(  111) = (   0.0000000   0.3125000   0.0000000), wk =   0.0005859
        k(  112) = (   0.0000000   0.3125000   0.0500000), wk =   0.0011719
        k(  113) = (   0.0000000   0.3125000   0.1000000), wk =   0.0011719
        k(  114) = (   0.0000000   0.3125000   0.1500000), wk =   0.0011719
        k(  115) = (   0.0000000   0.3125000   0.2000000), wk =   0.0011719
        k(  116) = (   0.0000000   0.3125000   0.2500000), wk =   0.0011719
        k(  117) = (   0.0000000   0.3125000   0.3000000), wk =   0.0011719
        k(  118) = (   0.0000000   0.3125000   0.3500000), wk =   0.0011719
        k(  119) = (   0.0000000   0.3125000   0.4000000), wk =   0.0011719
        k(  120) = (   0.0000000   0.3125000   0.4500000), wk =   0.0011719
        k(  121) = (   0.0000000   0.3125000  -0.5000000), wk =   0.0005859
        k(  122) = (   0.0000000   0.3437500   0.0000000), wk =   0.0005859
        k(  123) = (   0.0000000   0.3437500   0.0500000), wk =   0.0011719
        k(  124) = (   0.0000000   0.3437500   0.1000000), wk =   0.0011719
        k(  125) = (   0.0000000   0.3437500   0.1500000), wk =   0.0011719
        k(  126) = (   0.0000000   0.3437500   0.2000000), wk =   0.0011719
        k(  127) = (   0.0000000   0.3437500   0.2500000), wk =   0.0011719
        k(  128) = (   0.0000000   0.3437500   0.3000000), wk =   0.0011719
        k(  129) = (   0.0000000   0.3437500   0.3500000), wk =   0.0011719
        k(  130) = (   0.0000000   0.3437500   0.4000000), wk =   0.0011719
        k(  131) = (   0.0000000   0.3437500   0.4500000), wk =   0.0011719
        k(  132) = (   0.0000000   0.3437500  -0.5000000), wk =   0.0005859
        k(  133) = (   0.0000000   0.3750000   0.0000000), wk =   0.0005859
        k(  134) = (   0.0000000   0.3750000   0.0500000), wk =   0.0011719
        k(  135) = (   0.0000000   0.3750000   0.1000000), wk =   0.0011719
        k(  136) = (   0.0000000   0.3750000   0.1500000), wk =   0.0011719
        k(  137) = (   0.0000000   0.3750000   0.2000000), wk =   0.0011719
        k(  138) = (   0.0000000   0.3750000   0.2500000), wk =   0.0011719
        k(  139) = (   0.0000000   0.3750000   0.3000000), wk =   0.0011719
        k(  140) = (   0.0000000   0.3750000   0.3500000), wk =   0.0011719
        k(  141) = (   0.0000000   0.3750000   0.4000000), wk =   0.0011719
        k(  142) = (   0.0000000   0.3750000   0.4500000), wk =   0.0011719
        k(  143) = (   0.0000000   0.3750000  -0.5000000), wk =   0.0005859
        k(  144) = (   0.0000000   0.4062500   0.0000000), wk =   0.0005859
        k(  145) = (   0.0000000   0.4062500   0.0500000), wk =   0.0011719
        k(  146) = (   0.0000000   0.4062500   0.1000000), wk =   0.0011719
        k(  147) = (   0.0000000   0.4062500   0.1500000), wk =   0.0011719
        k(  148) = (   0.0000000   0.4062500   0.2000000), wk =   0.0011719
        k(  149) = (   0.0000000   0.4062500   0.2500000), wk =   0.0011719
        k(  150) = (   0.0000000   0.4062500   0.3000000), wk =   0.0011719
        k(  151) = (   0.0000000   0.4062500   0.3500000), wk =   0.0011719
        k(  152) = (   0.0000000   0.4062500   0.4000000), wk =   0.0011719
        k(  153) = (   0.0000000   0.4062500   0.4500000), wk =   0.0011719
        k(  154) = (   0.0000000   0.4062500  -0.5000000), wk =   0.0005859
        k(  155) = (   0.0000000   0.4375000   0.0000000), wk =   0.0005859
        k(  156) = (   0.0000000   0.4375000   0.0500000), wk =   0.0011719
        k(  157) = (   0.0000000   0.4375000   0.1000000), wk =   0.0011719
        k(  158) = (   0.0000000   0.4375000   0.1500000), wk =   0.0011719
        k(  159) = (   0.0000000   0.4375000   0.2000000), wk =   0.0011719
        k(  160) = (   0.0000000   0.4375000   0.2500000), wk =   0.0011719
        k(  161) = (   0.0000000   0.4375000   0.3000000), wk =   0.0011719
        k(  162) = (   0.0000000   0.4375000   0.3500000), wk =   0.0011719
        k(  163) = (   0.0000000   0.4375000   0.4000000), wk =   0.0011719
        k(  164) = (   0.0000000   0.4375000   0.4500000), wk =   0.0011719
        k(  165) = (   0.0000000   0.4375000  -0.5000000), wk =   0.0005859
        k(  166) = (   0.0000000   0.4687500   0.0000000), wk =   0.0005859
        k(  167) = (   0.0000000   0.4687500   0.0500000), wk =   0.0011719
        k(  168) = (   0.0000000   0.4687500   0.1000000), wk =   0.0011719
        k(  169) = (   0.0000000   0.4687500   0.1500000), wk =   0.0011719
        k(  170) = (   0.0000000   0.4687500   0.2000000), wk =   0.0011719
        k(  171) = (   0.0000000   0.4687500   0.2500000), wk =   0.0011719
        k(  172) = (   0.0000000   0.4687500   0.3000000), wk =   0.0011719
        k(  173) = (   0.0000000   0.4687500   0.3500000), wk =   0.0011719
        k(  174) = (   0.0000000   0.4687500   0.4000000), wk =   0.0011719
        k(  175) = (   0.0000000   0.4687500   0.4500000), wk =   0.0011719
        k(  176) = (   0.0000000   0.4687500  -0.5000000), wk =   0.0005859
        k(  177) = (   0.0000000  -0.5000000   0.0000000), wk =   0.0002930
        k(  178) = (   0.0000000  -0.5000000   0.0500000), wk =   0.0005859
        k(  179) = (   0.0000000  -0.5000000   0.1000000), wk =   0.0005859
        k(  180) = (   0.0000000  -0.5000000   0.1500000), wk =   0.0005859
        k(  181) = (   0.0000000  -0.5000000   0.2000000), wk =   0.0005859
        k(  182) = (   0.0000000  -0.5000000   0.2500000), wk =   0.0005859
        k(  183) = (   0.0000000  -0.5000000   0.3000000), wk =   0.0005859
        k(  184) = (   0.0000000  -0.5000000   0.3500000), wk =   0.0005859
        k(  185) = (   0.0000000  -0.5000000   0.4000000), wk =   0.0005859
        k(  186) = (   0.0000000  -0.5000000   0.4500000), wk =   0.0005859
        k(  187) = (   0.0000000  -0.5000000  -0.5000000), wk =   0.0002930
        k(  188) = (   0.0312500   0.0312500   0.0000000), wk =   0.0005859
        k(  189) = (   0.0312500   0.0312500   0.0500000), wk =   0.0011719
        k(  190) = (   0.0312500   0.0312500   0.1000000), wk =   0.0011719
        k(  191) = (   0.0312500   0.0312500   0.1500000), wk =   0.0011719
        k(  192) = (   0.0312500   0.0312500   0.2000000), wk =   0.0011719
        k(  193) = (   0.0312500   0.0312500   0.2500000), wk =   0.0011719
        k(  194) = (   0.0312500   0.0312500   0.3000000), wk =   0.0011719
        k(  195) = (   0.0312500   0.0312500   0.3500000), wk =   0.0011719
        k(  196) = (   0.0312500   0.0312500   0.4000000), wk =   0.0011719
        k(  197) = (   0.0312500   0.0312500   0.4500000), wk =   0.0011719
        k(  198) = (   0.0312500   0.0312500  -0.5000000), wk =   0.0005859
        k(  199) = (   0.0312500   0.0625000   0.0000000), wk =   0.0011719
        k(  200) = (   0.0312500   0.0625000   0.0500000), wk =   0.0023437
        k(  201) = (   0.0312500   0.0625000   0.1000000), wk =   0.0023437
        k(  202) = (   0.0312500   0.0625000   0.1500000), wk =   0.0023437
        k(  203) = (   0.0312500   0.0625000   0.2000000), wk =   0.0023437
        k(  204) = (   0.0312500   0.0625000   0.2500000), wk =   0.0023437
        k(  205) = (   0.0312500   0.0625000   0.3000000), wk =   0.0023437
        k(  206) = (   0.0312500   0.0625000   0.3500000), wk =   0.0023437
        k(  207) = (   0.0312500   0.0625000   0.4000000), wk =   0.0023437
        k(  208) = (   0.0312500   0.0625000   0.4500000), wk =   0.0023437
        k(  209) = (   0.0312500   0.0625000  -0.5000000), wk =   0.0011719
        k(  210) = (   0.0312500   0.0937500   0.0000000), wk =   0.0011719
        k(  211) = (   0.0312500   0.0937500   0.0500000), wk =   0.0023437
        k(  212) = (   0.0312500   0.0937500   0.1000000), wk =   0.0023437
        k(  213) = (   0.0312500   0.0937500   0.1500000), wk =   0.0023437
        k(  214) = (   0.0312500   0.0937500   0.2000000), wk =   0.0023437
        k(  215) = (   0.0312500   0.0937500   0.2500000), wk =   0.0023437
        k(  216) = (   0.0312500   0.0937500   0.3000000), wk =   0.0023437
        k(  217) = (   0.0312500   0.0937500   0.3500000), wk =   0.0023437
        k(  218) = (   0.0312500   0.0937500   0.4000000), wk =   0.0023437
        k(  219) = (   0.0312500   0.0937500   0.4500000), wk =   0.0023437
        k(  220) = (   0.0312500   0.0937500  -0.5000000), wk =   0.0011719
        k(  221) = (   0.0312500   0.1250000   0.0000000), wk =   0.0011719
        k(  222) = (   0.0312500   0.1250000   0.0500000), wk =   0.0023437
        k(  223) = (   0.0312500   0.1250000   0.1000000), wk =   0.0023437
        k(  224) = (   0.0312500   0.1250000   0.1500000), wk =   0.0023437
        k(  225) = (   0.0312500   0.1250000   0.2000000), wk =   0.0023437
        k(  226) = (   0.0312500   0.1250000   0.2500000), wk =   0.0023437
        k(  227) = (   0.0312500   0.1250000   0.3000000), wk =   0.0023437
        k(  228) = (   0.0312500   0.1250000   0.3500000), wk =   0.0023437
        k(  229) = (   0.0312500   0.1250000   0.4000000), wk =   0.0023437
        k(  230) = (   0.0312500   0.1250000   0.4500000), wk =   0.0023437
        k(  231) = (   0.0312500   0.1250000  -0.5000000), wk =   0.0011719
        k(  232) = (   0.0312500   0.1562500   0.0000000), wk =   0.0011719
        k(  233) = (   0.0312500   0.1562500   0.0500000), wk =   0.0023437
        k(  234) = (   0.0312500   0.1562500   0.1000000), wk =   0.0023437
        k(  235) = (   0.0312500   0.1562500   0.1500000), wk =   0.0023437
        k(  236) = (   0.0312500   0.1562500   0.2000000), wk =   0.0023437
        k(  237) = (   0.0312500   0.1562500   0.2500000), wk =   0.0023437
        k(  238) = (   0.0312500   0.1562500   0.3000000), wk =   0.0023437
        k(  239) = (   0.0312500   0.1562500   0.3500000), wk =   0.0023437
        k(  240) = (   0.0312500   0.1562500   0.4000000), wk =   0.0023437
        k(  241) = (   0.0312500   0.1562500   0.4500000), wk =   0.0023437
        k(  242) = (   0.0312500   0.1562500  -0.5000000), wk =   0.0011719
        k(  243) = (   0.0312500   0.1875000   0.0000000), wk =   0.0011719
        k(  244) = (   0.0312500   0.1875000   0.0500000), wk =   0.0023437
        k(  245) = (   0.0312500   0.1875000   0.1000000), wk =   0.0023437
        k(  246) = (   0.0312500   0.1875000   0.1500000), wk =   0.0023437
        k(  247) = (   0.0312500   0.1875000   0.2000000), wk =   0.0023437
        k(  248) = (   0.0312500   0.1875000   0.2500000), wk =   0.0023437
        k(  249) = (   0.0312500   0.1875000   0.3000000), wk =   0.0023437
        k(  250) = (   0.0312500   0.1875000   0.3500000), wk =   0.0023437
        k(  251) = (   0.0312500   0.1875000   0.4000000), wk =   0.0023437
        k(  252) = (   0.0312500   0.1875000   0.4500000), wk =   0.0023437
        k(  253) = (   0.0312500   0.1875000  -0.5000000), wk =   0.0011719
        k(  254) = (   0.0312500   0.2187500   0.0000000), wk =   0.0011719
        k(  255) = (   0.0312500   0.2187500   0.0500000), wk =   0.0023437
        k(  256) = (   0.0312500   0.2187500   0.1000000), wk =   0.0023437
        k(  257) = (   0.0312500   0.2187500   0.1500000), wk =   0.0023437
        k(  258) = (   0.0312500   0.2187500   0.2000000), wk =   0.0023437
        k(  259) = (   0.0312500   0.2187500   0.2500000), wk =   0.0023437
        k(  260) = (   0.0312500   0.2187500   0.3000000), wk =   0.0023437
        k(  261) = (   0.0312500   0.2187500   0.3500000), wk =   0.0023437
        k(  262) = (   0.0312500   0.2187500   0.4000000), wk =   0.0023437
        k(  263) = (   0.0312500   0.2187500   0.4500000), wk =   0.0023437
        k(  264) = (   0.0312500   0.2187500  -0.5000000), wk =   0.0011719
        k(  265) = (   0.0312500   0.2500000   0.0000000), wk =   0.0011719
        k(  266) = (   0.0312500   0.2500000   0.0500000), wk =   0.0023437
        k(  267) = (   0.0312500   0.2500000   0.1000000), wk =   0.0023437
        k(  268) = (   0.0312500   0.2500000   0.1500000), wk =   0.0023437
        k(  269) = (   0.0312500   0.2500000   0.2000000), wk =   0.0023437
        k(  270) = (   0.0312500   0.2500000   0.2500000), wk =   0.0023437
        k(  271) = (   0.0312500   0.2500000   0.3000000), wk =   0.0023437
        k(  272) = (   0.0312500   0.2500000   0.3500000), wk =   0.0023437
        k(  273) = (   0.0312500   0.2500000   0.4000000), wk =   0.0023437
        k(  274) = (   0.0312500   0.2500000   0.4500000), wk =   0.0023437
        k(  275) = (   0.0312500   0.2500000  -0.5000000), wk =   0.0011719
        k(  276) = (   0.0312500   0.2812500   0.0000000), wk =   0.0011719
        k(  277) = (   0.0312500   0.2812500   0.0500000), wk =   0.0023437
        k(  278) = (   0.0312500   0.2812500   0.1000000), wk =   0.0023437
        k(  279) = (   0.0312500   0.2812500   0.1500000), wk =   0.0023437
        k(  280) = (   0.0312500   0.2812500   0.2000000), wk =   0.0023437
        k(  281) = (   0.0312500   0.2812500   0.2500000), wk =   0.0023437
        k(  282) = (   0.0312500   0.2812500   0.3000000), wk =   0.0023437
        k(  283) = (   0.0312500   0.2812500   0.3500000), wk =   0.0023437
        k(  284) = (   0.0312500   0.2812500   0.4000000), wk =   0.0023437
        k(  285) = (   0.0312500   0.2812500   0.4500000), wk =   0.0023437
        k(  286) = (   0.0312500   0.2812500  -0.5000000), wk =   0.0011719
        k(  287) = (   0.0312500   0.3125000   0.0000000), wk =   0.0011719
        k(  288) = (   0.0312500   0.3125000   0.0500000), wk =   0.0023437
        k(  289) = (   0.0312500   0.3125000   0.1000000), wk =   0.0023437
        k(  290) = (   0.0312500   0.3125000   0.1500000), wk =   0.0023437
        k(  291) = (   0.0312500   0.3125000   0.2000000), wk =   0.0023437
        k(  292) = (   0.0312500   0.3125000   0.2500000), wk =   0.0023437
        k(  293) = (   0.0312500   0.3125000   0.3000000), wk =   0.0023437
        k(  294) = (   0.0312500   0.3125000   0.3500000), wk =   0.0023437
        k(  295) = (   0.0312500   0.3125000   0.4000000), wk =   0.0023437
        k(  296) = (   0.0312500   0.3125000   0.4500000), wk =   0.0023437
        k(  297) = (   0.0312500   0.3125000  -0.5000000), wk =   0.0011719
        k(  298) = (   0.0312500   0.3437500   0.0000000), wk =   0.0011719
        k(  299) = (   0.0312500   0.3437500   0.0500000), wk =   0.0023437
        k(  300) = (   0.0312500   0.3437500   0.1000000), wk =   0.0023437
        k(  301) = (   0.0312500   0.3437500   0.1500000), wk =   0.0023437
        k(  302) = (   0.0312500   0.3437500   0.2000000), wk =   0.0023437
        k(  303) = (   0.0312500   0.3437500   0.2500000), wk =   0.0023437
        k(  304) = (   0.0312500   0.3437500   0.3000000), wk =   0.0023437
        k(  305) = (   0.0312500   0.3437500   0.3500000), wk =   0.0023437
        k(  306) = (   0.0312500   0.3437500   0.4000000), wk =   0.0023437
        k(  307) = (   0.0312500   0.3437500   0.4500000), wk =   0.0023437
        k(  308) = (   0.0312500   0.3437500  -0.5000000), wk =   0.0011719
        k(  309) = (   0.0312500   0.3750000   0.0000000), wk =   0.0011719
        k(  310) = (   0.0312500   0.3750000   0.0500000), wk =   0.0023437
        k(  311) = (   0.0312500   0.3750000   0.1000000), wk =   0.0023437
        k(  312) = (   0.0312500   0.3750000   0.1500000), wk =   0.0023437
        k(  313) = (   0.0312500   0.3750000   0.2000000), wk =   0.0023437
        k(  314) = (   0.0312500   0.3750000   0.2500000), wk =   0.0023437
        k(  315) = (   0.0312500   0.3750000   0.3000000), wk =   0.0023437
        k(  316) = (   0.0312500   0.3750000   0.3500000), wk =   0.0023437
        k(  317) = (   0.0312500   0.3750000   0.4000000), wk =   0.0023437
        k(  318) = (   0.0312500   0.3750000   0.4500000), wk =   0.0023437
        k(  319) = (   0.0312500   0.3750000  -0.5000000), wk =   0.0011719
        k(  320) = (   0.0312500   0.4062500   0.0000000), wk =   0.0011719
        k(  321) = (   0.0312500   0.4062500   0.0500000), wk =   0.0023437
        k(  322) = (   0.0312500   0.4062500   0.1000000), wk =   0.0023437
        k(  323) = (   0.0312500   0.4062500   0.1500000), wk =   0.0023437
        k(  324) = (   0.0312500   0.4062500   0.2000000), wk =   0.0023437
        k(  325) = (   0.0312500   0.4062500   0.2500000), wk =   0.0023437
        k(  326) = (   0.0312500   0.4062500   0.3000000), wk =   0.0023437
        k(  327) = (   0.0312500   0.4062500   0.3500000), wk =   0.0023437
        k(  328) = (   0.0312500   0.4062500   0.4000000), wk =   0.0023437
        k(  329) = (   0.0312500   0.4062500   0.4500000), wk =   0.0023437
        k(  330) = (   0.0312500   0.4062500  -0.5000000), wk =   0.0011719
        k(  331) = (   0.0312500   0.4375000   0.0000000), wk =   0.0011719
        k(  332) = (   0.0312500   0.4375000   0.0500000), wk =   0.0023437
        k(  333) = (   0.0312500   0.4375000   0.1000000), wk =   0.0023437
        k(  334) = (   0.0312500   0.4375000   0.1500000), wk =   0.0023437
        k(  335) = (   0.0312500   0.4375000   0.2000000), wk =   0.0023437
        k(  336) = (   0.0312500   0.4375000   0.2500000), wk =   0.0023437
        k(  337) = (   0.0312500   0.4375000   0.3000000), wk =   0.0023437
        k(  338) = (   0.0312500   0.4375000   0.3500000), wk =   0.0023437
        k(  339) = (   0.0312500   0.4375000   0.4000000), wk =   0.0023437
        k(  340) = (   0.0312500   0.4375000   0.4500000), wk =   0.0023437
        k(  341) = (   0.0312500   0.4375000  -0.5000000), wk =   0.0011719
        k(  342) = (   0.0312500   0.4687500   0.0000000), wk =   0.0011719
        k(  343) = (   0.0312500   0.4687500   0.0500000), wk =   0.0023437
        k(  344) = (   0.0312500   0.4687500   0.1000000), wk =   0.0023437
        k(  345) = (   0.0312500   0.4687500   0.1500000), wk =   0.0023437
        k(  346) = (   0.0312500   0.4687500   0.2000000), wk =   0.0023437
        k(  347) = (   0.0312500   0.4687500   0.2500000), wk =   0.0023437
        k(  348) = (   0.0312500   0.4687500   0.3000000), wk =   0.0023437
        k(  349) = (   0.0312500   0.4687500   0.3500000), wk =   0.0023437
        k(  350) = (   0.0312500   0.4687500   0.4000000), wk =   0.0023437
        k(  351) = (   0.0312500   0.4687500   0.4500000), wk =   0.0023437
        k(  352) = (   0.0312500   0.4687500  -0.5000000), wk =   0.0011719
        k(  353) = (   0.0625000   0.0625000   0.0000000), wk =   0.0005859
        k(  354) = (   0.0625000   0.0625000   0.0500000), wk =   0.0011719
        k(  355) = (   0.0625000   0.0625000   0.1000000), wk =   0.0011719
        k(  356) = (   0.0625000   0.0625000   0.1500000), wk =   0.0011719
        k(  357) = (   0.0625000   0.0625000   0.2000000), wk =   0.0011719
        k(  358) = (   0.0625000   0.0625000   0.2500000), wk =   0.0011719
        k(  359) = (   0.0625000   0.0625000   0.3000000), wk =   0.0011719
        k(  360) = (   0.0625000   0.0625000   0.3500000), wk =   0.0011719
        k(  361) = (   0.0625000   0.0625000   0.4000000), wk =   0.0011719
        k(  362) = (   0.0625000   0.0625000   0.4500000), wk =   0.0011719
        k(  363) = (   0.0625000   0.0625000  -0.5000000), wk =   0.0005859
        k(  364) = (   0.0625000   0.0937500   0.0000000), wk =   0.0011719
        k(  365) = (   0.0625000   0.0937500   0.0500000), wk =   0.0023437
        k(  366) = (   0.0625000   0.0937500   0.1000000), wk =   0.0023437
        k(  367) = (   0.0625000   0.0937500   0.1500000), wk =   0.0023437
        k(  368) = (   0.0625000   0.0937500   0.2000000), wk =   0.0023437
        k(  369) = (   0.0625000   0.0937500   0.2500000), wk =   0.0023437
        k(  370) = (   0.0625000   0.0937500   0.3000000), wk =   0.0023437
        k(  371) = (   0.0625000   0.0937500   0.3500000), wk =   0.0023437
        k(  372) = (   0.0625000   0.0937500   0.4000000), wk =   0.0023437
        k(  373) = (   0.0625000   0.0937500   0.4500000), wk =   0.0023437
        k(  374) = (   0.0625000   0.0937500  -0.5000000), wk =   0.0011719
        k(  375) = (   0.0625000   0.1250000   0.0000000), wk =   0.0011719
        k(  376) = (   0.0625000   0.1250000   0.0500000), wk =   0.0023437
        k(  377) = (   0.0625000   0.1250000   0.1000000), wk =   0.0023437
        k(  378) = (   0.0625000   0.1250000   0.1500000), wk =   0.0023437
        k(  379) = (   0.0625000   0.1250000   0.2000000), wk =   0.0023437
        k(  380) = (   0.0625000   0.1250000   0.2500000), wk =   0.0023437
        k(  381) = (   0.0625000   0.1250000   0.3000000), wk =   0.0023437
        k(  382) = (   0.0625000   0.1250000   0.3500000), wk =   0.0023437
        k(  383) = (   0.0625000   0.1250000   0.4000000), wk =   0.0023437
        k(  384) = (   0.0625000   0.1250000   0.4500000), wk =   0.0023437
        k(  385) = (   0.0625000   0.1250000  -0.5000000), wk =   0.0011719
        k(  386) = (   0.0625000   0.1562500   0.0000000), wk =   0.0011719
        k(  387) = (   0.0625000   0.1562500   0.0500000), wk =   0.0023437
        k(  388) = (   0.0625000   0.1562500   0.1000000), wk =   0.0023437
        k(  389) = (   0.0625000   0.1562500   0.1500000), wk =   0.0023437
        k(  390) = (   0.0625000   0.1562500   0.2000000), wk =   0.0023437
        k(  391) = (   0.0625000   0.1562500   0.2500000), wk =   0.0023437
        k(  392) = (   0.0625000   0.1562500   0.3000000), wk =   0.0023437
        k(  393) = (   0.0625000   0.1562500   0.3500000), wk =   0.0023437
        k(  394) = (   0.0625000   0.1562500   0.4000000), wk =   0.0023437
        k(  395) = (   0.0625000   0.1562500   0.4500000), wk =   0.0023437
        k(  396) = (   0.0625000   0.1562500  -0.5000000), wk =   0.0011719
        k(  397) = (   0.0625000   0.1875000   0.0000000), wk =   0.0011719
        k(  398) = (   0.0625000   0.1875000   0.0500000), wk =   0.0023437
        k(  399) = (   0.0625000   0.1875000   0.1000000), wk =   0.0023437
        k(  400) = (   0.0625000   0.1875000   0.1500000), wk =   0.0023437
        k(  401) = (   0.0625000   0.1875000   0.2000000), wk =   0.0023437
        k(  402) = (   0.0625000   0.1875000   0.2500000), wk =   0.0023437
        k(  403) = (   0.0625000   0.1875000   0.3000000), wk =   0.0023437
        k(  404) = (   0.0625000   0.1875000   0.3500000), wk =   0.0023437
        k(  405) = (   0.0625000   0.1875000   0.4000000), wk =   0.0023437
        k(  406) = (   0.0625000   0.1875000   0.4500000), wk =   0.0023437
        k(  407) = (   0.0625000   0.1875000  -0.5000000), wk =   0.0011719
        k(  408) = (   0.0625000   0.2187500   0.0000000), wk =   0.0011719
        k(  409) = (   0.0625000   0.2187500   0.0500000), wk =   0.0023437
        k(  410) = (   0.0625000   0.2187500   0.1000000), wk =   0.0023437
        k(  411) = (   0.0625000   0.2187500   0.1500000), wk =   0.0023437
        k(  412) = (   0.0625000   0.2187500   0.2000000), wk =   0.0023437
        k(  413) = (   0.0625000   0.2187500   0.2500000), wk =   0.0023437
        k(  414) = (   0.0625000   0.2187500   0.3000000), wk =   0.0023437
        k(  415) = (   0.0625000   0.2187500   0.3500000), wk =   0.0023437
        k(  416) = (   0.0625000   0.2187500   0.4000000), wk =   0.0023437
        k(  417) = (   0.0625000   0.2187500   0.4500000), wk =   0.0023437
        k(  418) = (   0.0625000   0.2187500  -0.5000000), wk =   0.0011719
        k(  419) = (   0.0625000   0.2500000   0.0000000), wk =   0.0011719
        k(  420) = (   0.0625000   0.2500000   0.0500000), wk =   0.0023437
        k(  421) = (   0.0625000   0.2500000   0.1000000), wk =   0.0023437
        k(  422) = (   0.0625000   0.2500000   0.1500000), wk =   0.0023437
        k(  423) = (   0.0625000   0.2500000   0.2000000), wk =   0.0023437
        k(  424) = (   0.0625000   0.2500000   0.2500000), wk =   0.0023437
        k(  425) = (   0.0625000   0.2500000   0.3000000), wk =   0.0023437
        k(  426) = (   0.0625000   0.2500000   0.3500000), wk =   0.0023437
        k(  427) = (   0.0625000   0.2500000   0.4000000), wk =   0.0023437
        k(  428) = (   0.0625000   0.2500000   0.4500000), wk =   0.0023437
        k(  429) = (   0.0625000   0.2500000  -0.5000000), wk =   0.0011719
        k(  430) = (   0.0625000   0.2812500   0.0000000), wk =   0.0011719
        k(  431) = (   0.0625000   0.2812500   0.0500000), wk =   0.0023437
        k(  432) = (   0.0625000   0.2812500   0.1000000), wk =   0.0023437
        k(  433) = (   0.0625000   0.2812500   0.1500000), wk =   0.0023437
        k(  434) = (   0.0625000   0.2812500   0.2000000), wk =   0.0023437
        k(  435) = (   0.0625000   0.2812500   0.2500000), wk =   0.0023437
        k(  436) = (   0.0625000   0.2812500   0.3000000), wk =   0.0023437
        k(  437) = (   0.0625000   0.2812500   0.3500000), wk =   0.0023437
        k(  438) = (   0.0625000   0.2812500   0.4000000), wk =   0.0023437
        k(  439) = (   0.0625000   0.2812500   0.4500000), wk =   0.0023437
        k(  440) = (   0.0625000   0.2812500  -0.5000000), wk =   0.0011719
        k(  441) = (   0.0625000   0.3125000   0.0000000), wk =   0.0011719
        k(  442) = (   0.0625000   0.3125000   0.0500000), wk =   0.0023437
        k(  443) = (   0.0625000   0.3125000   0.1000000), wk =   0.0023437
        k(  444) = (   0.0625000   0.3125000   0.1500000), wk =   0.0023437
        k(  445) = (   0.0625000   0.3125000   0.2000000), wk =   0.0023437
        k(  446) = (   0.0625000   0.3125000   0.2500000), wk =   0.0023437
        k(  447) = (   0.0625000   0.3125000   0.3000000), wk =   0.0023437
        k(  448) = (   0.0625000   0.3125000   0.3500000), wk =   0.0023437
        k(  449) = (   0.0625000   0.3125000   0.4000000), wk =   0.0023437
        k(  450) = (   0.0625000   0.3125000   0.4500000), wk =   0.0023437
        k(  451) = (   0.0625000   0.3125000  -0.5000000), wk =   0.0011719
        k(  452) = (   0.0625000   0.3437500   0.0000000), wk =   0.0011719
        k(  453) = (   0.0625000   0.3437500   0.0500000), wk =   0.0023437
        k(  454) = (   0.0625000   0.3437500   0.1000000), wk =   0.0023437
        k(  455) = (   0.0625000   0.3437500   0.1500000), wk =   0.0023437
        k(  456) = (   0.0625000   0.3437500   0.2000000), wk =   0.0023437
        k(  457) = (   0.0625000   0.3437500   0.2500000), wk =   0.0023437
        k(  458) = (   0.0625000   0.3437500   0.3000000), wk =   0.0023437
        k(  459) = (   0.0625000   0.3437500   0.3500000), wk =   0.0023437
        k(  460) = (   0.0625000   0.3437500   0.4000000), wk =   0.0023437
        k(  461) = (   0.0625000   0.3437500   0.4500000), wk =   0.0023437
        k(  462) = (   0.0625000   0.3437500  -0.5000000), wk =   0.0011719
        k(  463) = (   0.0625000   0.3750000   0.0000000), wk =   0.0011719
        k(  464) = (   0.0625000   0.3750000   0.0500000), wk =   0.0023437
        k(  465) = (   0.0625000   0.3750000   0.1000000), wk =   0.0023437
        k(  466) = (   0.0625000   0.3750000   0.1500000), wk =   0.0023437
        k(  467) = (   0.0625000   0.3750000   0.2000000), wk =   0.0023437
        k(  468) = (   0.0625000   0.3750000   0.2500000), wk =   0.0023437
        k(  469) = (   0.0625000   0.3750000   0.3000000), wk =   0.0023437
        k(  470) = (   0.0625000   0.3750000   0.3500000), wk =   0.0023437
        k(  471) = (   0.0625000   0.3750000   0.4000000), wk =   0.0023437
        k(  472) = (   0.0625000   0.3750000   0.4500000), wk =   0.0023437
        k(  473) = (   0.0625000   0.3750000  -0.5000000), wk =   0.0011719
        k(  474) = (   0.0625000   0.4062500   0.0000000), wk =   0.0011719
        k(  475) = (   0.0625000   0.4062500   0.0500000), wk =   0.0023437
        k(  476) = (   0.0625000   0.4062500   0.1000000), wk =   0.0023437
        k(  477) = (   0.0625000   0.4062500   0.1500000), wk =   0.0023437
        k(  478) = (   0.0625000   0.4062500   0.2000000), wk =   0.0023437
        k(  479) = (   0.0625000   0.4062500   0.2500000), wk =   0.0023437
        k(  480) = (   0.0625000   0.4062500   0.3000000), wk =   0.0023437
        k(  481) = (   0.0625000   0.4062500   0.3500000), wk =   0.0023437
        k(  482) = (   0.0625000   0.4062500   0.4000000), wk =   0.0023437
        k(  483) = (   0.0625000   0.4062500   0.4500000), wk =   0.0023437
        k(  484) = (   0.0625000   0.4062500  -0.5000000), wk =   0.0011719
        k(  485) = (   0.0625000   0.4375000   0.0000000), wk =   0.0011719
        k(  486) = (   0.0625000   0.4375000   0.0500000), wk =   0.0023437
        k(  487) = (   0.0625000   0.4375000   0.1000000), wk =   0.0023437
        k(  488) = (   0.0625000   0.4375000   0.1500000), wk =   0.0023437
        k(  489) = (   0.0625000   0.4375000   0.2000000), wk =   0.0023437
        k(  490) = (   0.0625000   0.4375000   0.2500000), wk =   0.0023437
        k(  491) = (   0.0625000   0.4375000   0.3000000), wk =   0.0023437
        k(  492) = (   0.0625000   0.4375000   0.3500000), wk =   0.0023437
        k(  493) = (   0.0625000   0.4375000   0.4000000), wk =   0.0023437
        k(  494) = (   0.0625000   0.4375000   0.4500000), wk =   0.0023437
        k(  495) = (   0.0625000   0.4375000  -0.5000000), wk =   0.0011719
        k(  496) = (   0.0625000   0.4687500   0.0000000), wk =   0.0005859
        k(  497) = (   0.0625000   0.4687500   0.0500000), wk =   0.0011719
        k(  498) = (   0.0625000   0.4687500   0.1000000), wk =   0.0011719
        k(  499) = (   0.0625000   0.4687500   0.1500000), wk =   0.0011719
        k(  500) = (   0.0625000   0.4687500   0.2000000), wk =   0.0011719
        k(  501) = (   0.0625000   0.4687500   0.2500000), wk =   0.0011719
        k(  502) = (   0.0625000   0.4687500   0.3000000), wk =   0.0011719
        k(  503) = (   0.0625000   0.4687500   0.3500000), wk =   0.0011719
        k(  504) = (   0.0625000   0.4687500   0.4000000), wk =   0.0011719
        k(  505) = (   0.0625000   0.4687500   0.4500000), wk =   0.0011719
        k(  506) = (   0.0625000   0.4687500  -0.5000000), wk =   0.0005859
        k(  507) = (   0.0937500   0.0937500   0.0000000), wk =   0.0005859
        k(  508) = (   0.0937500   0.0937500   0.0500000), wk =   0.0011719
        k(  509) = (   0.0937500   0.0937500   0.1000000), wk =   0.0011719
        k(  510) = (   0.0937500   0.0937500   0.1500000), wk =   0.0011719
        k(  511) = (   0.0937500   0.0937500   0.2000000), wk =   0.0011719
        k(  512) = (   0.0937500   0.0937500   0.2500000), wk =   0.0011719
        k(  513) = (   0.0937500   0.0937500   0.3000000), wk =   0.0011719
        k(  514) = (   0.0937500   0.0937500   0.3500000), wk =   0.0011719
        k(  515) = (   0.0937500   0.0937500   0.4000000), wk =   0.0011719
        k(  516) = (   0.0937500   0.0937500   0.4500000), wk =   0.0011719
        k(  517) = (   0.0937500   0.0937500  -0.5000000), wk =   0.0005859
        k(  518) = (   0.0937500   0.1250000   0.0000000), wk =   0.0011719
        k(  519) = (   0.0937500   0.1250000   0.0500000), wk =   0.0023437
        k(  520) = (   0.0937500   0.1250000   0.1000000), wk =   0.0023437
        k(  521) = (   0.0937500   0.1250000   0.1500000), wk =   0.0023437
        k(  522) = (   0.0937500   0.1250000   0.2000000), wk =   0.0023437
        k(  523) = (   0.0937500   0.1250000   0.2500000), wk =   0.0023437
        k(  524) = (   0.0937500   0.1250000   0.3000000), wk =   0.0023437
        k(  525) = (   0.0937500   0.1250000   0.3500000), wk =   0.0023437
        k(  526) = (   0.0937500   0.1250000   0.4000000), wk =   0.0023437
        k(  527) = (   0.0937500   0.1250000   0.4500000), wk =   0.0023437
        k(  528) = (   0.0937500   0.1250000  -0.5000000), wk =   0.0011719
        k(  529) = (   0.0937500   0.1562500   0.0000000), wk =   0.0011719
        k(  530) = (   0.0937500   0.1562500   0.0500000), wk =   0.0023437
        k(  531) = (   0.0937500   0.1562500   0.1000000), wk =   0.0023437
        k(  532) = (   0.0937500   0.1562500   0.1500000), wk =   0.0023437
        k(  533) = (   0.0937500   0.1562500   0.2000000), wk =   0.0023437
        k(  534) = (   0.0937500   0.1562500   0.2500000), wk =   0.0023437
        k(  535) = (   0.0937500   0.1562500   0.3000000), wk =   0.0023437
        k(  536) = (   0.0937500   0.1562500   0.3500000), wk =   0.0023437
        k(  537) = (   0.0937500   0.1562500   0.4000000), wk =   0.0023437
        k(  538) = (   0.0937500   0.1562500   0.4500000), wk =   0.0023437
        k(  539) = (   0.0937500   0.1562500  -0.5000000), wk =   0.0011719
        k(  540) = (   0.0937500   0.1875000   0.0000000), wk =   0.0011719
        k(  541) = (   0.0937500   0.1875000   0.0500000), wk =   0.0023437
        k(  542) = (   0.0937500   0.1875000   0.1000000), wk =   0.0023437
        k(  543) = (   0.0937500   0.1875000   0.1500000), wk =   0.0023437
        k(  544) = (   0.0937500   0.1875000   0.2000000), wk =   0.0023437
        k(  545) = (   0.0937500   0.1875000   0.2500000), wk =   0.0023437
        k(  546) = (   0.0937500   0.1875000   0.3000000), wk =   0.0023437
        k(  547) = (   0.0937500   0.1875000   0.3500000), wk =   0.0023437
        k(  548) = (   0.0937500   0.1875000   0.4000000), wk =   0.0023437
        k(  549) = (   0.0937500   0.1875000   0.4500000), wk =   0.0023437
        k(  550) = (   0.0937500   0.1875000  -0.5000000), wk =   0.0011719
        k(  551) = (   0.0937500   0.2187500   0.0000000), wk =   0.0011719
        k(  552) = (   0.0937500   0.2187500   0.0500000), wk =   0.0023437
        k(  553) = (   0.0937500   0.2187500   0.1000000), wk =   0.0023437
        k(  554) = (   0.0937500   0.2187500   0.1500000), wk =   0.0023437
        k(  555) = (   0.0937500   0.2187500   0.2000000), wk =   0.0023437
        k(  556) = (   0.0937500   0.2187500   0.2500000), wk =   0.0023437
        k(  557) = (   0.0937500   0.2187500   0.3000000), wk =   0.0023437
        k(  558) = (   0.0937500   0.2187500   0.3500000), wk =   0.0023437
        k(  559) = (   0.0937500   0.2187500   0.4000000), wk =   0.0023437
        k(  560) = (   0.0937500   0.2187500   0.4500000), wk =   0.0023437
        k(  561) = (   0.0937500   0.2187500  -0.5000000), wk =   0.0011719
        k(  562) = (   0.0937500   0.2500000   0.0000000), wk =   0.0011719
        k(  563) = (   0.0937500   0.2500000   0.0500000), wk =   0.0023437
        k(  564) = (   0.0937500   0.2500000   0.1000000), wk =   0.0023437
        k(  565) = (   0.0937500   0.2500000   0.1500000), wk =   0.0023437
        k(  566) = (   0.0937500   0.2500000   0.2000000), wk =   0.0023437
        k(  567) = (   0.0937500   0.2500000   0.2500000), wk =   0.0023437
        k(  568) = (   0.0937500   0.2500000   0.3000000), wk =   0.0023437
        k(  569) = (   0.0937500   0.2500000   0.3500000), wk =   0.0023437
        k(  570) = (   0.0937500   0.2500000   0.4000000), wk =   0.0023437
        k(  571) = (   0.0937500   0.2500000   0.4500000), wk =   0.0023437
        k(  572) = (   0.0937500   0.2500000  -0.5000000), wk =   0.0011719
        k(  573) = (   0.0937500   0.2812500   0.0000000), wk =   0.0011719
        k(  574) = (   0.0937500   0.2812500   0.0500000), wk =   0.0023437
        k(  575) = (   0.0937500   0.2812500   0.1000000), wk =   0.0023437
        k(  576) = (   0.0937500   0.2812500   0.1500000), wk =   0.0023437
        k(  577) = (   0.0937500   0.2812500   0.2000000), wk =   0.0023437
        k(  578) = (   0.0937500   0.2812500   0.2500000), wk =   0.0023437
        k(  579) = (   0.0937500   0.2812500   0.3000000), wk =   0.0023437
        k(  580) = (   0.0937500   0.2812500   0.3500000), wk =   0.0023437
        k(  581) = (   0.0937500   0.2812500   0.4000000), wk =   0.0023437
        k(  582) = (   0.0937500   0.2812500   0.4500000), wk =   0.0023437
        k(  583) = (   0.0937500   0.2812500  -0.5000000), wk =   0.0011719
        k(  584) = (   0.0937500   0.3125000   0.0000000), wk =   0.0011719
        k(  585) = (   0.0937500   0.3125000   0.0500000), wk =   0.0023437
        k(  586) = (   0.0937500   0.3125000   0.1000000), wk =   0.0023437
        k(  587) = (   0.0937500   0.3125000   0.1500000), wk =   0.0023437
        k(  588) = (   0.0937500   0.3125000   0.2000000), wk =   0.0023437
        k(  589) = (   0.0937500   0.3125000   0.2500000), wk =   0.0023437
        k(  590) = (   0.0937500   0.3125000   0.3000000), wk =   0.0023437
        k(  591) = (   0.0937500   0.3125000   0.3500000), wk =   0.0023437
        k(  592) = (   0.0937500   0.3125000   0.4000000), wk =   0.0023437
        k(  593) = (   0.0937500   0.3125000   0.4500000), wk =   0.0023437
        k(  594) = (   0.0937500   0.3125000  -0.5000000), wk =   0.0011719
        k(  595) = (   0.0937500   0.3437500   0.0000000), wk =   0.0011719
        k(  596) = (   0.0937500   0.3437500   0.0500000), wk =   0.0023437
        k(  597) = (   0.0937500   0.3437500   0.1000000), wk =   0.0023437
        k(  598) = (   0.0937500   0.3437500   0.1500000), wk =   0.0023437
        k(  599) = (   0.0937500   0.3437500   0.2000000), wk =   0.0023437
        k(  600) = (   0.0937500   0.3437500   0.2500000), wk =   0.0023437
        k(  601) = (   0.0937500   0.3437500   0.3000000), wk =   0.0023437
        k(  602) = (   0.0937500   0.3437500   0.3500000), wk =   0.0023437
        k(  603) = (   0.0937500   0.3437500   0.4000000), wk =   0.0023437
        k(  604) = (   0.0937500   0.3437500   0.4500000), wk =   0.0023437
        k(  605) = (   0.0937500   0.3437500  -0.5000000), wk =   0.0011719
        k(  606) = (   0.0937500   0.3750000   0.0000000), wk =   0.0011719
        k(  607) = (   0.0937500   0.3750000   0.0500000), wk =   0.0023437
        k(  608) = (   0.0937500   0.3750000   0.1000000), wk =   0.0023437
        k(  609) = (   0.0937500   0.3750000   0.1500000), wk =   0.0023437
        k(  610) = (   0.0937500   0.3750000   0.2000000), wk =   0.0023437
        k(  611) = (   0.0937500   0.3750000   0.2500000), wk =   0.0023437
        k(  612) = (   0.0937500   0.3750000   0.3000000), wk =   0.0023437
        k(  613) = (   0.0937500   0.3750000   0.3500000), wk =   0.0023437
        k(  614) = (   0.0937500   0.3750000   0.4000000), wk =   0.0023437
        k(  615) = (   0.0937500   0.3750000   0.4500000), wk =   0.0023437
        k(  616) = (   0.0937500   0.3750000  -0.5000000), wk =   0.0011719
        k(  617) = (   0.0937500   0.4062500   0.0000000), wk =   0.0011719
        k(  618) = (   0.0937500   0.4062500   0.0500000), wk =   0.0023437
        k(  619) = (   0.0937500   0.4062500   0.1000000), wk =   0.0023437
        k(  620) = (   0.0937500   0.4062500   0.1500000), wk =   0.0023437
        k(  621) = (   0.0937500   0.4062500   0.2000000), wk =   0.0023437
        k(  622) = (   0.0937500   0.4062500   0.2500000), wk =   0.0023437
        k(  623) = (   0.0937500   0.4062500   0.3000000), wk =   0.0023437
        k(  624) = (   0.0937500   0.4062500   0.3500000), wk =   0.0023437
        k(  625) = (   0.0937500   0.4062500   0.4000000), wk =   0.0023437
        k(  626) = (   0.0937500   0.4062500   0.4500000), wk =   0.0023437
        k(  627) = (   0.0937500   0.4062500  -0.5000000), wk =   0.0011719
        k(  628) = (   0.0937500   0.4375000   0.0000000), wk =   0.0011719
        k(  629) = (   0.0937500   0.4375000   0.0500000), wk =   0.0023437
        k(  630) = (   0.0937500   0.4375000   0.1000000), wk =   0.0023437
        k(  631) = (   0.0937500   0.4375000   0.1500000), wk =   0.0023437
        k(  632) = (   0.0937500   0.4375000   0.2000000), wk =   0.0023437
        k(  633) = (   0.0937500   0.4375000   0.2500000), wk =   0.0023437
        k(  634) = (   0.0937500   0.4375000   0.3000000), wk =   0.0023437
        k(  635) = (   0.0937500   0.4375000   0.3500000), wk =   0.0023437
        k(  636) = (   0.0937500   0.4375000   0.4000000), wk =   0.0023437
        k(  637) = (   0.0937500   0.4375000   0.4500000), wk =   0.0023437
        k(  638) = (   0.0937500   0.4375000  -0.5000000), wk =   0.0011719
        k(  639) = (   0.1250000   0.1250000   0.0000000), wk =   0.0005859
        k(  640) = (   0.1250000   0.1250000   0.0500000), wk =   0.0011719
        k(  641) = (   0.1250000   0.1250000   0.1000000), wk =   0.0011719
        k(  642) = (   0.1250000   0.1250000   0.1500000), wk =   0.0011719
        k(  643) = (   0.1250000   0.1250000   0.2000000), wk =   0.0011719
        k(  644) = (   0.1250000   0.1250000   0.2500000), wk =   0.0011719
        k(  645) = (   0.1250000   0.1250000   0.3000000), wk =   0.0011719
        k(  646) = (   0.1250000   0.1250000   0.3500000), wk =   0.0011719
        k(  647) = (   0.1250000   0.1250000   0.4000000), wk =   0.0011719
        k(  648) = (   0.1250000   0.1250000   0.4500000), wk =   0.0011719
        k(  649) = (   0.1250000   0.1250000  -0.5000000), wk =   0.0005859
        k(  650) = (   0.1250000   0.1562500   0.0000000), wk =   0.0011719
        k(  651) = (   0.1250000   0.1562500   0.0500000), wk =   0.0023437
        k(  652) = (   0.1250000   0.1562500   0.1000000), wk =   0.0023437
        k(  653) = (   0.1250000   0.1562500   0.1500000), wk =   0.0023437
        k(  654) = (   0.1250000   0.1562500   0.2000000), wk =   0.0023437
        k(  655) = (   0.1250000   0.1562500   0.2500000), wk =   0.0023437
        k(  656) = (   0.1250000   0.1562500   0.3000000), wk =   0.0023437
        k(  657) = (   0.1250000   0.1562500   0.3500000), wk =   0.0023437
        k(  658) = (   0.1250000   0.1562500   0.4000000), wk =   0.0023437
        k(  659) = (   0.1250000   0.1562500   0.4500000), wk =   0.0023437
        k(  660) = (   0.1250000   0.1562500  -0.5000000), wk =   0.0011719
        k(  661) = (   0.1250000   0.1875000   0.0000000), wk =   0.0011719
        k(  662) = (   0.1250000   0.1875000   0.0500000), wk =   0.0023437
        k(  663) = (   0.1250000   0.1875000   0.1000000), wk =   0.0023437
        k(  664) = (   0.1250000   0.1875000   0.1500000), wk =   0.0023437
        k(  665) = (   0.1250000   0.1875000   0.2000000), wk =   0.0023437
        k(  666) = (   0.1250000   0.1875000   0.2500000), wk =   0.0023437
        k(  667) = (   0.1250000   0.1875000   0.3000000), wk =   0.0023437
        k(  668) = (   0.1250000   0.1875000   0.3500000), wk =   0.0023437
        k(  669) = (   0.1250000   0.1875000   0.4000000), wk =   0.0023437
        k(  670) = (   0.1250000   0.1875000   0.4500000), wk =   0.0023437
        k(  671) = (   0.1250000   0.1875000  -0.5000000), wk =   0.0011719
        k(  672) = (   0.1250000   0.2187500   0.0000000), wk =   0.0011719
        k(  673) = (   0.1250000   0.2187500   0.0500000), wk =   0.0023437
        k(  674) = (   0.1250000   0.2187500   0.1000000), wk =   0.0023437
        k(  675) = (   0.1250000   0.2187500   0.1500000), wk =   0.0023437
        k(  676) = (   0.1250000   0.2187500   0.2000000), wk =   0.0023437
        k(  677) = (   0.1250000   0.2187500   0.2500000), wk =   0.0023437
        k(  678) = (   0.1250000   0.2187500   0.3000000), wk =   0.0023437
        k(  679) = (   0.1250000   0.2187500   0.3500000), wk =   0.0023437
        k(  680) = (   0.1250000   0.2187500   0.4000000), wk =   0.0023437
        k(  681) = (   0.1250000   0.2187500   0.4500000), wk =   0.0023437
        k(  682) = (   0.1250000   0.2187500  -0.5000000), wk =   0.0011719
        k(  683) = (   0.1250000   0.2500000   0.0000000), wk =   0.0011719
        k(  684) = (   0.1250000   0.2500000   0.0500000), wk =   0.0023437
        k(  685) = (   0.1250000   0.2500000   0.1000000), wk =   0.0023437
        k(  686) = (   0.1250000   0.2500000   0.1500000), wk =   0.0023437
        k(  687) = (   0.1250000   0.2500000   0.2000000), wk =   0.0023437
        k(  688) = (   0.1250000   0.2500000   0.2500000), wk =   0.0023437
        k(  689) = (   0.1250000   0.2500000   0.3000000), wk =   0.0023437
        k(  690) = (   0.1250000   0.2500000   0.3500000), wk =   0.0023437
        k(  691) = (   0.1250000   0.2500000   0.4000000), wk =   0.0023437
        k(  692) = (   0.1250000   0.2500000   0.4500000), wk =   0.0023437
        k(  693) = (   0.1250000   0.2500000  -0.5000000), wk =   0.0011719
        k(  694) = (   0.1250000   0.2812500   0.0000000), wk =   0.0011719
        k(  695) = (   0.1250000   0.2812500   0.0500000), wk =   0.0023437
        k(  696) = (   0.1250000   0.2812500   0.1000000), wk =   0.0023437
        k(  697) = (   0.1250000   0.2812500   0.1500000), wk =   0.0023437
        k(  698) = (   0.1250000   0.2812500   0.2000000), wk =   0.0023437
        k(  699) = (   0.1250000   0.2812500   0.2500000), wk =   0.0023437
        k(  700) = (   0.1250000   0.2812500   0.3000000), wk =   0.0023437
        k(  701) = (   0.1250000   0.2812500   0.3500000), wk =   0.0023437
        k(  702) = (   0.1250000   0.2812500   0.4000000), wk =   0.0023437
        k(  703) = (   0.1250000   0.2812500   0.4500000), wk =   0.0023437
        k(  704) = (   0.1250000   0.2812500  -0.5000000), wk =   0.0011719
        k(  705) = (   0.1250000   0.3125000   0.0000000), wk =   0.0011719
        k(  706) = (   0.1250000   0.3125000   0.0500000), wk =   0.0023437
        k(  707) = (   0.1250000   0.3125000   0.1000000), wk =   0.0023437
        k(  708) = (   0.1250000   0.3125000   0.1500000), wk =   0.0023437
        k(  709) = (   0.1250000   0.3125000   0.2000000), wk =   0.0023437
        k(  710) = (   0.1250000   0.3125000   0.2500000), wk =   0.0023437
        k(  711) = (   0.1250000   0.3125000   0.3000000), wk =   0.0023437
        k(  712) = (   0.1250000   0.3125000   0.3500000), wk =   0.0023437
        k(  713) = (   0.1250000   0.3125000   0.4000000), wk =   0.0023437
        k(  714) = (   0.1250000   0.3125000   0.4500000), wk =   0.0023437
        k(  715) = (   0.1250000   0.3125000  -0.5000000), wk =   0.0011719
        k(  716) = (   0.1250000   0.3437500   0.0000000), wk =   0.0011719
        k(  717) = (   0.1250000   0.3437500   0.0500000), wk =   0.0023437
        k(  718) = (   0.1250000   0.3437500   0.1000000), wk =   0.0023437
        k(  719) = (   0.1250000   0.3437500   0.1500000), wk =   0.0023437
        k(  720) = (   0.1250000   0.3437500   0.2000000), wk =   0.0023437
        k(  721) = (   0.1250000   0.3437500   0.2500000), wk =   0.0023437
        k(  722) = (   0.1250000   0.3437500   0.3000000), wk =   0.0023437
        k(  723) = (   0.1250000   0.3437500   0.3500000), wk =   0.0023437
        k(  724) = (   0.1250000   0.3437500   0.4000000), wk =   0.0023437
        k(  725) = (   0.1250000   0.3437500   0.4500000), wk =   0.0023437
        k(  726) = (   0.1250000   0.3437500  -0.5000000), wk =   0.0011719
        k(  727) = (   0.1250000   0.3750000   0.0000000), wk =   0.0011719
        k(  728) = (   0.1250000   0.3750000   0.0500000), wk =   0.0023437
        k(  729) = (   0.1250000   0.3750000   0.1000000), wk =   0.0023437
        k(  730) = (   0.1250000   0.3750000   0.1500000), wk =   0.0023437
        k(  731) = (   0.1250000   0.3750000   0.2000000), wk =   0.0023437
        k(  732) = (   0.1250000   0.3750000   0.2500000), wk =   0.0023437
        k(  733) = (   0.1250000   0.3750000   0.3000000), wk =   0.0023437
        k(  734) = (   0.1250000   0.3750000   0.3500000), wk =   0.0023437
        k(  735) = (   0.1250000   0.3750000   0.4000000), wk =   0.0023437
        k(  736) = (   0.1250000   0.3750000   0.4500000), wk =   0.0023437
        k(  737) = (   0.1250000   0.3750000  -0.5000000), wk =   0.0011719
        k(  738) = (   0.1250000   0.4062500   0.0000000), wk =   0.0011719
        k(  739) = (   0.1250000   0.4062500   0.0500000), wk =   0.0023437
        k(  740) = (   0.1250000   0.4062500   0.1000000), wk =   0.0023437
        k(  741) = (   0.1250000   0.4062500   0.1500000), wk =   0.0023437
        k(  742) = (   0.1250000   0.4062500   0.2000000), wk =   0.0023437
        k(  743) = (   0.1250000   0.4062500   0.2500000), wk =   0.0023437
        k(  744) = (   0.1250000   0.4062500   0.3000000), wk =   0.0023437
        k(  745) = (   0.1250000   0.4062500   0.3500000), wk =   0.0023437
        k(  746) = (   0.1250000   0.4062500   0.4000000), wk =   0.0023437
        k(  747) = (   0.1250000   0.4062500   0.4500000), wk =   0.0023437
        k(  748) = (   0.1250000   0.4062500  -0.5000000), wk =   0.0011719
        k(  749) = (   0.1250000   0.4375000   0.0000000), wk =   0.0005859
        k(  750) = (   0.1250000   0.4375000   0.0500000), wk =   0.0011719
        k(  751) = (   0.1250000   0.4375000   0.1000000), wk =   0.0011719
        k(  752) = (   0.1250000   0.4375000   0.1500000), wk =   0.0011719
        k(  753) = (   0.1250000   0.4375000   0.2000000), wk =   0.0011719
        k(  754) = (   0.1250000   0.4375000   0.2500000), wk =   0.0011719
        k(  755) = (   0.1250000   0.4375000   0.3000000), wk =   0.0011719
        k(  756) = (   0.1250000   0.4375000   0.3500000), wk =   0.0011719
        k(  757) = (   0.1250000   0.4375000   0.4000000), wk =   0.0011719
        k(  758) = (   0.1250000   0.4375000   0.4500000), wk =   0.0011719
        k(  759) = (   0.1250000   0.4375000  -0.5000000), wk =   0.0005859
        k(  760) = (   0.1562500   0.1562500   0.0000000), wk =   0.0005859
        k(  761) = (   0.1562500   0.1562500   0.0500000), wk =   0.0011719
        k(  762) = (   0.1562500   0.1562500   0.1000000), wk =   0.0011719
        k(  763) = (   0.1562500   0.1562500   0.1500000), wk =   0.0011719
        k(  764) = (   0.1562500   0.1562500   0.2000000), wk =   0.0011719
        k(  765) = (   0.1562500   0.1562500   0.2500000), wk =   0.0011719
        k(  766) = (   0.1562500   0.1562500   0.3000000), wk =   0.0011719
        k(  767) = (   0.1562500   0.1562500   0.3500000), wk =   0.0011719
        k(  768) = (   0.1562500   0.1562500   0.4000000), wk =   0.0011719
        k(  769) = (   0.1562500   0.1562500   0.4500000), wk =   0.0011719
        k(  770) = (   0.1562500   0.1562500  -0.5000000), wk =   0.0005859
        k(  771) = (   0.1562500   0.1875000   0.0000000), wk =   0.0011719
        k(  772) = (   0.1562500   0.1875000   0.0500000), wk =   0.0023437
        k(  773) = (   0.1562500   0.1875000   0.1000000), wk =   0.0023437
        k(  774) = (   0.1562500   0.1875000   0.1500000), wk =   0.0023437
        k(  775) = (   0.1562500   0.1875000   0.2000000), wk =   0.0023437
        k(  776) = (   0.1562500   0.1875000   0.2500000), wk =   0.0023437
        k(  777) = (   0.1562500   0.1875000   0.3000000), wk =   0.0023437
        k(  778) = (   0.1562500   0.1875000   0.3500000), wk =   0.0023437
        k(  779) = (   0.1562500   0.1875000   0.4000000), wk =   0.0023437
        k(  780) = (   0.1562500   0.1875000   0.4500000), wk =   0.0023437
        k(  781) = (   0.1562500   0.1875000  -0.5000000), wk =   0.0011719
        k(  782) = (   0.1562500   0.2187500   0.0000000), wk =   0.0011719
        k(  783) = (   0.1562500   0.2187500   0.0500000), wk =   0.0023437
        k(  784) = (   0.1562500   0.2187500   0.1000000), wk =   0.0023437
        k(  785) = (   0.1562500   0.2187500   0.1500000), wk =   0.0023437
        k(  786) = (   0.1562500   0.2187500   0.2000000), wk =   0.0023437
        k(  787) = (   0.1562500   0.2187500   0.2500000), wk =   0.0023437
        k(  788) = (   0.1562500   0.2187500   0.3000000), wk =   0.0023437
        k(  789) = (   0.1562500   0.2187500   0.3500000), wk =   0.0023437
        k(  790) = (   0.1562500   0.2187500   0.4000000), wk =   0.0023437
        k(  791) = (   0.1562500   0.2187500   0.4500000), wk =   0.0023437
        k(  792) = (   0.1562500   0.2187500  -0.5000000), wk =   0.0011719
        k(  793) = (   0.1562500   0.2500000   0.0000000), wk =   0.0011719
        k(  794) = (   0.1562500   0.2500000   0.0500000), wk =   0.0023437
        k(  795) = (   0.1562500   0.2500000   0.1000000), wk =   0.0023437
        k(  796) = (   0.1562500   0.2500000   0.1500000), wk =   0.0023437
        k(  797) = (   0.1562500   0.2500000   0.2000000), wk =   0.0023437
        k(  798) = (   0.1562500   0.2500000   0.2500000), wk =   0.0023437
        k(  799) = (   0.1562500   0.2500000   0.3000000), wk =   0.0023437
        k(  800) = (   0.1562500   0.2500000   0.3500000), wk =   0.0023437
        k(  801) = (   0.1562500   0.2500000   0.4000000), wk =   0.0023437
        k(  802) = (   0.1562500   0.2500000   0.4500000), wk =   0.0023437
        k(  803) = (   0.1562500   0.2500000  -0.5000000), wk =   0.0011719
        k(  804) = (   0.1562500   0.2812500   0.0000000), wk =   0.0011719
        k(  805) = (   0.1562500   0.2812500   0.0500000), wk =   0.0023437
        k(  806) = (   0.1562500   0.2812500   0.1000000), wk =   0.0023437
        k(  807) = (   0.1562500   0.2812500   0.1500000), wk =   0.0023437
        k(  808) = (   0.1562500   0.2812500   0.2000000), wk =   0.0023437
        k(  809) = (   0.1562500   0.2812500   0.2500000), wk =   0.0023437
        k(  810) = (   0.1562500   0.2812500   0.3000000), wk =   0.0023437
        k(  811) = (   0.1562500   0.2812500   0.3500000), wk =   0.0023437
        k(  812) = (   0.1562500   0.2812500   0.4000000), wk =   0.0023437
        k(  813) = (   0.1562500   0.2812500   0.4500000), wk =   0.0023437
        k(  814) = (   0.1562500   0.2812500  -0.5000000), wk =   0.0011719
        k(  815) = (   0.1562500   0.3125000   0.0000000), wk =   0.0011719
        k(  816) = (   0.1562500   0.3125000   0.0500000), wk =   0.0023437
        k(  817) = (   0.1562500   0.3125000   0.1000000), wk =   0.0023437
        k(  818) = (   0.1562500   0.3125000   0.1500000), wk =   0.0023437
        k(  819) = (   0.1562500   0.3125000   0.2000000), wk =   0.0023437
        k(  820) = (   0.1562500   0.3125000   0.2500000), wk =   0.0023437
        k(  821) = (   0.1562500   0.3125000   0.3000000), wk =   0.0023437
        k(  822) = (   0.1562500   0.3125000   0.3500000), wk =   0.0023437
        k(  823) = (   0.1562500   0.3125000   0.4000000), wk =   0.0023437
        k(  824) = (   0.1562500   0.3125000   0.4500000), wk =   0.0023437
        k(  825) = (   0.1562500   0.3125000  -0.5000000), wk =   0.0011719
        k(  826) = (   0.1562500   0.3437500   0.0000000), wk =   0.0011719
        k(  827) = (   0.1562500   0.3437500   0.0500000), wk =   0.0023437
        k(  828) = (   0.1562500   0.3437500   0.1000000), wk =   0.0023437
        k(  829) = (   0.1562500   0.3437500   0.1500000), wk =   0.0023437
        k(  830) = (   0.1562500   0.3437500   0.2000000), wk =   0.0023437
        k(  831) = (   0.1562500   0.3437500   0.2500000), wk =   0.0023437
        k(  832) = (   0.1562500   0.3437500   0.3000000), wk =   0.0023437
        k(  833) = (   0.1562500   0.3437500   0.3500000), wk =   0.0023437
        k(  834) = (   0.1562500   0.3437500   0.4000000), wk =   0.0023437
        k(  835) = (   0.1562500   0.3437500   0.4500000), wk =   0.0023437
        k(  836) = (   0.1562500   0.3437500  -0.5000000), wk =   0.0011719
        k(  837) = (   0.1562500   0.3750000   0.0000000), wk =   0.0011719
        k(  838) = (   0.1562500   0.3750000   0.0500000), wk =   0.0023437
        k(  839) = (   0.1562500   0.3750000   0.1000000), wk =   0.0023437
        k(  840) = (   0.1562500   0.3750000   0.1500000), wk =   0.0023437
        k(  841) = (   0.1562500   0.3750000   0.2000000), wk =   0.0023437
        k(  842) = (   0.1562500   0.3750000   0.2500000), wk =   0.0023437
        k(  843) = (   0.1562500   0.3750000   0.3000000), wk =   0.0023437
        k(  844) = (   0.1562500   0.3750000   0.3500000), wk =   0.0023437
        k(  845) = (   0.1562500   0.3750000   0.4000000), wk =   0.0023437
        k(  846) = (   0.1562500   0.3750000   0.4500000), wk =   0.0023437
        k(  847) = (   0.1562500   0.3750000  -0.5000000), wk =   0.0011719
        k(  848) = (   0.1562500   0.4062500   0.0000000), wk =   0.0011719
        k(  849) = (   0.1562500   0.4062500   0.0500000), wk =   0.0023437
        k(  850) = (   0.1562500   0.4062500   0.1000000), wk =   0.0023437
        k(  851) = (   0.1562500   0.4062500   0.1500000), wk =   0.0023437
        k(  852) = (   0.1562500   0.4062500   0.2000000), wk =   0.0023437
        k(  853) = (   0.1562500   0.4062500   0.2500000), wk =   0.0023437
        k(  854) = (   0.1562500   0.4062500   0.3000000), wk =   0.0023437
        k(  855) = (   0.1562500   0.4062500   0.3500000), wk =   0.0023437
        k(  856) = (   0.1562500   0.4062500   0.4000000), wk =   0.0023437
        k(  857) = (   0.1562500   0.4062500   0.4500000), wk =   0.0023437
        k(  858) = (   0.1562500   0.4062500  -0.5000000), wk =   0.0011719
        k(  859) = (   0.1875000   0.1875000   0.0000000), wk =   0.0005859
        k(  860) = (   0.1875000   0.1875000   0.0500000), wk =   0.0011719
        k(  861) = (   0.1875000   0.1875000   0.1000000), wk =   0.0011719
        k(  862) = (   0.1875000   0.1875000   0.1500000), wk =   0.0011719
        k(  863) = (   0.1875000   0.1875000   0.2000000), wk =   0.0011719
        k(  864) = (   0.1875000   0.1875000   0.2500000), wk =   0.0011719
        k(  865) = (   0.1875000   0.1875000   0.3000000), wk =   0.0011719
        k(  866) = (   0.1875000   0.1875000   0.3500000), wk =   0.0011719
        k(  867) = (   0.1875000   0.1875000   0.4000000), wk =   0.0011719
        k(  868) = (   0.1875000   0.1875000   0.4500000), wk =   0.0011719
        k(  869) = (   0.1875000   0.1875000  -0.5000000), wk =   0.0005859
        k(  870) = (   0.1875000   0.2187500   0.0000000), wk =   0.0011719
        k(  871) = (   0.1875000   0.2187500   0.0500000), wk =   0.0023437
        k(  872) = (   0.1875000   0.2187500   0.1000000), wk =   0.0023437
        k(  873) = (   0.1875000   0.2187500   0.1500000), wk =   0.0023437
        k(  874) = (   0.1875000   0.2187500   0.2000000), wk =   0.0023437
        k(  875) = (   0.1875000   0.2187500   0.2500000), wk =   0.0023437
        k(  876) = (   0.1875000   0.2187500   0.3000000), wk =   0.0023437
        k(  877) = (   0.1875000   0.2187500   0.3500000), wk =   0.0023437
        k(  878) = (   0.1875000   0.2187500   0.4000000), wk =   0.0023437
        k(  879) = (   0.1875000   0.2187500   0.4500000), wk =   0.0023437
        k(  880) = (   0.1875000   0.2187500  -0.5000000), wk =   0.0011719
        k(  881) = (   0.1875000   0.2500000   0.0000000), wk =   0.0011719
        k(  882) = (   0.1875000   0.2500000   0.0500000), wk =   0.0023437
        k(  883) = (   0.1875000   0.2500000   0.1000000), wk =   0.0023437
        k(  884) = (   0.1875000   0.2500000   0.1500000), wk =   0.0023437
        k(  885) = (   0.1875000   0.2500000   0.2000000), wk =   0.0023437
        k(  886) = (   0.1875000   0.2500000   0.2500000), wk =   0.0023437
        k(  887) = (   0.1875000   0.2500000   0.3000000), wk =   0.0023437
        k(  888) = (   0.1875000   0.2500000   0.3500000), wk =   0.0023437
        k(  889) = (   0.1875000   0.2500000   0.4000000), wk =   0.0023437
        k(  890) = (   0.1875000   0.2500000   0.4500000), wk =   0.0023437
        k(  891) = (   0.1875000   0.2500000  -0.5000000), wk =   0.0011719
        k(  892) = (   0.1875000   0.2812500   0.0000000), wk =   0.0011719
        k(  893) = (   0.1875000   0.2812500   0.0500000), wk =   0.0023437
        k(  894) = (   0.1875000   0.2812500   0.1000000), wk =   0.0023437
        k(  895) = (   0.1875000   0.2812500   0.1500000), wk =   0.0023437
        k(  896) = (   0.1875000   0.2812500   0.2000000), wk =   0.0023437
        k(  897) = (   0.1875000   0.2812500   0.2500000), wk =   0.0023437
        k(  898) = (   0.1875000   0.2812500   0.3000000), wk =   0.0023437
        k(  899) = (   0.1875000   0.2812500   0.3500000), wk =   0.0023437
        k(  900) = (   0.1875000   0.2812500   0.4000000), wk =   0.0023437
        k(  901) = (   0.1875000   0.2812500   0.4500000), wk =   0.0023437
        k(  902) = (   0.1875000   0.2812500  -0.5000000), wk =   0.0011719
        k(  903) = (   0.1875000   0.3125000   0.0000000), wk =   0.0011719
        k(  904) = (   0.1875000   0.3125000   0.0500000), wk =   0.0023437
        k(  905) = (   0.1875000   0.3125000   0.1000000), wk =   0.0023437
        k(  906) = (   0.1875000   0.3125000   0.1500000), wk =   0.0023437
        k(  907) = (   0.1875000   0.3125000   0.2000000), wk =   0.0023437
        k(  908) = (   0.1875000   0.3125000   0.2500000), wk =   0.0023437
        k(  909) = (   0.1875000   0.3125000   0.3000000), wk =   0.0023437
        k(  910) = (   0.1875000   0.3125000   0.3500000), wk =   0.0023437
        k(  911) = (   0.1875000   0.3125000   0.4000000), wk =   0.0023437
        k(  912) = (   0.1875000   0.3125000   0.4500000), wk =   0.0023437
        k(  913) = (   0.1875000   0.3125000  -0.5000000), wk =   0.0011719
        k(  914) = (   0.1875000   0.3437500   0.0000000), wk =   0.0011719
        k(  915) = (   0.1875000   0.3437500   0.0500000), wk =   0.0023437
        k(  916) = (   0.1875000   0.3437500   0.1000000), wk =   0.0023437
        k(  917) = (   0.1875000   0.3437500   0.1500000), wk =   0.0023437
        k(  918) = (   0.1875000   0.3437500   0.2000000), wk =   0.0023437
        k(  919) = (   0.1875000   0.3437500   0.2500000), wk =   0.0023437
        k(  920) = (   0.1875000   0.3437500   0.3000000), wk =   0.0023437
        k(  921) = (   0.1875000   0.3437500   0.3500000), wk =   0.0023437
        k(  922) = (   0.1875000   0.3437500   0.4000000), wk =   0.0023437
        k(  923) = (   0.1875000   0.3437500   0.4500000), wk =   0.0023437
        k(  924) = (   0.1875000   0.3437500  -0.5000000), wk =   0.0011719
        k(  925) = (   0.1875000   0.3750000   0.0000000), wk =   0.0011719
        k(  926) = (   0.1875000   0.3750000   0.0500000), wk =   0.0023437
        k(  927) = (   0.1875000   0.3750000   0.1000000), wk =   0.0023437
        k(  928) = (   0.1875000   0.3750000   0.1500000), wk =   0.0023437
        k(  929) = (   0.1875000   0.3750000   0.2000000), wk =   0.0023437
        k(  930) = (   0.1875000   0.3750000   0.2500000), wk =   0.0023437
        k(  931) = (   0.1875000   0.3750000   0.3000000), wk =   0.0023437
        k(  932) = (   0.1875000   0.3750000   0.3500000), wk =   0.0023437
        k(  933) = (   0.1875000   0.3750000   0.4000000), wk =   0.0023437
        k(  934) = (   0.1875000   0.3750000   0.4500000), wk =   0.0023437
        k(  935) = (   0.1875000   0.3750000  -0.5000000), wk =   0.0011719
        k(  936) = (   0.1875000   0.4062500   0.0000000), wk =   0.0005859
        k(  937) = (   0.1875000   0.4062500   0.0500000), wk =   0.0011719
        k(  938) = (   0.1875000   0.4062500   0.1000000), wk =   0.0011719
        k(  939) = (   0.1875000   0.4062500   0.1500000), wk =   0.0011719
        k(  940) = (   0.1875000   0.4062500   0.2000000), wk =   0.0011719
        k(  941) = (   0.1875000   0.4062500   0.2500000), wk =   0.0011719
        k(  942) = (   0.1875000   0.4062500   0.3000000), wk =   0.0011719
        k(  943) = (   0.1875000   0.4062500   0.3500000), wk =   0.0011719
        k(  944) = (   0.1875000   0.4062500   0.4000000), wk =   0.0011719
        k(  945) = (   0.1875000   0.4062500   0.4500000), wk =   0.0011719
        k(  946) = (   0.1875000   0.4062500  -0.5000000), wk =   0.0005859
        k(  947) = (   0.2187500   0.2187500   0.0000000), wk =   0.0005859
        k(  948) = (   0.2187500   0.2187500   0.0500000), wk =   0.0011719
        k(  949) = (   0.2187500   0.2187500   0.1000000), wk =   0.0011719
        k(  950) = (   0.2187500   0.2187500   0.1500000), wk =   0.0011719
        k(  951) = (   0.2187500   0.2187500   0.2000000), wk =   0.0011719
        k(  952) = (   0.2187500   0.2187500   0.2500000), wk =   0.0011719
        k(  953) = (   0.2187500   0.2187500   0.3000000), wk =   0.0011719
        k(  954) = (   0.2187500   0.2187500   0.3500000), wk =   0.0011719
        k(  955) = (   0.2187500   0.2187500   0.4000000), wk =   0.0011719
        k(  956) = (   0.2187500   0.2187500   0.4500000), wk =   0.0011719
        k(  957) = (   0.2187500   0.2187500  -0.5000000), wk =   0.0005859
        k(  958) = (   0.2187500   0.2500000   0.0000000), wk =   0.0011719
        k(  959) = (   0.2187500   0.2500000   0.0500000), wk =   0.0023437
        k(  960) = (   0.2187500   0.2500000   0.1000000), wk =   0.0023437
        k(  961) = (   0.2187500   0.2500000   0.1500000), wk =   0.0023437
        k(  962) = (   0.2187500   0.2500000   0.2000000), wk =   0.0023437
        k(  963) = (   0.2187500   0.2500000   0.2500000), wk =   0.0023437
        k(  964) = (   0.2187500   0.2500000   0.3000000), wk =   0.0023437
        k(  965) = (   0.2187500   0.2500000   0.3500000), wk =   0.0023437
        k(  966) = (   0.2187500   0.2500000   0.4000000), wk =   0.0023437
        k(  967) = (   0.2187500   0.2500000   0.4500000), wk =   0.0023437
        k(  968) = (   0.2187500   0.2500000  -0.5000000), wk =   0.0011719
        k(  969) = (   0.2187500   0.2812500   0.0000000), wk =   0.0011719
        k(  970) = (   0.2187500   0.2812500   0.0500000), wk =   0.0023437
        k(  971) = (   0.2187500   0.2812500   0.1000000), wk =   0.0023437
        k(  972) = (   0.2187500   0.2812500   0.1500000), wk =   0.0023437
        k(  973) = (   0.2187500   0.2812500   0.2000000), wk =   0.0023437
        k(  974) = (   0.2187500   0.2812500   0.2500000), wk =   0.0023437
        k(  975) = (   0.2187500   0.2812500   0.3000000), wk =   0.0023437
        k(  976) = (   0.2187500   0.2812500   0.3500000), wk =   0.0023437
        k(  977) = (   0.2187500   0.2812500   0.4000000), wk =   0.0023437
        k(  978) = (   0.2187500   0.2812500   0.4500000), wk =   0.0023437
        k(  979) = (   0.2187500   0.2812500  -0.5000000), wk =   0.0011719
        k(  980) = (   0.2187500   0.3125000   0.0000000), wk =   0.0011719
        k(  981) = (   0.2187500   0.3125000   0.0500000), wk =   0.0023437
        k(  982) = (   0.2187500   0.3125000   0.1000000), wk =   0.0023437
        k(  983) = (   0.2187500   0.3125000   0.1500000), wk =   0.0023437
        k(  984) = (   0.2187500   0.3125000   0.2000000), wk =   0.0023437
        k(  985) = (   0.2187500   0.3125000   0.2500000), wk =   0.0023437
        k(  986) = (   0.2187500   0.3125000   0.3000000), wk =   0.0023437
        k(  987) = (   0.2187500   0.3125000   0.3500000), wk =   0.0023437
        k(  988) = (   0.2187500   0.3125000   0.4000000), wk =   0.0023437
        k(  989) = (   0.2187500   0.3125000   0.4500000), wk =   0.0023437
        k(  990) = (   0.2187500   0.3125000  -0.5000000), wk =   0.0011719
        k(  991) = (   0.2187500   0.3437500   0.0000000), wk =   0.0011719
        k(  992) = (   0.2187500   0.3437500   0.0500000), wk =   0.0023437
        k(  993) = (   0.2187500   0.3437500   0.1000000), wk =   0.0023437
        k(  994) = (   0.2187500   0.3437500   0.1500000), wk =   0.0023437
        k(  995) = (   0.2187500   0.3437500   0.2000000), wk =   0.0023437
        k(  996) = (   0.2187500   0.3437500   0.2500000), wk =   0.0023437
        k(  997) = (   0.2187500   0.3437500   0.3000000), wk =   0.0023437
        k(  998) = (   0.2187500   0.3437500   0.3500000), wk =   0.0023437
        k(  999) = (   0.2187500   0.3437500   0.4000000), wk =   0.0023437
        k( 1000) = (   0.2187500   0.3437500   0.4500000), wk =   0.0023437
        k( 1001) = (   0.2187500   0.3437500  -0.5000000), wk =   0.0011719
        k( 1002) = (   0.2187500   0.3750000   0.0000000), wk =   0.0011719
        k( 1003) = (   0.2187500   0.3750000   0.0500000), wk =   0.0023437
        k( 1004) = (   0.2187500   0.3750000   0.1000000), wk =   0.0023437
        k( 1005) = (   0.2187500   0.3750000   0.1500000), wk =   0.0023437
        k( 1006) = (   0.2187500   0.3750000   0.2000000), wk =   0.0023437
        k( 1007) = (   0.2187500   0.3750000   0.2500000), wk =   0.0023437
        k( 1008) = (   0.2187500   0.3750000   0.3000000), wk =   0.0023437
        k( 1009) = (   0.2187500   0.3750000   0.3500000), wk =   0.0023437
        k( 1010) = (   0.2187500   0.3750000   0.4000000), wk =   0.0023437
        k( 1011) = (   0.2187500   0.3750000   0.4500000), wk =   0.0023437
        k( 1012) = (   0.2187500   0.3750000  -0.5000000), wk =   0.0011719
        k( 1013) = (   0.2500000   0.2500000   0.0000000), wk =   0.0005859
        k( 1014) = (   0.2500000   0.2500000   0.0500000), wk =   0.0011719
        k( 1015) = (   0.2500000   0.2500000   0.1000000), wk =   0.0011719
        k( 1016) = (   0.2500000   0.2500000   0.1500000), wk =   0.0011719
        k( 1017) = (   0.2500000   0.2500000   0.2000000), wk =   0.0011719
        k( 1018) = (   0.2500000   0.2500000   0.2500000), wk =   0.0011719
        k( 1019) = (   0.2500000   0.2500000   0.3000000), wk =   0.0011719
        k( 1020) = (   0.2500000   0.2500000   0.3500000), wk =   0.0011719
        k( 1021) = (   0.2500000   0.2500000   0.4000000), wk =   0.0011719
        k( 1022) = (   0.2500000   0.2500000   0.4500000), wk =   0.0011719
        k( 1023) = (   0.2500000   0.2500000  -0.5000000), wk =   0.0005859
        k( 1024) = (   0.2500000   0.2812500   0.0000000), wk =   0.0011719
        k( 1025) = (   0.2500000   0.2812500   0.0500000), wk =   0.0023437
        k( 1026) = (   0.2500000   0.2812500   0.1000000), wk =   0.0023437
        k( 1027) = (   0.2500000   0.2812500   0.1500000), wk =   0.0023437
        k( 1028) = (   0.2500000   0.2812500   0.2000000), wk =   0.0023437
        k( 1029) = (   0.2500000   0.2812500   0.2500000), wk =   0.0023437
        k( 1030) = (   0.2500000   0.2812500   0.3000000), wk =   0.0023437
        k( 1031) = (   0.2500000   0.2812500   0.3500000), wk =   0.0023437
        k( 1032) = (   0.2500000   0.2812500   0.4000000), wk =   0.0023437
        k( 1033) = (   0.2500000   0.2812500   0.4500000), wk =   0.0023437
        k( 1034) = (   0.2500000   0.2812500  -0.5000000), wk =   0.0011719
        k( 1035) = (   0.2500000   0.3125000   0.0000000), wk =   0.0011719
        k( 1036) = (   0.2500000   0.3125000   0.0500000), wk =   0.0023437
        k( 1037) = (   0.2500000   0.3125000   0.1000000), wk =   0.0023437
        k( 1038) = (   0.2500000   0.3125000   0.1500000), wk =   0.0023437
        k( 1039) = (   0.2500000   0.3125000   0.2000000), wk =   0.0023437
        k( 1040) = (   0.2500000   0.3125000   0.2500000), wk =   0.0023437
        k( 1041) = (   0.2500000   0.3125000   0.3000000), wk =   0.0023437
        k( 1042) = (   0.2500000   0.3125000   0.3500000), wk =   0.0023437
        k( 1043) = (   0.2500000   0.3125000   0.4000000), wk =   0.0023437
        k( 1044) = (   0.2500000   0.3125000   0.4500000), wk =   0.0023437
        k( 1045) = (   0.2500000   0.3125000  -0.5000000), wk =   0.0011719
        k( 1046) = (   0.2500000   0.3437500   0.0000000), wk =   0.0011719
        k( 1047) = (   0.2500000   0.3437500   0.0500000), wk =   0.0023437
        k( 1048) = (   0.2500000   0.3437500   0.1000000), wk =   0.0023437
        k( 1049) = (   0.2500000   0.3437500   0.1500000), wk =   0.0023437
        k( 1050) = (   0.2500000   0.3437500   0.2000000), wk =   0.0023437
        k( 1051) = (   0.2500000   0.3437500   0.2500000), wk =   0.0023437
        k( 1052) = (   0.2500000   0.3437500   0.3000000), wk =   0.0023437
        k( 1053) = (   0.2500000   0.3437500   0.3500000), wk =   0.0023437
        k( 1054) = (   0.2500000   0.3437500   0.4000000), wk =   0.0023437
        k( 1055) = (   0.2500000   0.3437500   0.4500000), wk =   0.0023437
        k( 1056) = (   0.2500000   0.3437500  -0.5000000), wk =   0.0011719
        k( 1057) = (   0.2500000   0.3750000   0.0000000), wk =   0.0005859
        k( 1058) = (   0.2500000   0.3750000   0.0500000), wk =   0.0011719
        k( 1059) = (   0.2500000   0.3750000   0.1000000), wk =   0.0011719
        k( 1060) = (   0.2500000   0.3750000   0.1500000), wk =   0.0011719
        k( 1061) = (   0.2500000   0.3750000   0.2000000), wk =   0.0011719
        k( 1062) = (   0.2500000   0.3750000   0.2500000), wk =   0.0011719
        k( 1063) = (   0.2500000   0.3750000   0.3000000), wk =   0.0011719
        k( 1064) = (   0.2500000   0.3750000   0.3500000), wk =   0.0011719
        k( 1065) = (   0.2500000   0.3750000   0.4000000), wk =   0.0011719
        k( 1066) = (   0.2500000   0.3750000   0.4500000), wk =   0.0011719
        k( 1067) = (   0.2500000   0.3750000  -0.5000000), wk =   0.0005859
        k( 1068) = (   0.2812500   0.2812500   0.0000000), wk =   0.0005859
        k( 1069) = (   0.2812500   0.2812500   0.0500000), wk =   0.0011719
        k( 1070) = (   0.2812500   0.2812500   0.1000000), wk =   0.0011719
        k( 1071) = (   0.2812500   0.2812500   0.1500000), wk =   0.0011719
        k( 1072) = (   0.2812500   0.2812500   0.2000000), wk =   0.0011719
        k( 1073) = (   0.2812500   0.2812500   0.2500000), wk =   0.0011719
        k( 1074) = (   0.2812500   0.2812500   0.3000000), wk =   0.0011719
        k( 1075) = (   0.2812500   0.2812500   0.3500000), wk =   0.0011719
        k( 1076) = (   0.2812500   0.2812500   0.4000000), wk =   0.0011719
        k( 1077) = (   0.2812500   0.2812500   0.4500000), wk =   0.0011719
        k( 1078) = (   0.2812500   0.2812500  -0.5000000), wk =   0.0005859
        k( 1079) = (   0.2812500   0.3125000   0.0000000), wk =   0.0011719
        k( 1080) = (   0.2812500   0.3125000   0.0500000), wk =   0.0023437
        k( 1081) = (   0.2812500   0.3125000   0.1000000), wk =   0.0023437
        k( 1082) = (   0.2812500   0.3125000   0.1500000), wk =   0.0023437
        k( 1083) = (   0.2812500   0.3125000   0.2000000), wk =   0.0023437
        k( 1084) = (   0.2812500   0.3125000   0.2500000), wk =   0.0023437
        k( 1085) = (   0.2812500   0.3125000   0.3000000), wk =   0.0023437
        k( 1086) = (   0.2812500   0.3125000   0.3500000), wk =   0.0023437
        k( 1087) = (   0.2812500   0.3125000   0.4000000), wk =   0.0023437
        k( 1088) = (   0.2812500   0.3125000   0.4500000), wk =   0.0023437
        k( 1089) = (   0.2812500   0.3125000  -0.5000000), wk =   0.0011719
        k( 1090) = (   0.2812500   0.3437500   0.0000000), wk =   0.0011719
        k( 1091) = (   0.2812500   0.3437500   0.0500000), wk =   0.0023437
        k( 1092) = (   0.2812500   0.3437500   0.1000000), wk =   0.0023437
        k( 1093) = (   0.2812500   0.3437500   0.1500000), wk =   0.0023437
        k( 1094) = (   0.2812500   0.3437500   0.2000000), wk =   0.0023437
        k( 1095) = (   0.2812500   0.3437500   0.2500000), wk =   0.0023437
        k( 1096) = (   0.2812500   0.3437500   0.3000000), wk =   0.0023437
        k( 1097) = (   0.2812500   0.3437500   0.3500000), wk =   0.0023437
        k( 1098) = (   0.2812500   0.3437500   0.4000000), wk =   0.0023437
        k( 1099) = (   0.2812500   0.3437500   0.4500000), wk =   0.0023437
        k( 1100) = (   0.2812500   0.3437500  -0.5000000), wk =   0.0011719
        k( 1101) = (   0.3125000   0.3125000   0.0000000), wk =   0.0005859
        k( 1102) = (   0.3125000   0.3125000   0.0500000), wk =   0.0011719
        k( 1103) = (   0.3125000   0.3125000   0.1000000), wk =   0.0011719
        k( 1104) = (   0.3125000   0.3125000   0.1500000), wk =   0.0011719
        k( 1105) = (   0.3125000   0.3125000   0.2000000), wk =   0.0011719
        k( 1106) = (   0.3125000   0.3125000   0.2500000), wk =   0.0011719
        k( 1107) = (   0.3125000   0.3125000   0.3000000), wk =   0.0011719
        k( 1108) = (   0.3125000   0.3125000   0.3500000), wk =   0.0011719
        k( 1109) = (   0.3125000   0.3125000   0.4000000), wk =   0.0011719
        k( 1110) = (   0.3125000   0.3125000   0.4500000), wk =   0.0011719
        k( 1111) = (   0.3125000   0.3125000  -0.5000000), wk =   0.0005859
        k( 1112) = (   0.3125000   0.3437500   0.0000000), wk =   0.0005859
        k( 1113) = (   0.3125000   0.3437500   0.0500000), wk =   0.0011719
        k( 1114) = (   0.3125000   0.3437500   0.1000000), wk =   0.0011719
        k( 1115) = (   0.3125000   0.3437500   0.1500000), wk =   0.0011719
        k( 1116) = (   0.3125000   0.3437500   0.2000000), wk =   0.0011719
        k( 1117) = (   0.3125000   0.3437500   0.2500000), wk =   0.0011719
        k( 1118) = (   0.3125000   0.3437500   0.3000000), wk =   0.0011719
        k( 1119) = (   0.3125000   0.3437500   0.3500000), wk =   0.0011719
        k( 1120) = (   0.3125000   0.3437500   0.4000000), wk =   0.0011719
        k( 1121) = (   0.3125000   0.3437500   0.4500000), wk =   0.0011719
        k( 1122) = (   0.3125000   0.3437500  -0.5000000), wk =   0.0005859

     Dense  grid:    99623 G-vectors     FFT dimensions: (  54,  54,  90)

     Smooth grid:    25109 G-vectors     FFT dimensions: (  36,  36,  54)

     Dynamical RAM for                 wfc:       1.78 MB

     Dynamical RAM for     wfc (w. buffer):       1.78 MB

     Dynamical RAM for           str. fact:       3.04 MB

     Dynamical RAM for           local pot:       0.00 MB

     Dynamical RAM for          nlocal pot:       2.50 MB

     Dynamical RAM for                qrad:       4.24 MB

     Dynamical RAM for          rho,v,vnew:      10.57 MB

     Dynamical RAM for           G-vectors:       5.89 MB

     Dynamical RAM for          h,s,v(r/c):       0.25 MB

     Dynamical RAM for          <psi|beta>:       0.03 MB

     Dynamical RAM for                 psi:       3.55 MB

     Dynamical RAM for                hpsi:       3.55 MB

     Dynamical RAM for                spsi:       3.55 MB

     Dynamical RAM for      wfcinit/wfcrot:       3.58 MB

     Dynamical RAM for           addusdens:      25.21 MB

     Estimated static dynamical RAM per process >      42.59 MB

     Estimated max dynamical RAM per process >      67.79 MB

     Estimated total dynamical RAM >     813.53 MB

     The potential is recalculated from file :
     ./tmp/GaN.save/charge-density

     Starting wfcs are   26 randomized atomic wfcs +   11 random wfcs
     Checking if some PAW data can be deallocated... 
       PAW data deallocated on    6 nodes for type:  1
       PAW data deallocated on    6 nodes for type:  2

     Band Structure Calculation
     Davidson diagonalization with overlap

     Computing kpt #:     1  of    94 on this pool
     c_bands:  3 eigenvalues not converged
     total cpu time spent up to now is       11.0 secs

     Computing kpt #:     2  of    94 on this pool
     c_bands:  1 eigenvalues not converged
     total cpu time spent up to now is       16.6 secs

     Computing kpt #:     3  of    94 on this pool
     c_bands:  3 eigenvalues not converged
     total cpu time spent up to now is       22.3 secs

     Computing kpt #:     4  of    94 on this pool
     c_bands:  1 eigenvalues not converged
     total cpu time spent up to now is       27.9 secs

     Computing kpt #:     5  of    94 on this pool
     total cpu time spent up to now is       33.1 secs

     Computing kpt #:     6  of    94 on this pool
     total cpu time spent up to now is       38.8 secs

     Computing kpt #:     7  of    94 on this pool
     total cpu time spent up to now is       44.1 secs

     Computing kpt #:     8  of    94 on this pool
     total cpu time spent up to now is       49.6 secs

     Computing kpt #:     9  of    94 on this pool
     total cpu time spent up to now is       55.2 secs

     Computing kpt #:    10  of    94 on this pool
     total cpu time spent up to now is       60.4 secs

     Computing kpt #:    11  of    94 on this pool
     total cpu time spent up to now is       65.8 secs

     Computing kpt #:    12  of    94 on this pool
     c_bands:  1 eigenvalues not converged
     total cpu time spent up to now is       71.2 secs

     Computing kpt #:    13  of    94 on this pool
     c_bands:  1 eigenvalues not converged
     total cpu time spent up to now is       77.1 secs

     Computing kpt #:    14  of    94 on this pool
     c_bands:  1 eigenvalues not converged
     total cpu time spent up to now is       82.7 secs

     Computing kpt #:    15  of    94 on this pool
     c_bands:  1 eigenvalues not converged
     total cpu time spent up to now is       88.0 secs

     Computing kpt #:    16  of    94 on this pool
     c_bands:  1 eigenvalues not converged
     total cpu time spent up to now is       93.3 secs

     Computing kpt #:    17  of    94 on this pool
     c_bands:  1 eigenvalues not converged
     total cpu time spent up to now is       98.9 secs

     Computing kpt #:    18  of    94 on this pool
     c_bands:  4 eigenvalues not converged
     total cpu time spent up to now is      104.4 secs

     Computing kpt #:    19  of    94 on this pool
     c_bands:  2 eigenvalues not converged
     total cpu time spent up to now is      109.8 secs

     Computing kpt #:    20  of    94 on this pool

 %%%%%%%%%%%%%%%%%%%%%%%%%%%%%%%%%%%%%%%%%%%%%%%%%%%%%%%%%%%%%%%%%%%%%%%%%%%%%%
     Error in routine cdiaghg (145):
     S matrix not positive definite
 %%%%%%%%%%%%%%%%%%%%%%%%%%%%%%%%%%%%%%%%%%%%%%%%%%%%%%%%%%%%%%%%%%%%%%%%%%%%%%

     stopping ...
