
     Program PWSCF v.7.3.1 starts on 22May2026 at  0:39:57 

     This program is part of the open-source Quantum ESPRESSO suite
     for quantum simulation of materials; please cite
         "P. Giannozzi et al., J. Phys.:Condens. Matter 21 395502 (2009);
         "P. Giannozzi et al., J. Phys.:Condens. Matter 29 465901 (2017);
         "P. Giannozzi et al., J. Chem. Phys. 152 154105 (2020);
          URL http://www.quantum-espresso.org", 
     in publications or presentations arising from this work. More details at
     http://www.quantum-espresso.org/quote

     Parallel version (MPI & OpenMP), running on       8 processor cores
     Number of MPI processes:                 8
     Threads/MPI process:                     1

     MPI processes distributed on     1 nodes
     96181 MiB available memory on the printing compute node when the environment starts
 
     Waiting for input...
     Reading input from standard input

     Current dimensions of program PWSCF are:
     Max number of different atomic species (ntypx) = 10
     Max number of k-points (npk) =  40000
     Max angular momentum in pseudopotentials (lmaxx) =  4
 
     R & G space division:  proc/nbgrp/npool/nimage =       8
     Subspace diagonalization in iterative solution of the eigenvalue problem:
     a serial algorithm will be used

 
     Parallelization info
     --------------------
     sticks:   dense  smooth     PW     G-vecs:    dense   smooth      PW
     Min          86      86     26                 3023     3023     498
     Max          88      88     28                 3028     3028     501
     Sum         691     691    211                24203    24203    3995
 
     Using Slab Decomposition
 


     bravais-lattice index     =            4
     lattice parameter (alat)  =       6.0093  a.u.
     unit-cell volume          =     306.1338 (a.u.)^3
     number of atoms/cell      =            4
     number of atomic types    =            2
     number of electrons       =        36.00
     number of Kohn-Sham states=           22
     kinetic-energy cutoff     =      70.0000  Ry
     charge density cutoff     =     280.0000  Ry
     scf convergence threshold =      1.0E-08
     mixing beta               =       0.7000
     number of iterations used =            8  plain     mixing
     Exchange-correlation= PBE
                           (   1   4   3   4   0   0   0)

     celldm(1)=   6.009329  celldm(2)=   0.000000  celldm(3)=   1.628931
     celldm(4)=   0.000000  celldm(5)=   0.000000  celldm(6)=   0.000000

     crystal axes: (cart. coord. in units of alat)
               a(1) = (   1.000000   0.000000   0.000000 )  
               a(2) = (  -0.500000   0.866025   0.000000 )  
               a(3) = (   0.000000   0.000000   1.628931 )  

     reciprocal axes: (cart. coord. in units 2 pi/alat)
               b(1) = (  1.000000  0.577350  0.000000 )  
               b(2) = (  0.000000  1.154701  0.000000 )  
               b(3) = (  0.000000  0.000000  0.613900 )  


     PseudoPot. # 1 for Ga read from file:
     ../../PSEUDO/DOJO-PBE-0.5-standard/Ga.upf
     MD5 check sum: 2bb81bf6f0a8d9832cf3329850435ecf
     Pseudo is Norm-conserving + core correction, Zval = 13.0
     Generated using ONCVPSP code by D. R. Hamann
     Using radial grid of 1902 points,  6 beta functions with: 
                l(1) =   0
                l(2) =   0
                l(3) =   1
                l(4) =   1
                l(5) =   2
                l(6) =   2

     PseudoPot. # 2 for N  read from file:
     ../../PSEUDO/DOJO-PBE-0.5-standard/N.upf
     MD5 check sum: d34365f73bb0e2ee98afc20ec3e87676
     Pseudo is Norm-conserving + core correction, Zval =  5.0
     Generated using ONCVPSP code by D. R. Hamann
     Using radial grid of 1058 points,  4 beta functions with: 
                l(1) =   0
                l(2) =   0
                l(3) =   1
                l(4) =   1

     atomic species   valence    mass     pseudopotential
     Ga               13.00    69.72300     Ga( 1.00)
     N                 5.00    14.00700     N ( 1.00)

      2 Sym. Ops. (no inversion) found ( 1 have fractional translation)


                                    s                        frac. trans.

      isym =  1     identity                                     

 cryst.   s( 1) = (     1          0          0      )
                  (     0          1          0      )
                  (     0          0          1      )

 cart.    s( 1) = (  1.0000000  0.0000000  0.0000000 )
                  (  0.0000000  1.0000000  0.0000000 )
                  (  0.0000000  0.0000000  1.0000000 )


      isym =  2     inv. 180 deg rotation - cryst. axis [1,-1,0] 

 cryst.   s( 2) = (     0          1          0      )    f =(  0.0000000 )
                  (     1          0          0      )       (  0.0000000 )
                  (     0          0          1      )       (  0.5000000 )

 cart.    s( 2) = ( -0.5000000  0.8660254  0.0000000 )    f =(  0.0000000 )
                  (  0.8660254  0.5000000  0.0000000 )       (  0.0000000 )
                  (  0.0000000  0.0000000  1.0000000 )       (  0.8144654 )


     point group C_s (m)    
     there are  2 classes
     the character table:

       E     s    
A'     1.00  1.00
A''    1.00 -1.00

     the symmetry operations in each class and the name of the first element:

     E        1
          identity                                               
     s        2
          inv. 180 deg rotation - cryst. axis [1,-1,0]           

   Cartesian axes

     site n.     atom                  positions (alat units)
         1        Ga     tau(   1) = (   0.4950000   0.2857884   1.4253145  )
         2        Ga     tau(   2) = (   0.0000000   0.5715768   0.6108491  )
         3        N      tau(   3) = (   0.0000000   0.5715768   0.0000000  )
         4        N      tau(   4) = (   0.4950000   0.2857884   0.8144654  )

   Crystallographic axes

     site n.     atom                  positions (cryst. coord.)
         1        Ga     tau(   1) = (  0.6600000  0.3300000  0.8750000  )
         2        Ga     tau(   2) = (  0.3300000  0.6600000  0.3750000  )
         3        N      tau(   3) = (  0.3300000  0.6600000  0.0000000  )
         4        N      tau(   4) = (  0.6600000  0.3300000  0.5000000  )

     number of k points=    52
                       cart. coord. in units 2pi/alat
        k(    1) = (   0.1250000   0.2165064   0.0767375), wk =   0.0208333
        k(    2) = (   0.1250000   0.2165064   0.2302124), wk =   0.0208333
        k(    3) = (   0.1250000   0.5051815   0.0767375), wk =   0.0416667
        k(    4) = (   0.1250000   0.5051815   0.2302124), wk =   0.0416667
        k(    5) = (   0.1250000  -0.3608439   0.0767375), wk =   0.0416667
        k(    6) = (   0.1250000  -0.3608439   0.2302124), wk =   0.0416667
        k(    7) = (   0.1250000  -0.0721688   0.0767375), wk =   0.0416667
        k(    8) = (   0.1250000  -0.0721688   0.2302124), wk =   0.0416667
        k(    9) = (   0.3750000   0.6495191   0.0767375), wk =   0.0208333
        k(   10) = (   0.3750000   0.6495191   0.2302124), wk =   0.0208333
        k(   11) = (   0.3750000  -0.2165064   0.0767375), wk =   0.0416667
        k(   12) = (   0.3750000  -0.2165064   0.2302124), wk =   0.0416667
        k(   13) = (  -0.1250000   0.2165064  -0.0767375), wk =   0.0416667
        k(   14) = (   0.1250000  -0.2165064  -0.0767375), wk =   0.0416667
        k(   15) = (   0.1250000   0.2165064  -0.0767375), wk =   0.0208333
        k(   16) = (  -0.1250000   0.2165064  -0.2302124), wk =   0.0416667
        k(   17) = (   0.1250000  -0.2165064  -0.2302124), wk =   0.0416667
        k(   18) = (   0.1250000   0.2165064  -0.2302124), wk =   0.0208333
        k(   19) = (  -0.1250000   0.5051815  -0.0767375), wk =   0.0416667
        k(   20) = (   0.1250000  -0.5051815  -0.0767375), wk =   0.0416667
        k(   21) = (  -0.3750000   0.3608439   0.0767375), wk =   0.0416667
        k(   22) = (   0.3750000  -0.3608439   0.0767375), wk =   0.0416667
        k(   23) = (   0.3750000   0.3608439  -0.0767375), wk =   0.0416667
        k(   24) = (  -0.1250000   0.5051815  -0.2302124), wk =   0.0416667
        k(   25) = (   0.1250000  -0.5051815  -0.2302124), wk =   0.0416667
        k(   26) = (  -0.3750000   0.3608439   0.2302124), wk =   0.0416667
        k(   27) = (   0.3750000  -0.3608439   0.2302124), wk =   0.0416667
        k(   28) = (   0.3750000   0.3608439  -0.2302124), wk =   0.0416667
        k(   29) = (  -0.1250000  -0.3608439  -0.0767375), wk =   0.0416667
        k(   30) = (   0.1250000   0.3608439  -0.0767375), wk =   0.0416667
        k(   31) = (   0.3750000  -0.0721688   0.0767375), wk =   0.0416667
        k(   32) = (  -0.3750000   0.0721688   0.0767375), wk =   0.0416667
        k(   33) = (  -0.3750000  -0.0721688  -0.0767375), wk =   0.0416667
        k(   34) = (  -0.1250000  -0.3608439  -0.2302124), wk =   0.0416667
        k(   35) = (   0.1250000   0.3608439  -0.2302124), wk =   0.0416667
        k(   36) = (   0.3750000  -0.0721688   0.2302124), wk =   0.0416667
        k(   37) = (  -0.3750000   0.0721688   0.2302124), wk =   0.0416667
        k(   38) = (  -0.3750000  -0.0721688  -0.2302124), wk =   0.0416667
        k(   39) = (  -0.1250000  -0.0721688  -0.0767375), wk =   0.0416667
        k(   40) = (   0.1250000   0.0721688  -0.0767375), wk =   0.0416667
        k(   41) = (  -0.1250000  -0.0721688  -0.2302124), wk =   0.0416667
        k(   42) = (   0.1250000   0.0721688  -0.2302124), wk =   0.0416667
        k(   43) = (  -0.3750000   0.6495191  -0.0767375), wk =   0.0416667
        k(   44) = (   0.3750000  -0.6495191  -0.0767375), wk =   0.0416667
        k(   45) = (   0.3750000   0.6495191  -0.0767375), wk =   0.0208333
        k(   46) = (  -0.3750000   0.6495191  -0.2302124), wk =   0.0416667
        k(   47) = (   0.3750000  -0.6495191  -0.2302124), wk =   0.0416667
        k(   48) = (   0.3750000   0.6495191  -0.2302124), wk =   0.0208333
        k(   49) = (  -0.3750000  -0.2165064  -0.0767375), wk =   0.0416667
        k(   50) = (   0.3750000   0.2165064  -0.0767375), wk =   0.0416667
        k(   51) = (  -0.3750000  -0.2165064  -0.2302124), wk =   0.0416667
        k(   52) = (   0.3750000   0.2165064  -0.2302124), wk =   0.0416667

                       cryst. coord.
        k(    1) = (   0.1250000   0.1250000   0.1250000), wk =   0.0208333
        k(    2) = (   0.1250000   0.1250000   0.3750000), wk =   0.0208333
        k(    3) = (   0.1250000   0.3750000   0.1250000), wk =   0.0416667
        k(    4) = (   0.1250000   0.3750000   0.3750000), wk =   0.0416667
        k(    5) = (   0.1250000  -0.3750000   0.1250000), wk =   0.0416667
        k(    6) = (   0.1250000  -0.3750000   0.3750000), wk =   0.0416667
        k(    7) = (   0.1250000  -0.1250000   0.1250000), wk =   0.0416667
        k(    8) = (   0.1250000  -0.1250000   0.3750000), wk =   0.0416667
        k(    9) = (   0.3750000   0.3750000   0.1250000), wk =   0.0208333
        k(   10) = (   0.3750000   0.3750000   0.3750000), wk =   0.0208333
        k(   11) = (   0.3750000  -0.3750000   0.1250000), wk =   0.0416667
        k(   12) = (   0.3750000  -0.3750000   0.3750000), wk =   0.0416667
        k(   13) = (  -0.1250000   0.2500000  -0.1250000), wk =   0.0416667
        k(   14) = (   0.1250000  -0.2500000  -0.1250000), wk =   0.0416667
        k(   15) = (   0.1250000   0.1250000  -0.1250000), wk =   0.0208333
        k(   16) = (  -0.1250000   0.2500000  -0.3750000), wk =   0.0416667
        k(   17) = (   0.1250000  -0.2500000  -0.3750000), wk =   0.0416667
        k(   18) = (   0.1250000   0.1250000  -0.3750000), wk =   0.0208333
        k(   19) = (  -0.1250000   0.5000000  -0.1250000), wk =   0.0416667
        k(   20) = (   0.1250000  -0.5000000  -0.1250000), wk =   0.0416667
        k(   21) = (  -0.3750000   0.5000000   0.1250000), wk =   0.0416667
        k(   22) = (   0.3750000  -0.5000000   0.1250000), wk =   0.0416667
        k(   23) = (   0.3750000   0.1250000  -0.1250000), wk =   0.0416667
        k(   24) = (  -0.1250000   0.5000000  -0.3750000), wk =   0.0416667
        k(   25) = (   0.1250000  -0.5000000  -0.3750000), wk =   0.0416667
        k(   26) = (  -0.3750000   0.5000000   0.3750000), wk =   0.0416667
        k(   27) = (   0.3750000  -0.5000000   0.3750000), wk =   0.0416667
        k(   28) = (   0.3750000   0.1250000  -0.3750000), wk =   0.0416667
        k(   29) = (  -0.1250000  -0.2500000  -0.1250000), wk =   0.0416667
        k(   30) = (   0.1250000   0.2500000  -0.1250000), wk =   0.0416667
        k(   31) = (   0.3750000  -0.2500000   0.1250000), wk =   0.0416667
        k(   32) = (  -0.3750000   0.2500000   0.1250000), wk =   0.0416667
        k(   33) = (  -0.3750000   0.1250000  -0.1250000), wk =   0.0416667
        k(   34) = (  -0.1250000  -0.2500000  -0.3750000), wk =   0.0416667
        k(   35) = (   0.1250000   0.2500000  -0.3750000), wk =   0.0416667
        k(   36) = (   0.3750000  -0.2500000   0.3750000), wk =   0.0416667
        k(   37) = (  -0.3750000   0.2500000   0.3750000), wk =   0.0416667
        k(   38) = (  -0.3750000   0.1250000  -0.3750000), wk =   0.0416667
        k(   39) = (  -0.1250000   0.0000000  -0.1250000), wk =   0.0416667
        k(   40) = (   0.1250000   0.0000000  -0.1250000), wk =   0.0416667
        k(   41) = (  -0.1250000   0.0000000  -0.3750000), wk =   0.0416667
        k(   42) = (   0.1250000   0.0000000  -0.3750000), wk =   0.0416667
        k(   43) = (  -0.3750000   0.7500000  -0.1250000), wk =   0.0416667
        k(   44) = (   0.3750000  -0.7500000  -0.1250000), wk =   0.0416667
        k(   45) = (   0.3750000   0.3750000  -0.1250000), wk =   0.0208333
        k(   46) = (  -0.3750000   0.7500000  -0.3750000), wk =   0.0416667
        k(   47) = (   0.3750000  -0.7500000  -0.3750000), wk =   0.0416667
        k(   48) = (   0.3750000   0.3750000  -0.3750000), wk =   0.0208333
        k(   49) = (  -0.3750000   0.0000000  -0.1250000), wk =   0.0416667
        k(   50) = (   0.3750000   0.0000000  -0.1250000), wk =   0.0416667
        k(   51) = (  -0.3750000   0.0000000  -0.3750000), wk =   0.0416667
        k(   52) = (   0.3750000   0.0000000  -0.3750000), wk =   0.0416667

     Dense  grid:    24203 G-vectors     FFT dimensions: (  36,  36,  54)

     Dynamical RAM for                 wfc:       0.13 MB

     Dynamical RAM for     wfc (w. buffer):       6.73 MB

     Dynamical RAM for           str. fact:       0.09 MB

     Dynamical RAM for           local pot:       0.00 MB

     Dynamical RAM for          nlocal pot:       0.30 MB

     Dynamical RAM for                qrad:       2.69 MB

     Dynamical RAM for          rho,v,vnew:       0.35 MB

     Dynamical RAM for               rhoin:       0.12 MB

     Dynamical RAM for            rho*nmix:       0.74 MB

     Dynamical RAM for           G-vectors:       0.20 MB

     Dynamical RAM for          h,s,v(r/c):       0.09 MB

     Dynamical RAM for          <psi|beta>:       0.02 MB

     Dynamical RAM for                 psi:       0.25 MB

     Dynamical RAM for                hpsi:       0.25 MB

     Dynamical RAM for      wfcinit/wfcrot:       0.32 MB

     Estimated static dynamical RAM per process >      10.95 MB

     Estimated max dynamical RAM per process >      12.30 MB

     Estimated total dynamical RAM >      98.40 MB

     Initial potential from superposition of free atoms

     starting charge      35.9946, renormalised to      36.0000
     Starting wfcs are   26 randomized atomic wfcs

     total cpu time spent up to now is        0.3 secs

     Self-consistent Calculation

     iteration #  1     ecut=    70.00 Ry     beta= 0.70
     Davidson diagonalization with overlap

---- Real-time Memory Report at c_bands before calling an iterative solver
           114 MiB given to the printing process from OS
             0 MiB allocation reported by mallinfo(arena+hblkhd)
         95993 MiB available memory on the node where the printing process lives
------------------
     ethr =  1.00E-02,  avg # of iterations =  3.3

     total cpu time spent up to now is        0.8 secs

     total energy              =    -347.03375766 Ry
     estimated scf accuracy    <       1.04815761 Ry

     iteration #  2     ecut=    70.00 Ry     beta= 0.70
     Davidson diagonalization with overlap

---- Real-time Memory Report at c_bands before calling an iterative solver
           117 MiB given to the printing process from OS
             0 MiB allocation reported by mallinfo(arena+hblkhd)
         95979 MiB available memory on the node where the printing process lives
------------------
     ethr =  2.91E-03,  avg # of iterations =  2.8

     total cpu time spent up to now is        1.2 secs

     total energy              =    -347.35141813 Ry
     estimated scf accuracy    <       0.95162292 Ry

     iteration #  3     ecut=    70.00 Ry     beta= 0.70
     Davidson diagonalization with overlap

---- Real-time Memory Report at c_bands before calling an iterative solver
           117 MiB given to the printing process from OS
             0 MiB allocation reported by mallinfo(arena+hblkhd)
         95979 MiB available memory on the node where the printing process lives
------------------
     ethr =  2.64E-03,  avg # of iterations =  2.0

     total cpu time spent up to now is        1.6 secs

     total energy              =    -347.51059511 Ry
     estimated scf accuracy    <       0.00757592 Ry

     iteration #  4     ecut=    70.00 Ry     beta= 0.70
     Davidson diagonalization with overlap

---- Real-time Memory Report at c_bands before calling an iterative solver
           117 MiB given to the printing process from OS
             0 MiB allocation reported by mallinfo(arena+hblkhd)
         95977 MiB available memory on the node where the printing process lives
------------------
     ethr =  2.10E-05,  avg # of iterations =  5.4

     total cpu time spent up to now is        2.3 secs

     total energy              =    -347.51521578 Ry
     estimated scf accuracy    <       0.01345124 Ry

     iteration #  5     ecut=    70.00 Ry     beta= 0.70
     Davidson diagonalization with overlap

---- Real-time Memory Report at c_bands before calling an iterative solver
           119 MiB given to the printing process from OS
             0 MiB allocation reported by mallinfo(arena+hblkhd)
         95975 MiB available memory on the node where the printing process lives
------------------
     ethr =  2.10E-05,  avg # of iterations =  2.0

     total cpu time spent up to now is        2.7 secs

     total energy              =    -347.51610127 Ry
     estimated scf accuracy    <       0.00122894 Ry

     iteration #  6     ecut=    70.00 Ry     beta= 0.70
     Davidson diagonalization with overlap

---- Real-time Memory Report at c_bands before calling an iterative solver
           119 MiB given to the printing process from OS
             0 MiB allocation reported by mallinfo(arena+hblkhd)
         95975 MiB available memory on the node where the printing process lives
------------------
     ethr =  3.41E-06,  avg # of iterations =  2.0

     total cpu time spent up to now is        3.1 secs

     total energy              =    -347.51611686 Ry
     estimated scf accuracy    <       0.00027197 Ry

     iteration #  7     ecut=    70.00 Ry     beta= 0.70
     Davidson diagonalization with overlap

---- Real-time Memory Report at c_bands before calling an iterative solver
           121 MiB given to the printing process from OS
             0 MiB allocation reported by mallinfo(arena+hblkhd)
         95975 MiB available memory on the node where the printing process lives
------------------
     ethr =  7.55E-07,  avg # of iterations =  2.4

     total cpu time spent up to now is        3.5 secs

     total energy              =    -347.51614159 Ry
     estimated scf accuracy    <       0.00002926 Ry

     iteration #  8     ecut=    70.00 Ry     beta= 0.70
     Davidson diagonalization with overlap

---- Real-time Memory Report at c_bands before calling an iterative solver
           121 MiB given to the printing process from OS
             0 MiB allocation reported by mallinfo(arena+hblkhd)
         95975 MiB available memory on the node where the printing process lives
------------------
     ethr =  8.13E-08,  avg # of iterations =  3.1

     total cpu time spent up to now is        3.9 secs

     total energy              =    -347.51614925 Ry
     estimated scf accuracy    <       0.00000010 Ry

     iteration #  9     ecut=    70.00 Ry     beta= 0.70
     Davidson diagonalization with overlap

---- Real-time Memory Report at c_bands before calling an iterative solver
           121 MiB given to the printing process from OS
             0 MiB allocation reported by mallinfo(arena+hblkhd)
         95975 MiB available memory on the node where the printing process lives
------------------
     ethr =  2.83E-10,  avg # of iterations =  5.1

     total cpu time spent up to now is        4.6 secs

     total energy              =    -347.51614920 Ry
     estimated scf accuracy    <       0.00000119 Ry

     iteration # 10     ecut=    70.00 Ry     beta= 0.70
     Davidson diagonalization with overlap

---- Real-time Memory Report at c_bands before calling an iterative solver
           121 MiB given to the printing process from OS
             0 MiB allocation reported by mallinfo(arena+hblkhd)
         95973 MiB available memory on the node where the printing process lives
------------------
     ethr =  2.83E-10,  avg # of iterations =  3.2

     total cpu time spent up to now is        5.1 secs

     End of self-consistent calculation

          k = 0.1250 0.2165 0.0767 (  3023 PWs)   bands (ev):

    -4.8383  -4.3005  -2.7729  -2.7672  -2.7024  -2.7000  -2.5977  -2.5536
    -2.5431  -2.5172  -2.4433  -1.0065   4.4982   7.6328   7.9675   8.9539
    10.0922  10.1821  14.9688  17.0470  18.6060  18.8334

     occupation numbers 
     1.0000   1.0000   1.0000   1.0000   1.0000   1.0000   1.0000   1.0000
     1.0000   1.0000   1.0000   1.0000   1.0000   1.0000   1.0000   1.0000
     1.0000   1.0000   0.0000   0.0000   0.0000   0.0000

          k = 0.1250 0.2165 0.2302 (  3028 PWs)   bands (ev):

    -4.6105  -4.3846  -2.7575  -2.7455  -2.7238  -2.7161  -2.6040  -2.5725
    -2.5103  -2.4892  -2.2962  -1.7444   5.7879   7.1568   8.3276   9.0508
     9.5563   9.6477  15.7273  16.8208  18.1617  18.7275

     occupation numbers 
     1.0000   1.0000   1.0000   1.0000   1.0000   1.0000   1.0000   1.0000
     1.0000   1.0000   1.0000   1.0000   1.0000   1.0000   1.0000   1.0000
     1.0000   1.0000   0.0000   0.0000   0.0000   0.0000

          k = 0.1250 0.5052 0.0767 (  3029 PWs)   bands (ev):

    -4.3730  -4.2257  -2.7697  -2.7266  -2.6317  -2.6045  -2.5746  -2.5330
    -2.4863  -2.4583  -1.3815  -0.6053   4.4483   5.5359   6.6987   7.5098
     8.8247   9.1573  16.1224  16.8988  17.5285  19.0865

     occupation numbers 
     1.0000   1.0000   1.0000   1.0000   1.0000   1.0000   1.0000   1.0000
     1.0000   1.0000   1.0000   1.0000   1.0000   1.0000   1.0000   1.0000
     1.0000   1.0000   0.0000   0.0000   0.0000   0.0000

          k = 0.1250 0.5052 0.2302 (  3036 PWs)   bands (ev):

    -4.2923  -4.2318  -2.7532  -2.7152  -2.6930  -2.6176  -2.5646  -2.5262
    -2.4805  -2.4714  -1.2060  -0.8824   4.2927   4.7694   7.5724   8.3867
     8.5088   9.3317  15.5658  16.4308  18.4700  19.0063

     occupation numbers 
     1.0000   1.0000   1.0000   1.0000   1.0000   1.0000   1.0000   1.0000
     1.0000   1.0000   1.0000   1.0000   1.0000   1.0000   1.0000   1.0000
     1.0000   1.0000   0.0000   0.0000   0.0000   0.0000

          k = 0.1250-0.3608 0.0767 (  3033 PWs)   bands (ev):

    -4.5368  -4.2472  -2.7554  -2.7349  -2.6592  -2.6230  -2.5897  -2.5540
    -2.5104  -2.4700  -2.0899  -0.6894   4.8521   6.2711   6.7978   8.0017
     9.5087   9.6359  15.9494  17.4323  17.5766  18.9434

     occupation numbers 
     1.0000   1.0000   1.0000   1.0000   1.0000   1.0000   1.0000   1.0000
     1.0000   1.0000   1.0000   1.0000   1.0000   1.0000   1.0000   1.0000
     1.0000   1.0000   0.0000   0.0000   0.0000   0.0000

          k = 0.1250-0.3608 0.2302 (  3029 PWs)   bands (ev):

    -4.3995  -4.2806  -2.7431  -2.7165  -2.6941  -2.6516  -2.5850  -2.5674
    -2.4929  -2.4824  -1.8343  -1.2830   5.1465   5.8387   7.8849   8.3428
     8.9382   9.4381  15.8622  16.7931  18.2180  18.9031

     occupation numbers 
     1.0000   1.0000   1.0000   1.0000   1.0000   1.0000   1.0000   1.0000
     1.0000   1.0000   1.0000   1.0000   1.0000   1.0000   1.0000   1.0000
     1.0000   1.0000   0.0000   0.0000   0.0000   0.0000

          k = 0.1250-0.0722 0.0767 (  3010 PWs)   bands (ev):

    -5.0739  -4.3538  -2.8012  -2.7753  -2.7543  -2.7346  -2.7154  -2.5655
    -2.5545  -2.4877  -2.4610  -1.2187   4.1385   8.6643   9.3435   9.4897
    10.4212  10.5922  13.9900  15.9830  19.3906  19.8882

     occupation numbers 
     1.0000   1.0000   1.0000   1.0000   1.0000   1.0000   1.0000   1.0000
     1.0000   1.0000   1.0000   1.0000   1.0000   1.0000   1.0000   1.0000
     1.0000   1.0000   0.0000   0.0000   0.0000   0.0000

          k = 0.1250-0.0722 0.2302 (  3005 PWs)   bands (ev):

    -4.7894  -4.4814  -2.7856  -2.7645  -2.7595  -2.7391  -2.6425  -2.5310
    -2.5214  -2.4825  -2.4689  -1.9982   5.7960   7.8175   9.1123   9.7958
     9.8072  10.2514  15.1586  15.9849  18.7739  19.2086

     occupation numbers 
     1.0000   1.0000   1.0000   1.0000   1.0000   1.0000   1.0000   1.0000
     1.0000   1.0000   1.0000   1.0000   1.0000   1.0000   1.0000   1.0000
     1.0000   1.0000   0.0000   0.0000   0.0000   0.0000

          k = 0.3750 0.6495 0.0767 (  3025 PWs)   bands (ev):

    -4.2875  -4.2360  -2.7927  -2.6558  -2.6180  -2.5799  -2.5733  -2.5430
    -2.5147  -2.4856  -0.9122  -0.6457   4.8264   5.3454   5.9800   7.6373
     8.1212   8.3504  16.2217  18.0466  18.5341  18.8927

     occupation numbers 
     1.0000   1.0000   1.0000   1.0000   1.0000   1.0000   1.0000   1.0000
     1.0000   1.0000   1.0000   1.0000   1.0000   1.0000   1.0000   1.0000
     1.0000   1.0000   0.0000   0.0000   0.0000   0.0000

          k = 0.3750 0.6495 0.2302 (  3050 PWs)   bands (ev):

    -4.2402  -4.2189  -2.7238  -2.6918  -2.6853  -2.6171  -2.5455  -2.5342
    -2.5089  -2.5053  -0.8339  -0.7196   4.4699   4.6693   6.4422   7.3379
     8.8487   9.1808  16.6469  17.3781  18.1039  18.7054

     occupation numbers 
     1.0000   1.0000   1.0000   1.0000   1.0000   1.0000   1.0000   1.0000
     1.0000   1.0000   1.0000   1.0000   1.0000   1.0000   1.0000   1.0000
     1.0000   1.0000   0.0000   0.0000   0.0000   0.0000

          k = 0.3750-0.2165 0.0767 (  3030 PWs)   bands (ev):

    -4.4599  -4.2346  -2.7536  -2.7191  -2.6576  -2.6095  -2.5728  -2.5468
    -2.4963  -2.4468  -1.8571  -0.6492   4.5538   5.8168   6.5229   8.2917
     9.2176   9.8523  15.5871  16.3920  17.6772  19.1350

     occupation numbers 
     1.0000   1.0000   1.0000   1.0000   1.0000   1.0000   1.0000   1.0000
     1.0000   1.0000   1.0000   1.0000   1.0000   1.0000   1.0000   1.0000
     1.0000   1.0000   0.0000   0.0000   0.0000   0.0000

          k = 0.3750-0.2165 0.2302 (  3010 PWs)   bands (ev):

    -4.3497  -4.2571  -2.7622  -2.7240  -2.6730  -2.6104  -2.5752  -2.5340
    -2.4869  -2.4674  -1.6152  -1.1266   4.5501   5.1540   7.9310   8.7045
     9.2362   9.3448  15.1304  15.9839  18.3364  18.9353

     occupation numbers 
     1.0000   1.0000   1.0000   1.0000   1.0000   1.0000   1.0000   1.0000
     1.0000   1.0000   1.0000   1.0000   1.0000   1.0000   1.0000   1.0000
     1.0000   1.0000   0.0000   0.0000   0.0000   0.0000

          k =-0.1250 0.2165-0.0767 (  3023 PWs)   bands (ev):

    -4.8342  -4.2999  -2.7681  -2.7561  -2.7034  -2.6892  -2.6090  -2.5553
    -2.5517  -2.5160  -2.4449  -1.0058   4.4969   7.5543   7.9607   8.9845
    10.1380  10.1721  14.9497  17.0460  18.6422  18.9010

     occupation numbers 
     1.0000   1.0000   1.0000   1.0000   1.0000   1.0000   1.0000   1.0000
     1.0000   1.0000   1.0000   1.0000   1.0000   1.0000   1.0000   1.0000
     1.0000   1.0000   0.0000   0.0000   0.0000   0.0000

          k = 0.1250-0.2165-0.0767 (  3023 PWs)   bands (ev):

    -4.8342  -4.2999  -2.7681  -2.7561  -2.7034  -2.6892  -2.6090  -2.5553
    -2.5517  -2.5160  -2.4449  -1.0058   4.4969   7.5543   7.9607   8.9845
    10.1380  10.1721  14.9497  17.0460  18.6422  18.9010

     occupation numbers 
     1.0000   1.0000   1.0000   1.0000   1.0000   1.0000   1.0000   1.0000
     1.0000   1.0000   1.0000   1.0000   1.0000   1.0000   1.0000   1.0000
     1.0000   1.0000   0.0000   0.0000   0.0000   0.0000

          k = 0.1250 0.2165-0.0767 (  3023 PWs)   bands (ev):

    -4.8383  -4.3005  -2.7729  -2.7672  -2.7024  -2.7000  -2.5977  -2.5536
    -2.5431  -2.5172  -2.4433  -1.0065   4.4982   7.6328   7.9675   8.9539
    10.0922  10.1821  14.9688  17.0470  18.6060  18.8334

     occupation numbers 
     1.0000   1.0000   1.0000   1.0000   1.0000   1.0000   1.0000   1.0000
     1.0000   1.0000   1.0000   1.0000   1.0000   1.0000   1.0000   1.0000
     1.0000   1.0000   0.0000   0.0000   0.0000   0.0000

          k =-0.1250 0.2165-0.2302 (  3028 PWs)   bands (ev):

    -4.6076  -4.3834  -2.7565  -2.7343  -2.7263  -2.7057  -2.6107  -2.5722
    -2.5118  -2.4897  -2.3015  -1.7449   5.7695   7.1193   8.2712   9.1052
     9.5430   9.7070  15.7136  16.8263  18.1681  18.7517

     occupation numbers 
     1.0000   1.0000   1.0000   1.0000   1.0000   1.0000   1.0000   1.0000
     1.0000   1.0000   1.0000   1.0000   1.0000   1.0000   1.0000   1.0000
     1.0000   1.0000   0.0000   0.0000   0.0000   0.0000

          k = 0.1250-0.2165-0.2302 (  3028 PWs)   bands (ev):

    -4.6076  -4.3834  -2.7565  -2.7343  -2.7263  -2.7057  -2.6107  -2.5722
    -2.5118  -2.4897  -2.3015  -1.7449   5.7695   7.1193   8.2712   9.1052
     9.5430   9.7070  15.7136  16.8263  18.1681  18.7517

     occupation numbers 
     1.0000   1.0000   1.0000   1.0000   1.0000   1.0000   1.0000   1.0000
     1.0000   1.0000   1.0000   1.0000   1.0000   1.0000   1.0000   1.0000
     1.0000   1.0000   0.0000   0.0000   0.0000   0.0000

          k = 0.1250 0.2165-0.2302 (  3028 PWs)   bands (ev):

    -4.6105  -4.3846  -2.7575  -2.7455  -2.7238  -2.7161  -2.6040  -2.5725
    -2.5103  -2.4892  -2.2962  -1.7444   5.7879   7.1568   8.3276   9.0508
     9.5563   9.6477  15.7273  16.8208  18.1617  18.7276

     occupation numbers 
     1.0000   1.0000   1.0000   1.0000   1.0000   1.0000   1.0000   1.0000
     1.0000   1.0000   1.0000   1.0000   1.0000   1.0000   1.0000   1.0000
     1.0000   1.0000   0.0000   0.0000   0.0000   0.0000

          k =-0.1250 0.5052-0.0767 (  3029 PWs)   bands (ev):

    -4.3721  -4.2261  -2.7684  -2.7258  -2.6302  -2.6046  -2.5726  -2.5310
    -2.4870  -2.4584  -1.3794  -0.6102   4.4428   5.5175   6.7109   7.5036
     8.8277   9.1633  16.1153  16.9164  17.5235  19.0919

     occupation numbers 
     1.0000   1.0000   1.0000   1.0000   1.0000   1.0000   1.0000   1.0000
     1.0000   1.0000   1.0000   1.0000   1.0000   1.0000   1.0000   1.0000
     1.0000   1.0000   0.0000   0.0000   0.0000   0.0000

          k = 0.1250-0.5052-0.0767 (  3029 PWs)   bands (ev):

    -4.3721  -4.2261  -2.7684  -2.7258  -2.6302  -2.6046  -2.5726  -2.5310
    -2.4870  -2.4584  -1.3794  -0.6102   4.4428   5.5175   6.7109   7.5036
     8.8277   9.1633  16.1153  16.9164  17.5235  19.0919

     occupation numbers 
     1.0000   1.0000   1.0000   1.0000   1.0000   1.0000   1.0000   1.0000
     1.0000   1.0000   1.0000   1.0000   1.0000   1.0000   1.0000   1.0000
     1.0000   1.0000   0.0000   0.0000   0.0000   0.0000

          k =-0.3750 0.3608 0.0767 (  3029 PWs)   bands (ev):

    -4.3646  -4.2256  -2.7612  -2.7153  -2.6322  -2.6025  -2.5645  -2.5386
    -2.4858  -2.4595  -1.3730  -0.6230   4.4293   5.4343   6.7431   7.5374
     8.7657   9.1873  16.1764  16.9277  17.5815  19.0840

     occupation numbers 
     1.0000   1.0000   1.0000   1.0000   1.0000   1.0000   1.0000   1.0000
     1.0000   1.0000   1.0000   1.0000   1.0000   1.0000   1.0000   1.0000
     1.0000   1.0000   0.0000   0.0000   0.0000   0.0000

          k = 0.3750-0.3608 0.0767 (  3029 PWs)   bands (ev):

    -4.3646  -4.2256  -2.7612  -2.7153  -2.6322  -2.6025  -2.5645  -2.5386
    -2.4858  -2.4595  -1.3730  -0.6230   4.4293   5.4343   6.7431   7.5374
     8.7657   9.1873  16.1764  16.9277  17.5815  19.0840

     occupation numbers 
     1.0000   1.0000   1.0000   1.0000   1.0000   1.0000   1.0000   1.0000
     1.0000   1.0000   1.0000   1.0000   1.0000   1.0000   1.0000   1.0000
     1.0000   1.0000   0.0000   0.0000   0.0000   0.0000

          k = 0.3750 0.3608-0.0767 (  3029 PWs)   bands (ev):

    -4.3730  -4.2257  -2.7697  -2.7266  -2.6317  -2.6045  -2.5746  -2.5330
    -2.4863  -2.4583  -1.3815  -0.6053   4.4482   5.5359   6.6987   7.5098
     8.8247   9.1573  16.1224  16.8988  17.5285  19.0865

     occupation numbers 
     1.0000   1.0000   1.0000   1.0000   1.0000   1.0000   1.0000   1.0000
     1.0000   1.0000   1.0000   1.0000   1.0000   1.0000   1.0000   1.0000
     1.0000   1.0000   0.0000   0.0000   0.0000   0.0000

          k =-0.1250 0.5052-0.2302 (  3036 PWs)   bands (ev):

    -4.2920  -4.2320  -2.7534  -2.7162  -2.6901  -2.6148  -2.5631  -2.5231
    -2.4816  -2.4729  -1.2044  -0.8834   4.2806   4.7516   7.5897   8.3670
     8.5377   9.3274  15.5647  16.4454  18.4336  19.0087

     occupation numbers 
     1.0000   1.0000   1.0000   1.0000   1.0000   1.0000   1.0000   1.0000
     1.0000   1.0000   1.0000   1.0000   1.0000   1.0000   1.0000   1.0000
     1.0000   1.0000   0.0000   0.0000   0.0000   0.0000

          k = 0.1250-0.5052-0.2302 (  3036 PWs)   bands (ev):

    -4.2920  -4.2320  -2.7534  -2.7162  -2.6901  -2.6148  -2.5631  -2.5231
    -2.4816  -2.4729  -1.2044  -0.8834   4.2806   4.7516   7.5897   8.3670
     8.5377   9.3274  15.5647  16.4454  18.4336  19.0087

     occupation numbers 
     1.0000   1.0000   1.0000   1.0000   1.0000   1.0000   1.0000   1.0000
     1.0000   1.0000   1.0000   1.0000   1.0000   1.0000   1.0000   1.0000
     1.0000   1.0000   0.0000   0.0000   0.0000   0.0000

          k =-0.3750 0.3608 0.2302 (  3036 PWs)   bands (ev):

    -4.2877  -4.2305  -2.7482  -2.7150  -2.6814  -2.6052  -2.5622  -2.5277
    -2.4819  -2.4739  -1.1982  -0.8838   4.2383   4.6815   7.6221   8.4028
     8.5541   9.3073  15.5698  16.4079  18.4819  19.0600

     occupation numbers 
     1.0000   1.0000   1.0000   1.0000   1.0000   1.0000   1.0000   1.0000
     1.0000   1.0000   1.0000   1.0000   1.0000   1.0000   1.0000   1.0000
     1.0000   1.0000   0.0000   0.0000   0.0000   0.0000

          k = 0.3750-0.3608 0.2302 (  3036 PWs)   bands (ev):

    -4.2877  -4.2305  -2.7482  -2.7150  -2.6814  -2.6052  -2.5622  -2.5277
    -2.4819  -2.4739  -1.1982  -0.8838   4.2383   4.6815   7.6221   8.4028
     8.5541   9.3073  15.5698  16.4079  18.4819  19.0600

     occupation numbers 
     1.0000   1.0000   1.0000   1.0000   1.0000   1.0000   1.0000   1.0000
     1.0000   1.0000   1.0000   1.0000   1.0000   1.0000   1.0000   1.0000
     1.0000   1.0000   0.0000   0.0000   0.0000   0.0000

          k = 0.3750 0.3608-0.2302 (  3036 PWs)   bands (ev):

    -4.2923  -4.2318  -2.7532  -2.7152  -2.6930  -2.6176  -2.5646  -2.5262
    -2.4805  -2.4714  -1.2060  -0.8824   4.2927   4.7694   7.5724   8.3867
     8.5088   9.3317  15.5658  16.4308  18.4700  19.0063

     occupation numbers 
     1.0000   1.0000   1.0000   1.0000   1.0000   1.0000   1.0000   1.0000
     1.0000   1.0000   1.0000   1.0000   1.0000   1.0000   1.0000   1.0000
     1.0000   1.0000   0.0000   0.0000   0.0000   0.0000

          k =-0.1250-0.3608-0.0767 (  3033 PWs)   bands (ev):

    -4.5399  -4.2469  -2.7603  -2.7379  -2.6620  -2.6307  -2.5877  -2.5572
    -2.5086  -2.4686  -2.0822  -0.6879   4.8669   6.2808   6.8373   7.9834
     9.4757   9.6452  15.9662  17.3824  17.5910  18.9416

     occupation numbers 
     1.0000   1.0000   1.0000   1.0000   1.0000   1.0000   1.0000   1.0000
     1.0000   1.0000   1.0000   1.0000   1.0000   1.0000   1.0000   1.0000
     1.0000   1.0000   0.0000   0.0000   0.0000   0.0000

          k = 0.1250 0.3608-0.0767 (  3033 PWs)   bands (ev):

    -4.5399  -4.2469  -2.7603  -2.7379  -2.6620  -2.6307  -2.5877  -2.5572
    -2.5086  -2.4686  -2.0822  -0.6879   4.8669   6.2808   6.8373   7.9834
     9.4757   9.6452  15.9662  17.3824  17.5910  18.9417

     occupation numbers 
     1.0000   1.0000   1.0000   1.0000   1.0000   1.0000   1.0000   1.0000
     1.0000   1.0000   1.0000   1.0000   1.0000   1.0000   1.0000   1.0000
     1.0000   1.0000   0.0000   0.0000   0.0000   0.0000

          k = 0.3750-0.0722 0.0767 (  3033 PWs)   bands (ev):

    -4.5324  -4.2465  -2.7495  -2.7279  -2.6612  -2.6216  -2.5882  -2.5584
    -2.5109  -2.4701  -2.0941  -0.6892   4.8408   6.2640   6.7661   8.0191
     9.5150   9.6269  15.9594  17.4389  17.6380  18.9638

     occupation numbers 
     1.0000   1.0000   1.0000   1.0000   1.0000   1.0000   1.0000   1.0000
     1.0000   1.0000   1.0000   1.0000   1.0000   1.0000   1.0000   1.0000
     1.0000   1.0000   0.0000   0.0000   0.0000   0.0000

          k =-0.3750 0.0722 0.0767 (  3033 PWs)   bands (ev):

    -4.5324  -4.2465  -2.7495  -2.7279  -2.6612  -2.6216  -2.5882  -2.5584
    -2.5109  -2.4701  -2.0941  -0.6892   4.8408   6.2640   6.7661   8.0191
     9.5150   9.6269  15.9594  17.4389  17.6380  18.9638

     occupation numbers 
     1.0000   1.0000   1.0000   1.0000   1.0000   1.0000   1.0000   1.0000
     1.0000   1.0000   1.0000   1.0000   1.0000   1.0000   1.0000   1.0000
     1.0000   1.0000   0.0000   0.0000   0.0000   0.0000

          k =-0.3750-0.0722-0.0767 (  3033 PWs)   bands (ev):

    -4.5368  -4.2472  -2.7554  -2.7349  -2.6592  -2.6230  -2.5897  -2.5540
    -2.5104  -2.4700  -2.0899  -0.6894   4.8521   6.2711   6.7978   8.0017
     9.5087   9.6359  15.9494  17.4323  17.5766  18.9434

     occupation numbers 
     1.0000   1.0000   1.0000   1.0000   1.0000   1.0000   1.0000   1.0000
     1.0000   1.0000   1.0000   1.0000   1.0000   1.0000   1.0000   1.0000
     1.0000   1.0000   0.0000   0.0000   0.0000   0.0000

          k =-0.1250-0.3608-0.2302 (  3029 PWs)   bands (ev):

    -4.4011  -4.2809  -2.7433  -2.7191  -2.6986  -2.6595  -2.5886  -2.5681
    -2.4907  -2.4804  -1.8307  -1.2825   5.1798   5.8763   7.8714   8.3390
     8.8898   9.4479  15.8639  16.7597  18.2664  18.9324

     occupation numbers 
     1.0000   1.0000   1.0000   1.0000   1.0000   1.0000   1.0000   1.0000
     1.0000   1.0000   1.0000   1.0000   1.0000   1.0000   1.0000   1.0000
     1.0000   1.0000   0.0000   0.0000   0.0000   0.0000

          k = 0.1250 0.3608-0.2302 (  3029 PWs)   bands (ev):

    -4.4011  -4.2809  -2.7433  -2.7191  -2.6986  -2.6595  -2.5886  -2.5681
    -2.4907  -2.4804  -1.8307  -1.2825   5.1798   5.8763   7.8714   8.3390
     8.8898   9.4479  15.8639  16.7597  18.2664  18.9324

     occupation numbers 
     1.0000   1.0000   1.0000   1.0000   1.0000   1.0000   1.0000   1.0000
     1.0000   1.0000   1.0000   1.0000   1.0000   1.0000   1.0000   1.0000
     1.0000   1.0000   0.0000   0.0000   0.0000   0.0000

          k = 0.3750-0.0722 0.2302 (  3029 PWs)   bands (ev):

    -4.3967  -4.2794  -2.7389  -2.7145  -2.6889  -2.6477  -2.5873  -2.5714
    -2.4930  -2.4823  -1.8360  -1.2821   5.1212   5.8086   7.8792   8.3707
     8.9497   9.4385  15.8541  16.7700  18.2743  18.9586

     occupation numbers 
     1.0000   1.0000   1.0000   1.0000   1.0000   1.0000   1.0000   1.0000
     1.0000   1.0000   1.0000   1.0000   1.0000   1.0000   1.0000   1.0000
     1.0000   1.0000   0.0000   0.0000   0.0000   0.0000

          k =-0.3750 0.0722 0.2302 (  3029 PWs)   bands (ev):

    -4.3967  -4.2794  -2.7389  -2.7145  -2.6889  -2.6477  -2.5873  -2.5714
    -2.4930  -2.4823  -1.8360  -1.2821   5.1212   5.8086   7.8792   8.3707
     8.9497   9.4385  15.8541  16.7700  18.2743  18.9586

     occupation numbers 
     1.0000   1.0000   1.0000   1.0000   1.0000   1.0000   1.0000   1.0000
     1.0000   1.0000   1.0000   1.0000   1.0000   1.0000   1.0000   1.0000
     1.0000   1.0000   0.0000   0.0000   0.0000   0.0000

          k =-0.3750-0.0722-0.2302 (  3029 PWs)   bands (ev):

    -4.3995  -4.2806  -2.7431  -2.7165  -2.6941  -2.6516  -2.5850  -2.5674
    -2.4929  -2.4824  -1.8343  -1.2830   5.1465   5.8387   7.8849   8.3428
     8.9382   9.4381  15.8622  16.7931  18.2180  18.9031

     occupation numbers 
     1.0000   1.0000   1.0000   1.0000   1.0000   1.0000   1.0000   1.0000
     1.0000   1.0000   1.0000   1.0000   1.0000   1.0000   1.0000   1.0000
     1.0000   1.0000   0.0000   0.0000   0.0000   0.0000

          k =-0.1250-0.0722-0.0767 (  3010 PWs)   bands (ev):

    -5.0757  -4.3543  -2.8023  -2.7881  -2.7514  -2.7227  -2.7179  -2.5628
    -2.5559  -2.4886  -2.4602  -1.2192   4.1383   8.7225   9.3818   9.4256
    10.4316  10.5552  14.0005  15.9834  19.3207  19.8672

     occupation numbers 
     1.0000   1.0000   1.0000   1.0000   1.0000   1.0000   1.0000   1.0000
     1.0000   1.0000   1.0000   1.0000   1.0000   1.0000   1.0000   1.0000
     1.0000   1.0000   0.0000   0.0000   0.0000   0.0000

          k = 0.1250 0.0722-0.0767 (  3010 PWs)   bands (ev):

    -5.0757  -4.3543  -2.8023  -2.7881  -2.7514  -2.7227  -2.7179  -2.5628
    -2.5559  -2.4886  -2.4602  -1.2192   4.1383   8.7225   9.3818   9.4256
    10.4316  10.5552  14.0005  15.9834  19.3207  19.8672

     occupation numbers 
     1.0000   1.0000   1.0000   1.0000   1.0000   1.0000   1.0000   1.0000
     1.0000   1.0000   1.0000   1.0000   1.0000   1.0000   1.0000   1.0000
     1.0000   1.0000   0.0000   0.0000   0.0000   0.0000

          k =-0.1250-0.0722-0.2302 (  3005 PWs)   bands (ev):

    -4.7908  -4.4822  -2.7821  -2.7731  -2.7564  -2.7454  -2.6366  -2.5298
    -2.5230  -2.4832  -2.4669  -1.9983   5.7994   7.8302   9.1694   9.7368
     9.8429  10.2045  15.1696  15.9895  18.7419  19.1797

     occupation numbers 
     1.0000   1.0000   1.0000   1.0000   1.0000   1.0000   1.0000   1.0000
     1.0000   1.0000   1.0000   1.0000   1.0000   1.0000   1.0000   1.0000
     1.0000   1.0000   0.0000   0.0000   0.0000   0.0000

          k = 0.1250 0.0722-0.2302 (  3005 PWs)   bands (ev):

    -4.7908  -4.4822  -2.7821  -2.7731  -2.7564  -2.7454  -2.6366  -2.5298
    -2.5230  -2.4832  -2.4669  -1.9983   5.7994   7.8302   9.1694   9.7368
     9.8429  10.2045  15.1696  15.9896  18.7419  19.1797

     occupation numbers 
     1.0000   1.0000   1.0000   1.0000   1.0000   1.0000   1.0000   1.0000
     1.0000   1.0000   1.0000   1.0000   1.0000   1.0000   1.0000   1.0000
     1.0000   1.0000   0.0000   0.0000   0.0000   0.0000

          k =-0.3750 0.6495-0.0767 (  3025 PWs)   bands (ev):

    -4.2919  -4.2345  -2.7963  -2.6633  -2.6140  -2.5862  -2.5756  -2.5382
    -2.5148  -2.4854  -0.9388  -0.6156   4.8270   5.4316   5.9385   7.5843
     8.1075   8.4029  16.1869  18.0355  18.5324  18.9046

     occupation numbers 
     1.0000   1.0000   1.0000   1.0000   1.0000   1.0000   1.0000   1.0000
     1.0000   1.0000   1.0000   1.0000   1.0000   1.0000   1.0000   1.0000
     1.0000   1.0000   0.0000   0.0000   0.0000   0.0000

          k = 0.3750-0.6495-0.0767 (  3025 PWs)   bands (ev):

    -4.2919  -4.2345  -2.7963  -2.6633  -2.6140  -2.5862  -2.5756  -2.5382
    -2.5148  -2.4854  -0.9388  -0.6156   4.8270   5.4316   5.9385   7.5843
     8.1075   8.4029  16.1869  18.0355  18.5324  18.9046

     occupation numbers 
     1.0000   1.0000   1.0000   1.0000   1.0000   1.0000   1.0000   1.0000
     1.0000   1.0000   1.0000   1.0000   1.0000   1.0000   1.0000   1.0000
     1.0000   1.0000   0.0000   0.0000   0.0000   0.0000

          k = 0.3750 0.6495-0.0767 (  3025 PWs)   bands (ev):

    -4.2875  -4.2360  -2.7927  -2.6558  -2.6180  -2.5799  -2.5733  -2.5430
    -2.5147  -2.4856  -0.9122  -0.6457   4.8264   5.3454   5.9801   7.6373
     8.1212   8.3504  16.2217  18.0466  18.5341  18.8927

     occupation numbers 
     1.0000   1.0000   1.0000   1.0000   1.0000   1.0000   1.0000   1.0000
     1.0000   1.0000   1.0000   1.0000   1.0000   1.0000   1.0000   1.0000
     1.0000   1.0000   0.0000   0.0000   0.0000   0.0000

          k =-0.3750 0.6495-0.2302 (  3050 PWs)   bands (ev):

    -4.2422  -4.2187  -2.7269  -2.6959  -2.6836  -2.6227  -2.5514  -2.5367
    -2.5052  -2.5006  -0.8484  -0.7103   4.4963   4.7317   6.4070   7.3072
     8.8201   9.2110  16.6348  17.4114  18.1070  18.7121

     occupation numbers 
     1.0000   1.0000   1.0000   1.0000   1.0000   1.0000   1.0000   1.0000
     1.0000   1.0000   1.0000   1.0000   1.0000   1.0000   1.0000   1.0000
     1.0000   1.0000   0.0000   0.0000   0.0000   0.0000

          k = 0.3750-0.6495-0.2302 (  3050 PWs)   bands (ev):

    -4.2422  -4.2187  -2.7269  -2.6959  -2.6836  -2.6227  -2.5514  -2.5367
    -2.5052  -2.5006  -0.8484  -0.7103   4.4963   4.7317   6.4070   7.3072
     8.8201   9.2110  16.6348  17.4114  18.1070  18.7121

     occupation numbers 
     1.0000   1.0000   1.0000   1.0000   1.0000   1.0000   1.0000   1.0000
     1.0000   1.0000   1.0000   1.0000   1.0000   1.0000   1.0000   1.0000
     1.0000   1.0000   0.0000   0.0000   0.0000   0.0000

          k = 0.3750 0.6495-0.2302 (  3050 PWs)   bands (ev):

    -4.2402  -4.2189  -2.7238  -2.6918  -2.6853  -2.6171  -2.5455  -2.5342
    -2.5089  -2.5053  -0.8339  -0.7196   4.4699   4.6693   6.4422   7.3379
     8.8487   9.1808  16.6469  17.3781  18.1038  18.7054

     occupation numbers 
     1.0000   1.0000   1.0000   1.0000   1.0000   1.0000   1.0000   1.0000
     1.0000   1.0000   1.0000   1.0000   1.0000   1.0000   1.0000   1.0000
     1.0000   1.0000   0.0000   0.0000   0.0000   0.0000

          k =-0.3750-0.2165-0.0767 (  3030 PWs)   bands (ev):

    -4.4694  -4.2358  -2.7627  -2.7337  -2.6557  -2.6088  -2.5840  -2.5388
    -2.4970  -2.4456  -1.8501  -0.6457   4.5835   5.8582   6.5440   8.2568
     9.2713   9.8255  15.5596  16.3493  17.5841  19.1220

     occupation numbers 
     1.0000   1.0000   1.0000   1.0000   1.0000   1.0000   1.0000   1.0000
     1.0000   1.0000   1.0000   1.0000   1.0000   1.0000   1.0000   1.0000
     1.0000   1.0000   0.0000   0.0000   0.0000   0.0000

          k = 0.3750 0.2165-0.0767 (  3030 PWs)   bands (ev):

    -4.4694  -4.2358  -2.7627  -2.7337  -2.6557  -2.6088  -2.5840  -2.5388
    -2.4970  -2.4456  -1.8501  -0.6457   4.5835   5.8582   6.5440   8.2568
     9.2713   9.8255  15.5596  16.3493  17.5841  19.1220

     occupation numbers 
     1.0000   1.0000   1.0000   1.0000   1.0000   1.0000   1.0000   1.0000
     1.0000   1.0000   1.0000   1.0000   1.0000   1.0000   1.0000   1.0000
     1.0000   1.0000   0.0000   0.0000   0.0000   0.0000

          k =-0.3750-0.2165-0.2302 (  3010 PWs)   bands (ev):

    -4.3554  -4.2595  -2.7682  -2.7247  -2.6867  -2.6230  -2.5731  -2.5283
    -2.4868  -2.4665  -1.6135  -1.1283   4.6026   5.2234   7.9129   8.6715
     9.2468   9.3169  15.1327  15.9958  18.2936  18.8606

     occupation numbers 
     1.0000   1.0000   1.0000   1.0000   1.0000   1.0000   1.0000   1.0000
     1.0000   1.0000   1.0000   1.0000   1.0000   1.0000   1.0000   1.0000
     1.0000   1.0000   0.0000   0.0000   0.0000   0.0000

          k = 0.3750 0.2165-0.2302 (  3010 PWs)   bands (ev):

    -4.3554  -4.2595  -2.7682  -2.7247  -2.6867  -2.6230  -2.5731  -2.5283
    -2.4868  -2.4665  -1.6135  -1.1283   4.6026   5.2234   7.9129   8.6715
     9.2468   9.3169  15.1327  15.9958  18.2936  18.8606

     occupation numbers 
     1.0000   1.0000   1.0000   1.0000   1.0000   1.0000   1.0000   1.0000
     1.0000   1.0000   1.0000   1.0000   1.0000   1.0000   1.0000   1.0000
     1.0000   1.0000   0.0000   0.0000   0.0000   0.0000

     highest occupied, lowest unoccupied level (ev):    10.5922   13.9900

!    total energy              =    -347.51614942 Ry
     estimated scf accuracy    <          3.9E-09 Ry

     The total energy is the sum of the following terms:
     one-electron contribution =    -104.68218894 Ry
     hartree contribution      =      87.26047408 Ry
     xc contribution           =     -96.29879627 Ry
     ewald contribution        =    -233.79563829 Ry

     convergence has been achieved in  10 iterations

     Forces acting on atoms (cartesian axes, Ry/au):

     atom    1 type  1   force =     0.00798368   -0.00460989    0.00394665
     atom    2 type  1   force =    -0.00798412    0.00460912    0.00394665
     atom    3 type  2   force =    -0.00812650    0.00469234   -0.00394665
     atom    4 type  2   force =     0.00812694   -0.00469158   -0.00394665
     The non-local contrib.  to forces
     atom    1 type  1   force =     0.00982114   -0.00567192    0.00121958
     atom    2 type  1   force =    -0.00982259    0.00566940    0.00121958
     atom    3 type  2   force =     0.00519161   -0.00299771   -0.00866481
     atom    4 type  2   force =    -0.00519190    0.00299721   -0.00866481
     The ionic contribution  to forces
     atom    1 type  1   force =     0.16553159   -0.09556971   -0.09488106
     atom    2 type  1   force =    -0.16553159    0.09556971   -0.09488106
     atom    3 type  2   force =    -0.14881985    0.08592118    0.09488106
     atom    4 type  2   force =     0.14881985   -0.08592118    0.09488106
     The local contribution  to forces
     atom    1 type  1   force =    -0.16769277    0.09682029    0.09767781
     atom    2 type  1   force =     0.16769521   -0.09681606    0.09767781
     atom    3 type  2   force =     0.13543054   -0.07819215   -0.09048142
     atom    4 type  2   force =    -0.13543165    0.07819021   -0.09048142
     The core correction contribution to forces
     atom    1 type  1   force =     0.00040560   -0.00023363   -0.00001792
     atom    2 type  1   force =    -0.00040513    0.00023444   -0.00001792
     atom    3 type  2   force =     0.00006373   -0.00003641    0.00032677
     atom    4 type  2   force =    -0.00006340    0.00003699    0.00032677
     The Hubbard contrib.    to forces
     atom    1 type  1   force =     0.00000000    0.00000000    0.00000000
     atom    2 type  1   force =     0.00000000    0.00000000    0.00000000
     atom    3 type  2   force =     0.00000000    0.00000000    0.00000000
     atom    4 type  2   force =     0.00000000    0.00000000    0.00000000
     The SCF correction term to forces
     atom    1 type  1   force =    -0.00008218    0.00004455   -0.00004084
     atom    2 type  1   force =     0.00007967   -0.00004889   -0.00004084
     atom    3 type  2   force =     0.00000716   -0.00000310    0.00000266
     atom    4 type  2   force =    -0.00000626    0.00000466    0.00000266

     Total force =     0.020209     Total SCF correction =     0.000145

     Writing all to output data dir ./tmp/GaN.save/ :
     XML data file, charge density, pseudopotentials, collected wavefunctions
 
     init_run     :      0.19s CPU      0.21s WALL (       1 calls)
     electrons    :      4.59s CPU      4.84s WALL (       1 calls)
     forces       :      0.04s CPU      0.04s WALL (       1 calls)

     Called by init_run:
     wfcinit      :      0.18s CPU      0.19s WALL (       1 calls)
     wfcinit:atom :      0.00s CPU      0.00s WALL (      52 calls)
     wfcinit:wfcr :      0.16s CPU      0.17s WALL (      52 calls)
     potinit      :      0.00s CPU      0.00s WALL (       1 calls)
     hinit0       :      0.01s CPU      0.01s WALL (       1 calls)

     Called by electrons:
     c_bands      :      4.01s CPU      4.21s WALL (      10 calls)
     sum_band     :      0.55s CPU      0.59s WALL (      10 calls)
     v_of_rho     :      0.02s CPU      0.02s WALL (      11 calls)
     v_h          :      0.00s CPU      0.00s WALL (      11 calls)
     v_xc         :      0.02s CPU      0.02s WALL (      12 calls)
     mix_rho      :      0.00s CPU      0.00s WALL (      10 calls)

     Called by c_bands:
     init_us_2    :      0.07s CPU      0.07s WALL (    1144 calls)
     cegterg      :      3.81s CPU      4.01s WALL (     520 calls)

     Called by sum_band:
     sum_band:wei :      0.00s CPU      0.00s WALL (      10 calls)
     sum_band:loo :      0.55s CPU      0.58s WALL (      10 calls)
     sum_band:buf :      0.01s CPU      0.01s WALL (     520 calls)
     sum_band:ini :      0.03s CPU      0.03s WALL (     520 calls)

     Called by *egterg:
     cdiaghg      :      0.56s CPU      0.58s WALL (    2142 calls)
     cegterg:over :      0.14s CPU      0.15s WALL (    1622 calls)
     cegterg:upda :      0.06s CPU      0.06s WALL (    1622 calls)
     cegterg:last :      0.10s CPU      0.11s WALL (    1255 calls)
     h_psi        :      3.00s CPU      3.16s WALL (    2194 calls)
     g_psi        :      0.01s CPU      0.01s WALL (    1622 calls)

     Called by h_psi:
     h_psi:calbec :      0.14s CPU      0.15s WALL (    2194 calls)
     vloc_psi     :      2.73s CPU      2.88s WALL (    2194 calls)
     add_vuspsi   :      0.11s CPU      0.11s WALL (    2194 calls)

     General routines
     calbec       :      0.16s CPU      0.16s WALL (    2402 calls)
     fft          :      0.01s CPU      0.01s WALL (     120 calls)
     ffts         :      0.00s CPU      0.00s WALL (      10 calls)
     fftw         :      2.82s CPU      2.98s WALL (   77540 calls)
 
     Parallel routines
 
     PWSCF        :      4.88s CPU      6.15s WALL

 
   This run was terminated on:   0:40: 3  22May2026            

=------------------------------------------------------------------------------=
   JOB DONE.
=------------------------------------------------------------------------------=
