
     Program PWSCF v.7.3.1 starts on 31Jul2026 at 23:16: 8 

     This program is part of the open-source Quantum ESPRESSO suite
     for quantum simulation of materials; please cite
         "P. Giannozzi et al., J. Phys.:Condens. Matter 21 395502 (2009);
         "P. Giannozzi et al., J. Phys.:Condens. Matter 29 465901 (2017);
         "P. Giannozzi et al., J. Chem. Phys. 152 154105 (2020);
          URL http://www.quantum-espresso.org", 
     in publications or presentations arising from this work. More details at
     http://www.quantum-espresso.org/quote

     Parallel version (MPI & OpenMP), running on      12 processor cores
     Number of MPI processes:                12
     Threads/MPI process:                     1

     MPI processes distributed on     1 nodes
     29950 MiB available memory on the printing compute node when the environment starts
 
     Waiting for input...
     Reading input from standard input

     Current dimensions of program PWSCF are:
     Max number of different atomic species (ntypx) = 10
     Max number of k-points (npk) =  40000
     Max angular momentum in pseudopotentials (lmaxx) =  4
     file N.pbe-n-kjpaw_psl.1.0.0.UPF: wavefunction(s)  2S renormalized
 
     R & G space division:  proc/nbgrp/npool/nimage =      12
     Subspace diagonalization in iterative solution of the eigenvalue problem:
     a serial algorithm will be used

 
     Parallelization info
     --------------------
     sticks:   dense  smooth     PW     G-vecs:    dense   smooth      PW
     Min        3729    1492    373               593621   150182   18766
     Max        3730    1493    375               593626   150185   18768
     Sum       44749   17905   4485              7123475  1802199  225199
 
     Using Slab Decomposition
 


     bravais-lattice index     =            1
     lattice parameter (alat)  =      28.3459  a.u.
     unit-cell volume          =   22775.6289 (a.u.)^3
     number of atoms/cell      =            1
     number of atomic types    =            1
     number of electrons       =         5.00 (up:   4.00, down:   1.00)
     number of Kohn-Sham states=            8
     kinetic-energy cutoff     =      70.0000  Ry
     charge density cutoff     =     700.0000  Ry
     scf convergence threshold =      1.0E-08
     mixing beta               =       0.7000
     number of iterations used =            8  plain     mixing
     Exchange-correlation= SLA  PW   PBX  PBC
                           (   1   4   3   4   0   0   0)

     celldm(1)=  28.345892  celldm(2)=   0.000000  celldm(3)=   0.000000
     celldm(4)=   0.000000  celldm(5)=   0.000000  celldm(6)=   0.000000

     crystal axes: (cart. coord. in units of alat)
               a(1) = (   1.000000   0.000000   0.000000 )  
               a(2) = (   0.000000   1.000000   0.000000 )  
               a(3) = (   0.000000   0.000000   1.000000 )  

     reciprocal axes: (cart. coord. in units 2 pi/alat)
               b(1) = (  1.000000  0.000000  0.000000 )  
               b(2) = (  0.000000  1.000000  0.000000 )  
               b(3) = (  0.000000  0.000000  1.000000 )  


     PseudoPot. # 1 for N  read from file:
     /data-fast/greenano/Students/cohort2/rojassan/Project_GaN/PSEUDO/N.pbe-n-kjpaw_psl.1.0.0.UPF
     MD5 check sum: 86f48117b7e7b472c01f85d0863ba463
     Pseudo is Projector augmented-wave + core cor, Zval =  5.0
     Generated using 'atomic' code by A. Dal Corso  v.7.3.1
     Shape of augmentation charge: PSQ
     Using radial grid of 1085 points,  4 beta functions with: 
                l(1) =   0
                l(2) =   0
                l(3) =   1
                l(4) =   1
     Q(r) pseudized with 0 coefficients 


     atomic species   valence    mass     pseudopotential
     N                 5.00    14.00700     N ( 1.00)

     Starting magnetic structure 
     atomic species   magnetization
     N               0.000

     48 Sym. Ops., with inversion, found



   Cartesian axes

     site n.     atom                  positions (alat units)
         1        N      tau(   1) = (   0.0000000   0.0000000   0.0000000  )

     number of k points=     1  Gaussian smearing, width (Ry)=  0.0100
                       cart. coord. in units 2pi/alat
        k(    1) = (   0.0000000   0.0000000   0.0000000), wk =   1.0000000

     Dense  grid:  7123475 G-vectors     FFT dimensions: ( 240, 240, 240)

     Smooth grid:  1802199 G-vectors     FFT dimensions: ( 160, 160, 160)

     Estimated max dynamical RAM per process >     965.03 MB

     Estimated total dynamical RAM >      11.31 GB
     Generating pointlists ...
     new r_m :   0.4125 (alat units) 11.6927 (a.u.) for type    1

     Initial potential from superposition of free atoms

     starting charge       5.0000, renormalised to       5.0000

     negative rho (up, down):  2.063E-04 2.063E-04
     Starting wfcs are    4 randomized atomic wfcs +    4 random wfcs
     Checking if some PAW data can be deallocated... 

     total cpu time spent up to now is        9.7 secs

     Self-consistent Calculation

     iteration #  1     ecut=    70.00 Ry     beta= 0.70
     Davidson diagonalization with overlap
     ethr =  1.00E-02,  avg # of iterations =  7.5

     negative rho (up, down):  2.731E-04 1.218E-04

     total cpu time spent up to now is       18.1 secs

     total energy              =     -27.80881872 Ry
     estimated scf accuracy    <       0.10769491 Ry

     total magnetization       =     3.00 Bohr mag/cell
     absolute magnetization    =     3.00 Bohr mag/cell

     iteration #  2     ecut=    70.00 Ry     beta= 0.70
     Davidson diagonalization with overlap
     ethr =  2.15E-03,  avg # of iterations =  1.0

     negative rho (up, down):  3.085E-04 1.101E-04

     total cpu time spent up to now is       25.2 secs

     total energy              =     -27.83565714 Ry
     estimated scf accuracy    <       0.01558070 Ry

     total magnetization       =     3.00 Bohr mag/cell
     absolute magnetization    =     3.00 Bohr mag/cell

     iteration #  3     ecut=    70.00 Ry     beta= 0.70
     Davidson diagonalization with overlap
     ethr =  3.12E-04,  avg # of iterations =  4.5

     negative rho (up, down):  3.151E-04 9.509E-05

     total cpu time spent up to now is       32.8 secs

     total energy              =     -27.83651122 Ry
     estimated scf accuracy    <       0.00053716 Ry

     total magnetization       =     3.00 Bohr mag/cell
     absolute magnetization    =     3.00 Bohr mag/cell

     iteration #  4     ecut=    70.00 Ry     beta= 0.70
     Davidson diagonalization with overlap
     c_bands:  1 eigenvalues not converged
     ethr =  1.07E-05,  avg # of iterations = 14.5

     negative rho (up, down):  3.241E-04 9.028E-05

     total cpu time spent up to now is       41.7 secs

     total energy              =     -27.83660743 Ry
     estimated scf accuracy    <       0.00000455 Ry

     total magnetization       =     3.00 Bohr mag/cell
     absolute magnetization    =     3.00 Bohr mag/cell

     iteration #  5     ecut=    70.00 Ry     beta= 0.70
     Davidson diagonalization with overlap
     ethr =  9.11E-08,  avg # of iterations = 14.5

     negative rho (up, down):  3.260E-04 8.905E-05

     total cpu time spent up to now is       49.9 secs

     total energy              =     -27.83661100 Ry
     estimated scf accuracy    <       0.00000209 Ry

     total magnetization       =     3.00 Bohr mag/cell
     absolute magnetization    =     3.00 Bohr mag/cell

     iteration #  6     ecut=    70.00 Ry     beta= 0.70
     Davidson diagonalization with overlap
     ethr =  4.18E-08,  avg # of iterations =  2.0

     negative rho (up, down):  3.263E-04 8.869E-05

     total cpu time spent up to now is       57.1 secs

     total energy              =     -27.83661153 Ry
     estimated scf accuracy    <       0.00000023 Ry

     total magnetization       =     3.00 Bohr mag/cell
     absolute magnetization    =     3.00 Bohr mag/cell

     iteration #  7     ecut=    70.00 Ry     beta= 0.70
     Davidson diagonalization with overlap
     ethr =  4.65E-09,  avg # of iterations =  2.0

     negative rho (up, down):  3.264E-04 8.855E-05
 
     Magnetic moment per site  (integrated on atomic sphere of radius R)
     atom   1 (R=0.413)  charge=  5.0000  magn=  3.0000

     total cpu time spent up to now is       63.9 secs

     End of self-consistent calculation

 ------ SPIN UP ------------


          k = 0.0000 0.0000 0.0000 (225199 PWs)   bands (ev):

   -19.8460  -8.2655  -8.2655  -8.2655  -0.3556   0.2198   0.4684   0.4685

 ------ SPIN DOWN ----------


          k = 0.0000 0.0000 0.0000 (225199 PWs)   bands (ev):

   -15.2737  -4.0973  -4.0972  -4.0972  -0.1244   0.4992   0.5607   0.5670

     the spin up/dw Fermi energies are    -3.8559   -9.6395 ev

!    total energy              =     -27.83661155 Ry
     total all-electron energy =      -109.135410 Ry
     estimated scf accuracy    <          7.0E-09 Ry
     smearing contrib. (-TS)   =      -0.00000000 Ry
     internal energy E=F+TS    =     -27.83661155 Ry

     The total energy is F=E-TS. E is the sum of the following terms:
     one-electron contribution =     -25.97917317 Ry
     hartree contribution      =      14.05146992 Ry
     xc contribution           =      -5.41431425 Ry
     ewald contribution        =      -2.50238861 Ry
     one-center paw contrib.   =      -7.99220545 Ry

     total magnetization       =     3.00 Bohr mag/cell
     absolute magnetization    =     3.00 Bohr mag/cell

     convergence has been achieved in   7 iterations

     Writing all to output data dir ./tmp/N_atom.save/ :
     XML data file, charge density, pseudopotentials, collected wavefunctions
 
     init_run     :      8.65s CPU      9.52s WALL (       1 calls)
     electrons    :     48.81s CPU     55.55s WALL (       1 calls)

     Called by init_run:
     wfcinit      :      0.33s CPU      0.35s WALL (       1 calls)
     potinit      :      2.48s CPU      2.79s WALL (       1 calls)
     hinit0       :      0.59s CPU      0.66s WALL (       1 calls)

     Called by electrons:
     c_bands      :      9.02s CPU      9.10s WALL (       7 calls)
     sum_band     :     15.21s CPU     17.42s WALL (       7 calls)
     v_of_rho     :     15.61s CPU     17.23s WALL (       8 calls)
     newd         :      6.06s CPU      8.25s WALL (       8 calls)
     PAW_pot      :      0.13s CPU      0.20s WALL (       8 calls)
     mix_rho      :      3.17s CPU      3.34s WALL (       7 calls)

     Called by c_bands:
     init_us_2    :      0.11s CPU      0.12s WALL (      30 calls)
     cegterg      :      8.89s CPU      8.97s WALL (      14 calls)

     Called by *egterg:
     cdiaghg      :      0.02s CPU      0.02s WALL (     106 calls)
     h_psi        :      8.16s CPU      8.25s WALL (     108 calls)
     s_psi        :      0.06s CPU      0.06s WALL (     108 calls)
     g_psi        :      0.02s CPU      0.02s WALL (      92 calls)

     Called by h_psi:
     h_psi:calbec :      0.13s CPU      0.14s WALL (     108 calls)
     vloc_psi     :      7.88s CPU      7.95s WALL (     108 calls)
     add_vuspsi   :      0.09s CPU      0.10s WALL (     108 calls)

     General routines
     calbec       :      0.16s CPU      0.16s WALL (     122 calls)
     fft          :     13.56s CPU     13.85s WALL (     194 calls)
     ffts         :      0.42s CPU      0.43s WALL (      30 calls)
     fftw         :      5.03s CPU      5.10s WALL (     966 calls)
     interpolate  :      1.45s CPU      1.53s WALL (      16 calls)
 
     Parallel routines
 
     PWSCF        :     58.07s CPU   1m 6.95s WALL

 
   This run was terminated on:  23:17:15  31Jul2026            

=------------------------------------------------------------------------------=
   JOB DONE.
=------------------------------------------------------------------------------=
