 INFO
nunit      1    1    1
unit   cell
celltype   convcell
shape   parapipedal
 END_INFO
 DIM-GROUP
           3           9
 PRIMVEC
    3.2200000000    0.0000000000    0.0000000000
   -1.6100000000    2.7886018000    0.0000000000
    0.0000000000    0.0000000000    5.2500000000
 CONVVEC
    3.2200000000    0.0000000000    0.0000000000
   -1.6100000000    2.7886018000    0.0000000000
    0.0000000000    0.0000000000    5.2500000000
 PRIMCOORD
           4           1
 31      0.0000000000     1.8590678650     0.0000000000
 31      1.6099999980     0.9295339330     2.6250000000
  7      0.0000000000     1.8590678650     1.9760055000
  7      1.6099999980     0.9295339330     4.6010055000
 CONVCOORD
           4           1
 31      0.0000000000     1.8590678650     0.0000000000
 31      1.6099999980     0.9295339330     2.6250000000
  7      0.0000000000     1.8590678650     1.9760055000
  7      1.6099999980     0.9295339330     4.6010055000
 RECIP-PRIMVEC
    0.3105590062    0.1793013258   -0.0000000000

    0.0000000000    0.3586026517    0.0000000000

    0.0000000000   -0.0000000000    0.1904761905

 RECIP-CONVVEC
    0.3105590062    0.1793013258   -0.0000000000

    0.0000000000    0.3586026517    0.0000000000

    0.0000000000   -0.0000000000    0.1904761905

 WIGNER-SEITZ-PRIMCELL
           4
 -0.1610000E+01 -0.9295339E+00 -0.2625000E+01  -0.5000000E+00 -0.8660254E+00 -0.0000000E+00
 -0.0000000E+00 -0.1859068E+01 -0.2625000E+01  -0.5000000E+00 -0.8660254E+00 -0.0000000E+00
  0.0000000E+00 -0.1859068E+01  0.2625000E+01  -0.5000000E+00 -0.8660254E+00 -0.0000000E+00
 -0.1610000E+01 -0.9295339E+00  0.2625000E+01  -0.5000000E+00 -0.8660254E+00 -0.0000000E+00
           4
 -0.1610000E+01  0.9295339E+00  0.2625000E+01  -0.1000000E+01  0.0000000E+00  0.0000000E+00
 -0.1610000E+01  0.9295339E+00 -0.2625000E+01  -0.1000000E+01  0.0000000E+00  0.0000000E+00
 -0.1610000E+01 -0.9295339E+00 -0.2625000E+01  -0.1000000E+01  0.0000000E+00  0.0000000E+00
 -0.1610000E+01 -0.9295339E+00  0.2625000E+01  -0.1000000E+01  0.0000000E+00  0.0000000E+00
           4
 -0.3014522E-15 -0.1859068E+01  0.2625000E+01   0.5000000E+00 -0.8660254E+00 -0.0000000E+00
 -0.0000000E+00 -0.1859068E+01 -0.2625000E+01   0.5000000E+00 -0.8660254E+00 -0.0000000E+00
  0.1610000E+01 -0.9295339E+00 -0.2625000E+01   0.5000000E+00 -0.8660254E+00 -0.0000000E+00
  0.1610000E+01 -0.9295339E+00  0.2625000E+01   0.5000000E+00 -0.8660254E+00 -0.0000000E+00
           6
 -0.1610000E+01 -0.9295339E+00 -0.2625000E+01   0.0000000E+00  0.0000000E+00 -0.1000000E+01
 -0.1610000E+01  0.9295339E+00 -0.2625000E+01   0.0000000E+00  0.0000000E+00 -0.1000000E+01
  0.0000000E+00  0.1859068E+01 -0.2625000E+01   0.0000000E+00  0.0000000E+00 -0.1000000E+01
  0.1610000E+01  0.9295339E+00 -0.2625000E+01   0.0000000E+00  0.0000000E+00 -0.1000000E+01
  0.1610000E+01 -0.9295339E+00 -0.2625000E+01   0.0000000E+00  0.0000000E+00 -0.1000000E+01
 -0.0000000E+00 -0.1859068E+01 -0.2625000E+01   0.0000000E+00  0.0000000E+00 -0.1000000E+01
           6
  0.0000000E+00 -0.1859068E+01  0.2625000E+01   0.2967421E-15 -0.0000000E+00  0.1000000E+01
  0.1610000E+01 -0.9295339E+00  0.2625000E+01   0.2967421E-15 -0.0000000E+00  0.1000000E+01
  0.1610000E+01  0.9295339E+00  0.2625000E+01   0.2967421E-15 -0.0000000E+00  0.1000000E+01
 -0.0000000E+00  0.1859068E+01  0.2625000E+01   0.2967421E-15 -0.0000000E+00  0.1000000E+01
 -0.1610000E+01  0.9295339E+00  0.2625000E+01   0.2967421E-15 -0.0000000E+00  0.1000000E+01
 -0.1610000E+01 -0.9295339E+00  0.2625000E+01   0.2967421E-15 -0.0000000E+00  0.1000000E+01
           4
 -0.0000000E+00  0.1859068E+01  0.2625000E+01  -0.5000000E+00  0.8660254E+00  0.1592516E-15
 -0.0000000E+00  0.1859068E+01 -0.2625000E+01  -0.5000000E+00  0.8660254E+00  0.1592516E-15
 -0.1610000E+01  0.9295339E+00 -0.2625000E+01  -0.5000000E+00  0.8660254E+00  0.1592516E-15
 -0.1610000E+01  0.9295339E+00  0.2625000E+01  -0.5000000E+00  0.8660254E+00  0.1592516E-15
           4
  0.1610000E+01 -0.9295339E+00  0.2625000E+01   0.1000000E+01 -0.1194387E-15 -0.4229421E-16
  0.1610000E+01 -0.9295339E+00 -0.2625000E+01   0.1000000E+01 -0.1194387E-15 -0.4229421E-16
  0.1610000E+01  0.9295339E+00 -0.2625000E+01   0.1000000E+01 -0.1194387E-15 -0.4229421E-16
  0.1610000E+01  0.9295339E+00  0.2625000E+01   0.1000000E+01 -0.1194387E-15 -0.4229421E-16
           4
  0.1610000E+01  0.9295339E+00  0.2625000E+01   0.5000000E+00  0.8660254E+00  0.0000000E+00
  0.1610000E+01  0.9295339E+00 -0.2625000E+01   0.5000000E+00  0.8660254E+00  0.0000000E+00
 -0.0000000E+00  0.1859068E+01 -0.2625000E+01   0.5000000E+00  0.8660254E+00  0.0000000E+00
 -0.3014522E-15  0.1859068E+01  0.2625000E+01   0.5000000E+00  0.8660254E+00  0.0000000E+00
 WIGNER-SEITZ-PRIMCELL_END
 WIGNER-SEITZ-CONVCELL
           4
 -0.1610000E+01 -0.9295339E+00 -0.2625000E+01  -0.5000000E+00 -0.8660254E+00 -0.0000000E+00
 -0.0000000E+00 -0.1859068E+01 -0.2625000E+01  -0.5000000E+00 -0.8660254E+00 -0.0000000E+00
  0.0000000E+00 -0.1859068E+01  0.2625000E+01  -0.5000000E+00 -0.8660254E+00 -0.0000000E+00
 -0.1610000E+01 -0.9295339E+00  0.2625000E+01  -0.5000000E+00 -0.8660254E+00 -0.0000000E+00
           4
 -0.1610000E+01  0.9295339E+00  0.2625000E+01  -0.1000000E+01  0.0000000E+00  0.0000000E+00
 -0.1610000E+01  0.9295339E+00 -0.2625000E+01  -0.1000000E+01  0.0000000E+00  0.0000000E+00
 -0.1610000E+01 -0.9295339E+00 -0.2625000E+01  -0.1000000E+01  0.0000000E+00  0.0000000E+00
 -0.1610000E+01 -0.9295339E+00  0.2625000E+01  -0.1000000E+01  0.0000000E+00  0.0000000E+00
           4
 -0.3014522E-15 -0.1859068E+01  0.2625000E+01   0.5000000E+00 -0.8660254E+00 -0.0000000E+00
 -0.0000000E+00 -0.1859068E+01 -0.2625000E+01   0.5000000E+00 -0.8660254E+00 -0.0000000E+00
  0.1610000E+01 -0.9295339E+00 -0.2625000E+01   0.5000000E+00 -0.8660254E+00 -0.0000000E+00
  0.1610000E+01 -0.9295339E+00  0.2625000E+01   0.5000000E+00 -0.8660254E+00 -0.0000000E+00
           6
 -0.1610000E+01 -0.9295339E+00 -0.2625000E+01   0.0000000E+00  0.0000000E+00 -0.1000000E+01
 -0.1610000E+01  0.9295339E+00 -0.2625000E+01   0.0000000E+00  0.0000000E+00 -0.1000000E+01
  0.0000000E+00  0.1859068E+01 -0.2625000E+01   0.0000000E+00  0.0000000E+00 -0.1000000E+01
  0.1610000E+01  0.9295339E+00 -0.2625000E+01   0.0000000E+00  0.0000000E+00 -0.1000000E+01
  0.1610000E+01 -0.9295339E+00 -0.2625000E+01   0.0000000E+00  0.0000000E+00 -0.1000000E+01
 -0.0000000E+00 -0.1859068E+01 -0.2625000E+01   0.0000000E+00  0.0000000E+00 -0.1000000E+01
           6
  0.0000000E+00 -0.1859068E+01  0.2625000E+01   0.2967421E-15 -0.0000000E+00  0.1000000E+01
  0.1610000E+01 -0.9295339E+00  0.2625000E+01   0.2967421E-15 -0.0000000E+00  0.1000000E+01
  0.1610000E+01  0.9295339E+00  0.2625000E+01   0.2967421E-15 -0.0000000E+00  0.1000000E+01
 -0.0000000E+00  0.1859068E+01  0.2625000E+01   0.2967421E-15 -0.0000000E+00  0.1000000E+01
 -0.1610000E+01  0.9295339E+00  0.2625000E+01   0.2967421E-15 -0.0000000E+00  0.1000000E+01
 -0.1610000E+01 -0.9295339E+00  0.2625000E+01   0.2967421E-15 -0.0000000E+00  0.1000000E+01
           4
 -0.0000000E+00  0.1859068E+01  0.2625000E+01  -0.5000000E+00  0.8660254E+00  0.1592516E-15
 -0.0000000E+00  0.1859068E+01 -0.2625000E+01  -0.5000000E+00  0.8660254E+00  0.1592516E-15
 -0.1610000E+01  0.9295339E+00 -0.2625000E+01  -0.5000000E+00  0.8660254E+00  0.1592516E-15
 -0.1610000E+01  0.9295339E+00  0.2625000E+01  -0.5000000E+00  0.8660254E+00  0.1592516E-15
           4
  0.1610000E+01 -0.9295339E+00  0.2625000E+01   0.1000000E+01 -0.1194387E-15 -0.4229421E-16
  0.1610000E+01 -0.9295339E+00 -0.2625000E+01   0.1000000E+01 -0.1194387E-15 -0.4229421E-16
  0.1610000E+01  0.9295339E+00 -0.2625000E+01   0.1000000E+01 -0.1194387E-15 -0.4229421E-16
  0.1610000E+01  0.9295339E+00  0.2625000E+01   0.1000000E+01 -0.1194387E-15 -0.4229421E-16
           4
  0.1610000E+01  0.9295339E+00  0.2625000E+01   0.5000000E+00  0.8660254E+00  0.0000000E+00
  0.1610000E+01  0.9295339E+00 -0.2625000E+01   0.5000000E+00  0.8660254E+00  0.0000000E+00
 -0.0000000E+00  0.1859068E+01 -0.2625000E+01   0.5000000E+00  0.8660254E+00  0.0000000E+00
 -0.3014522E-15  0.1859068E+01  0.2625000E+01   0.5000000E+00  0.8660254E+00  0.0000000E+00
 WIGNER-SEITZ-CONVCELL_END
 BRILLOUIN-ZONE-PRIMCELL
           4
 -0.2070393E+00 -0.2044429E-16 -0.9523810E-01  -0.8660254E+00 -0.5000000E+00 -0.0000000E+00
 -0.1035197E+00 -0.1793013E+00 -0.9523810E-01  -0.8660254E+00 -0.5000000E+00 -0.0000000E+00
 -0.1035197E+00 -0.1793013E+00  0.9523810E-01  -0.8660254E+00 -0.5000000E+00 -0.0000000E+00
 -0.2070393E+00 -0.4088857E-16  0.9523810E-01  -0.8660254E+00 -0.5000000E+00 -0.0000000E+00
           4
 -0.2070393E+00 -0.0000000E+00  0.9523810E-01  -0.8660254E+00  0.5000000E+00 -0.7194467E-32
 -0.1035197E+00  0.1793013E+00  0.9523810E-01  -0.8660254E+00  0.5000000E+00 -0.7194467E-32
 -0.1035197E+00  0.1793013E+00 -0.9523810E-01  -0.8660254E+00  0.5000000E+00 -0.7194467E-32
 -0.2070393E+00 -0.2044429E-16 -0.9523810E-01  -0.8660254E+00  0.5000000E+00 -0.7194467E-32
           4
 -0.1035197E+00 -0.1793013E+00 -0.9523810E-01  -0.0000000E+00 -0.1000000E+01 -0.1128558E-15
  0.1035197E+00 -0.1793013E+00 -0.9523810E-01  -0.0000000E+00 -0.1000000E+01 -0.1128558E-15
  0.1035197E+00 -0.1793013E+00  0.9523810E-01  -0.0000000E+00 -0.1000000E+01 -0.1128558E-15
 -0.1035197E+00 -0.1793013E+00  0.9523810E-01  -0.0000000E+00 -0.1000000E+01 -0.1128558E-15
           6
 -0.2070393E+00 -0.2044429E-16 -0.9523810E-01   0.0000000E+00  0.4672980E-16 -0.1000000E+01
 -0.1035197E+00  0.1793013E+00 -0.9523810E-01   0.0000000E+00  0.4672980E-16 -0.1000000E+01
  0.1035197E+00  0.1793013E+00 -0.9523810E-01   0.0000000E+00  0.4672980E-16 -0.1000000E+01
  0.2070393E+00 -0.2044429E-16 -0.9523810E-01   0.0000000E+00  0.4672980E-16 -0.1000000E+01
  0.1035197E+00 -0.1793013E+00 -0.9523810E-01   0.0000000E+00  0.4672980E-16 -0.1000000E+01
 -0.1035197E+00 -0.1793013E+00 -0.9523810E-01   0.0000000E+00  0.4672980E-16 -0.1000000E+01
           6
 -0.1035197E+00 -0.1793013E+00  0.9523810E-01  -0.0000000E+00  0.9345959E-16  0.1000000E+01
  0.1035197E+00 -0.1793013E+00  0.9523810E-01  -0.0000000E+00  0.9345959E-16  0.1000000E+01
  0.2070393E+00  0.1022214E-16  0.9523810E-01  -0.0000000E+00  0.9345959E-16  0.1000000E+01
  0.1035197E+00  0.1793013E+00  0.9523810E-01  -0.0000000E+00  0.9345959E-16  0.1000000E+01
 -0.1035197E+00  0.1793013E+00  0.9523810E-01  -0.0000000E+00  0.9345959E-16  0.1000000E+01
 -0.2070393E+00 -0.0000000E+00  0.9523810E-01  -0.0000000E+00  0.9345959E-16  0.1000000E+01
           4
  0.1035197E+00  0.1793013E+00  0.9523810E-01   0.0000000E+00  0.1000000E+01  0.1759530E-15
  0.1035197E+00  0.1793013E+00 -0.9523810E-01   0.0000000E+00  0.1000000E+01  0.1759530E-15
 -0.1035197E+00  0.1793013E+00 -0.9523810E-01   0.0000000E+00  0.1000000E+01  0.1759530E-15
 -0.1035197E+00  0.1793013E+00  0.9523810E-01   0.0000000E+00  0.1000000E+01  0.1759530E-15
           4
  0.1035197E+00 -0.1793013E+00  0.9523810E-01   0.8660254E+00 -0.5000000E+00 -0.0000000E+00
  0.1035197E+00 -0.1793013E+00 -0.9523810E-01   0.8660254E+00 -0.5000000E+00 -0.0000000E+00
  0.2070393E+00  0.2044429E-16 -0.9523810E-01   0.8660254E+00 -0.5000000E+00 -0.0000000E+00
  0.2070393E+00 -0.2044429E-16  0.9523810E-01   0.8660254E+00 -0.5000000E+00 -0.0000000E+00
           4
  0.1035197E+00  0.1793013E+00  0.9523810E-01   0.8660254E+00  0.5000000E+00  0.5366625E-16
  0.2070393E+00  0.0000000E+00  0.9523810E-01   0.8660254E+00  0.5000000E+00  0.5366625E-16
  0.2070393E+00  0.2044429E-16 -0.9523810E-01   0.8660254E+00  0.5000000E+00  0.5366625E-16
  0.1035197E+00  0.1793013E+00 -0.9523810E-01   0.8660254E+00  0.5000000E+00  0.5366625E-16
 BRILLOUIN-ZONE-PRIMCELL_END
 BRILLOUIN-ZONE-CONVCELL
           4
 -0.2070393E+00 -0.2044429E-16 -0.9523810E-01  -0.8660254E+00 -0.5000000E+00 -0.0000000E+00
 -0.1035197E+00 -0.1793013E+00 -0.9523810E-01  -0.8660254E+00 -0.5000000E+00 -0.0000000E+00
 -0.1035197E+00 -0.1793013E+00  0.9523810E-01  -0.8660254E+00 -0.5000000E+00 -0.0000000E+00
 -0.2070393E+00 -0.4088857E-16  0.9523810E-01  -0.8660254E+00 -0.5000000E+00 -0.0000000E+00
           4
 -0.2070393E+00 -0.0000000E+00  0.9523810E-01  -0.8660254E+00  0.5000000E+00 -0.7194467E-32
 -0.1035197E+00  0.1793013E+00  0.9523810E-01  -0.8660254E+00  0.5000000E+00 -0.7194467E-32
 -0.1035197E+00  0.1793013E+00 -0.9523810E-01  -0.8660254E+00  0.5000000E+00 -0.7194467E-32
 -0.2070393E+00 -0.2044429E-16 -0.9523810E-01  -0.8660254E+00  0.5000000E+00 -0.7194467E-32
           4
 -0.1035197E+00 -0.1793013E+00 -0.9523810E-01  -0.0000000E+00 -0.1000000E+01 -0.1128558E-15
  0.1035197E+00 -0.1793013E+00 -0.9523810E-01  -0.0000000E+00 -0.1000000E+01 -0.1128558E-15
  0.1035197E+00 -0.1793013E+00  0.9523810E-01  -0.0000000E+00 -0.1000000E+01 -0.1128558E-15
 -0.1035197E+00 -0.1793013E+00  0.9523810E-01  -0.0000000E+00 -0.1000000E+01 -0.1128558E-15
           6
 -0.2070393E+00 -0.2044429E-16 -0.9523810E-01   0.0000000E+00  0.4672980E-16 -0.1000000E+01
 -0.1035197E+00  0.1793013E+00 -0.9523810E-01   0.0000000E+00  0.4672980E-16 -0.1000000E+01
  0.1035197E+00  0.1793013E+00 -0.9523810E-01   0.0000000E+00  0.4672980E-16 -0.1000000E+01
  0.2070393E+00 -0.2044429E-16 -0.9523810E-01   0.0000000E+00  0.4672980E-16 -0.1000000E+01
  0.1035197E+00 -0.1793013E+00 -0.9523810E-01   0.0000000E+00  0.4672980E-16 -0.1000000E+01
 -0.1035197E+00 -0.1793013E+00 -0.9523810E-01   0.0000000E+00  0.4672980E-16 -0.1000000E+01
           6
 -0.1035197E+00 -0.1793013E+00  0.9523810E-01  -0.0000000E+00  0.9345959E-16  0.1000000E+01
  0.1035197E+00 -0.1793013E+00  0.9523810E-01  -0.0000000E+00  0.9345959E-16  0.1000000E+01
  0.2070393E+00  0.1022214E-16  0.9523810E-01  -0.0000000E+00  0.9345959E-16  0.1000000E+01
  0.1035197E+00  0.1793013E+00  0.9523810E-01  -0.0000000E+00  0.9345959E-16  0.1000000E+01
 -0.1035197E+00  0.1793013E+00  0.9523810E-01  -0.0000000E+00  0.9345959E-16  0.1000000E+01
 -0.2070393E+00 -0.0000000E+00  0.9523810E-01  -0.0000000E+00  0.9345959E-16  0.1000000E+01
           4
  0.1035197E+00  0.1793013E+00  0.9523810E-01   0.0000000E+00  0.1000000E+01  0.1759530E-15
  0.1035197E+00  0.1793013E+00 -0.9523810E-01   0.0000000E+00  0.1000000E+01  0.1759530E-15
 -0.1035197E+00  0.1793013E+00 -0.9523810E-01   0.0000000E+00  0.1000000E+01  0.1759530E-15
 -0.1035197E+00  0.1793013E+00  0.9523810E-01   0.0000000E+00  0.1000000E+01  0.1759530E-15
           4
  0.1035197E+00 -0.1793013E+00  0.9523810E-01   0.8660254E+00 -0.5000000E+00 -0.0000000E+00
  0.1035197E+00 -0.1793013E+00 -0.9523810E-01   0.8660254E+00 -0.5000000E+00 -0.0000000E+00
  0.2070393E+00  0.2044429E-16 -0.9523810E-01   0.8660254E+00 -0.5000000E+00 -0.0000000E+00
  0.2070393E+00 -0.2044429E-16  0.9523810E-01   0.8660254E+00 -0.5000000E+00 -0.0000000E+00
           4
  0.1035197E+00  0.1793013E+00  0.9523810E-01   0.8660254E+00  0.5000000E+00  0.5366625E-16
  0.2070393E+00  0.0000000E+00  0.9523810E-01   0.8660254E+00  0.5000000E+00  0.5366625E-16
  0.2070393E+00  0.2044429E-16 -0.9523810E-01   0.8660254E+00  0.5000000E+00  0.5366625E-16
  0.1035197E+00  0.1793013E+00 -0.9523810E-01   0.8660254E+00  0.5000000E+00  0.5366625E-16
 BRILLOUIN-ZONE-CONVCELL_END
 ATOMS
   31    0.0000000000    1.8590678650    0.0000000000
   31    1.6099999980    0.9295339330    2.6250000000
    7    0.0000000000    1.8590678650    1.9760055000
    7    1.6099999980    0.9295339330    4.6010055000
   31    0.0000000000    1.8590678650    5.2500000000
 FRAMES
1      0.0000000000    0.0000000000    0.0000000000      3.2200000000    0.0000000000    0.0000000000
1      0.0000000000    0.0000000000    0.0000000000     -1.6100000000    2.7886018000    0.0000000000
1      0.0000000000    0.0000000000    0.0000000000      0.0000000000    0.0000000000    5.2500000000
1      0.0000000000    0.0000000000    5.2500000000      3.2200000000    0.0000000000    5.2500000000
1      0.0000000000    0.0000000000    5.2500000000     -1.6100000000    2.7886018000    5.2500000000
1     -1.6100000000    2.7886018000    0.0000000000      1.6100000000    2.7886018000    0.0000000000
1     -1.6100000000    2.7886018000    0.0000000000     -1.6100000000    2.7886018000    5.2500000000
1     -1.6100000000    2.7886018000    5.2500000000      1.6100000000    2.7886018000    5.2500000000
1      3.2200000000    0.0000000000    0.0000000000      1.6100000000    2.7886018000    0.0000000000
1      3.2200000000    0.0000000000    0.0000000000      3.2200000000    0.0000000000    5.2500000000
1      3.2200000000    0.0000000000    5.2500000000      1.6100000000    2.7886018000    5.2500000000
1      1.6100000000    2.7886018000    0.0000000000      1.6100000000    2.7886018000    5.2500000000
