 # File generated with Atomsk by rojassan on 2026-08-04 21:50:19
 CRYSTAL
 PRIMVEC
      9.66000000        0.00000000        0.00000000
     -4.83000000        8.36580540        0.00000000
      0.00000000        0.00000000       15.75000000
 CONVVEC
      9.66000000        0.00000000        0.00000000
     -4.83000000        8.36580540        0.00000000
      0.00000000        0.00000000       15.75000000
 PRIMCOORD
      108 1
31        0.00000000        1.85906787        0.00000000
31        1.61000000        0.92953393        2.62500000
7        0.00000000        1.85906787        1.97600550
7        1.61000000        0.92953393        4.60100550
31        3.22000000        1.85906787        0.00000000
31        4.83000000        0.92953393        2.62500000
7        3.22000000        1.85906787        1.97600550
7        4.83000000        0.92953393        4.60100550
31        6.44000000        1.85906787        0.00000000
31        8.05000000        0.92953393        2.62500000
7        6.44000000        1.85906787        1.97600550
7        8.05000000        0.92953393        4.60100550
31       -1.61000000        4.64766967        0.00000000
31       -0.00000000        3.71813573        2.62500000
7       -1.61000000        4.64766967        1.97600550
7       -0.00000000        3.71813573        4.60100550
31        1.61000000        4.64766967        0.00000000
31        3.22000000        3.71813573        2.62500000
7        1.61000000        4.64766967        1.97600550
7        3.22000000        3.71813573        4.60100550
31        4.83000000        4.64766967        0.00000000
31        6.44000000        3.71813573        2.62500000
7        4.83000000        4.64766967        1.97600550
7        6.44000000        3.71813573        4.60100550
31       -3.22000000        7.43627146        0.00000000
31       -1.61000000        6.50673753        2.62500000
7       -3.22000000        7.43627146        1.97600550
7       -1.61000000        6.50673753        4.60100550
31        0.00000000        7.43627146        0.00000000
31        1.61000000        6.50673753        2.62500000
7        0.00000000        7.43627146        1.97600550
7        1.61000000        6.50673753        4.60100550
31        3.22000000        7.43627146        0.00000000
31        4.83000000        6.50673753        2.62500000
7        3.22000000        7.43627146        1.97600550
7        4.83000000        6.50673753        4.60100550
31        0.00000000        1.85906787        5.25000000
31        1.61000000        0.92953393        7.87500000
7        0.00000000        1.85906787        7.22600550
7        1.61000000        0.92953393        9.85100550
31        3.22000000        1.85906787        5.25000000
31        4.83000000        0.92953393        7.87500000
7        3.22000000        1.85906787        7.22600550
7        4.83000000        0.92953393        9.85100550
31        6.44000000        1.85906787        5.25000000
31        8.05000000        0.92953393        7.87500000
7        6.44000000        1.85906787        7.22600550
7        8.05000000        0.92953393        9.85100550
31       -1.61000000        4.64766967        5.25000000
31       -0.00000000        3.71813573        7.87500000
7       -1.61000000        4.64766967        7.22600550
7       -0.00000000        3.71813573        9.85100550
31        1.61000000        4.64766967        5.25000000
31        3.22000000        3.71813573        7.87500000
7        1.61000000        4.64766967        7.22600550
7        3.22000000        3.71813573        9.85100550
31        4.83000000        4.64766967        5.25000000
31        6.44000000        3.71813573        7.87500000
7        4.83000000        4.64766967        7.22600550
7        6.44000000        3.71813573        9.85100550
31       -3.22000000        7.43627146        5.25000000
31       -1.61000000        6.50673753        7.87500000
7       -3.22000000        7.43627146        7.22600550
7       -1.61000000        6.50673753        9.85100550
31        0.00000000        7.43627146        5.25000000
31        1.61000000        6.50673753        7.87500000
7        0.00000000        7.43627146        7.22600550
7        1.61000000        6.50673753        9.85100550
31        3.22000000        7.43627146        5.25000000
31        4.83000000        6.50673753        7.87500000
7        3.22000000        7.43627146        7.22600550
7        4.83000000        6.50673753        9.85100550
31        0.00000000        1.85906787       10.50000000
31        1.61000000        0.92953393       13.12500000
7        0.00000000        1.85906787       12.47600550
7        1.61000000        0.92953393       15.10100550
31        3.22000000        1.85906787       10.50000000
31        4.83000000        0.92953393       13.12500000
7        3.22000000        1.85906787       12.47600550
7        4.83000000        0.92953393       15.10100550
31        6.44000000        1.85906787       10.50000000
31        8.05000000        0.92953393       13.12500000
7        6.44000000        1.85906787       12.47600550
7        8.05000000        0.92953393       15.10100550
31       -1.61000000        4.64766967       10.50000000
31       -0.00000000        3.71813573       13.12500000
7       -1.61000000        4.64766967       12.47600550
7       -0.00000000        3.71813573       15.10100550
31        1.61000000        4.64766967       10.50000000
31        3.22000000        3.71813573       13.12500000
7        1.61000000        4.64766967       12.47600550
7        3.22000000        3.71813573       15.10100550
31        4.83000000        4.64766967       10.50000000
31        6.44000000        3.71813573       13.12500000
7        4.83000000        4.64766967       12.47600550
7        6.44000000        3.71813573       15.10100550
31       -3.22000000        7.43627146       10.50000000
31       -1.61000000        6.50673753       13.12500000
7       -3.22000000        7.43627146       12.47600550
7       -1.61000000        6.50673753       15.10100550
31        0.00000000        7.43627146       10.50000000
31        1.61000000        6.50673753       13.12500000
7        0.00000000        7.43627146       12.47600550
7        1.61000000        6.50673753       15.10100550
31        3.22000000        7.43627146       10.50000000
31        4.83000000        6.50673753       13.12500000
7        3.22000000        7.43627146       12.47600550
7        4.83000000        6.50673753       15.10100550
